# vtk DataFile Version 2.0
Wound Healing Simulation
ASCII
DATASET UNSTRUCTURED_GRID
POINTS 3012 float
69.9759 18.75 4
67.2507 60.3285 4
69.976 18.75 2
73.0099 25.446 4
71.1327 20.9142 4
68.6801 16.6661 4
67.826 19.9261 3.98361
67.2507 60.3286 2
71.1327 54.0858 4
68.6801 58.3339 4
65.6939 62.2254 4
65.3128 59.0019 3.98419
74.6784 42.3946 4
73.7221 47.2057 4
69.9759 18.75 0
73.0099 25.446 2
68.6801 16.6661 2
71.1327 20.9142 2
67.8265 19.9289 2
74.6792 32.6053 4
73.7222 27.7943 4
72.1454 23.1494 4
70.6147 26.2211 3.98368
68.8863 21.9582 3.98428
67.2507 14.6715 4
66.6376 17.9716 3.9833
65.7978 21.0252 3.9753
67.2507 60.3285 0
71.1327 54.0858 2
68.6801 58.3339 2
65.694 62.2255 2
65.3139 58.9992 2
72.1454 51.8506 4
69.9759 56.25 4
68.8368 53.113 3.98323
64.0165 64.0165 4
66.6111 57.1341 3.98367
63.8864 60.7668 3.98624
63.5013 57.7725 3.977
60.3285 67.2507 4
74.6792 42.3947 2
73.7222 47.2057 2
74.9194 39.9526 4
74.2788 44.8158 4
72.1685 42.0857 3.98224
73.0099 49.554 4
71.2497 46.5983 3.98258
73.0099 25.446 0
71.1327 20.9142 0
68.6801 16.6661 0
67.826 19.9261 0.0163922
74.6792 32.6053 2
73.7222 27.7943 2
67.2508 14.6715 2
72.1455 23.1494 2
70.6147 26.2216 2
66.6384 17.9746 2
68.8866 21.9602 2
65.7973 21.0254 2
74.9197 35.0474 4
74.2794 30.1841 4
72.1851 32.9432 3.9826
71.2786 28.4313 3.98309
69.8161 24.0598 3.98414
68.3478 26.951 3.97389
66.7635 22.9329 3.97492
65.694 12.7746 4
65.3244 16.1026 3.98498
64.7143 19.1949 3.97563
63.8866 22.0358 3.97144
71.1327 54.0858 0
65.6939 62.2254 0
68.6801 58.3339 0
65.3128 59.0019 0.0158077
72.1455 51.8506 2
69.9759 56.25 2
68.8371 53.111 2
64.0165 64.0165 2
66.612 57.131 2
63.8878 60.7649 2
63.5011 57.7731 2
62.2254 65.694 4
58.8951 65.4145 3.99189
69.7694 50.9889 3.98323
67.7841 55.1674 3.98326
66.6499 52.2094 3.97356
62.3368 62.4281 3.98867
64.6614 56.0319 3.976
62.2038 59.4057 3.97863
61.8229 56.6811 3.97252
58.3339 68.6801 4
60.3285 67.2508 2
73.7221 47.2057 0
74.6784 42.3946 0
74.9197 39.9526 2
74.2794 44.8159 2
72.1682 42.0857 2
73.0099 49.554 2
71.2497 46.5979 2
75 37.5 4
72.4057 39.8023 3.98235
71.7829 44.3531 3.98251
69.8045 41.7898 3.97251
70.5755 48.8136 3.98287
68.9129 46.0152 3.97282
74.6792 32.6053 0
73.7222 27.7943 0
67.2507 14.6715 0
72.1454 23.1494 0
70.6147 26.2211 0.0163183
68.8863 21.9582 0.0157224
66.6376 17.9716 0.016696
65.7978 21.0252 0.0247035
74.9197 35.0474 2
74.2794 30.1841 2
72.1848 32.9434 2
71.2786 28.4316 2
65.694 12.7745 2
65.3256 16.1049 2
69.8163 24.061 2
68.3477 26.9512 2
64.714 19.1946 2
66.7631 22.9333 2
63.8862 22.0357 2
72.4135 35.2241 3.98234
71.8043 30.6762 3.98281
69.8405 33.2679 3.97302
68.967 29.0377 3.97352
67.6122 24.9116 3.97424
66.1948 27.6341 3.97015
64.0165 10.9835 4
64.7567 23.8298 3.97111
63.8909 14.3262 3.98717
63.5145 17.4458 3.978
62.9058 20.3218 3.97069
62.0906 22.9447 3.9697
60.6845 11.097 3.98948
57.6126 11.446 3.98279
72.1454 51.8506 0
69.9759 56.25 0
68.8368 53.113 0.0167672
64.0165 64.0165 0
63.8864 60.7668 0.0137582
66.6111 57.1341 0.0163338
63.5013 57.7725 0.0230037
62.2255 65.694 2
58.8958 65.4143 2
69.7695 50.9877 2
67.7846 55.1646 2
66.6496 52.2089 2
62.338 62.427 2
64.6612 56.0321 2
62.2038 59.4067 2
61.8226 56.6821 2
60.6694 63.9775 3.99048
57.026 66.7352 3.99254
57.5587 63.6933 3.98517
67.5081 50.1771 3.97307
65.7023 54.1734 3.97438
64.5368 51.385 3.96956
60.7739 60.9395 3.98102
62.8193 55.0672 3.97165
60.6584 58.1601 3.97358
60.3256 55.7836 3.97178
56.25 69.9759 4
58.3339 68.6801 2
60.3285 67.2507 0
58.9217 9.65538 3.99042
62.2254 9.30607 4
73.0099 49.554 0
74.2788 44.8158 0
71.2497 46.5983 0.0174175
72.1685 42.0857 0.0177571
74.9194 39.9526 0
75 37.5 2
72.4056 39.8024 2
71.7828 44.3527 2
69.8043 41.7895 2
70.5756 48.8131 2
68.913 46.0148 2
72.489 37.512 3.98211
70.0416 39.6573 3.97239
69.431 43.9078 3.97274
67.5973 41.4974 3.96931
68.2665 48.1075 3.97282
66.7098 45.44 3.96925
74.9197 35.0474 0
74.2794 30.1841 0
72.1851 32.9432 0.017404
71.2786 28.4313 0.0169098
65.694 12.7746 0
65.3244 16.1026 0.0150186
69.8161 24.0598 0.0158564
68.3478 26.951 0.0261104
66.7635 22.9329 0.025078
64.7143 19.1949 0.0243684
63.8866 22.0358 0.0285615
72.4134 35.2241 2
71.8043 30.6765 2
69.8403 33.2682 2
68.967 29.0378 2
64.0165 10.9835 2
63.8921 14.3278 2
63.5144 17.445 2
67.612 24.912 2
66.1947 27.6341 2
62.9056 20.3213 2
64.7563 23.8298 2
62.0902 22.9446 2
60.6854 11.0979 2
57.6128 11.4452 2
70.0582 35.3916 3.97252
69.4677 31.149 3.97308
67.6555 33.5905 3.96964
66.7723 29.6222 3.96975
65.5241 25.6989 3.97046
64.1456 28.2556 3.96971
62.3423 12.6542 3.98848
62.8556 24.6379 3.9698
62.2005 15.7829 3.9806
61.8134 18.6851 3.97237
61.2134 21.345 3.96833
60.4212 23.7303 3.96919
59.2468 12.7774 3.98148
55.8745 10.2324 3.98443
56.4053 13.113 3.97925
69.7694 50.9889 0.0167696
62.2254 65.694 0
58.8951 65.4145 0.00810845
67.7841 55.1674 0.0167438
66.6499 52.2094 0.026441
62.3368 62.4281 0.011335
62.2038 59.4057 0.0213705
64.6614 56.0319 0.0240008
61.8229 56.6811 0.0274803
60.6704 63.9769 2
57.0265 66.7352 2
57.5588 63.6945 2
67.5079 50.1766 2
65.7019 54.1731 2
64.5366 51.385 2
60.774 60.9407 2
62.8192 55.068 2
60.6584 58.1613 2
60.3257 55.7841 2
55.0715 67.9322 3.99281
59.2199 62.3677 3.98233
55.8056 64.9113 3.98766
56.3274 62.0918 3.981
65.3314 49.4084 3.96915
63.7048 53.2916 3.96987
62.4391 50.6504 3.96808
59.3338 59.5584 3.97764
61.0732 54.3064 3.97015
59.2877 57.0098 3.97116
59.2381 55.1781 3.97444
48.1036 68.5791 3.98873
50.9491 69.9318 3.993
54.0858 71.1327 4
56.25 69.976 2
58.3339 68.6801 0
57.059 8.33545 3.99104
60.3285 7.74928 4
58.9225 9.65593 2
62.2255 9.30602 2
70.5755 48.8136 0.0171251
71.7829 44.3531 0.0174912
68.9129 46.0152 0.0271842
69.8045 41.7898 0.0274936
72.4057 39.8023 0.0176466
75 37.5 0
72.4888 37.5121 2
70.0415 39.6572 2
69.4309 43.9075 2
67.597 41.4973 2
68.2665 48.1071 2
66.7098 45.4399 2
70.1295 37.5213 3.97241
67.8344 39.5121 3.96936
67.2237 43.4699 3.9693
65.5483 41.2091 3.96986
66.0685 47.4181 3.96913
64.6495 44.8475 3.96916
72.4135 35.2241 0.0176631
71.8043 30.6762 0.0171893
69.8405 33.2679 0.0269849
68.967 29.0377 0.0264807
64.0165 10.9835 0
63.8909 14.3262 0.0128299
63.5145 17.4458 0.0220047
67.6122 24.9116 0.0257605
66.1948 27.6341 0.0298475
64.7567 23.8298 0.0288924
62.9058 20.3218 0.0293136
62.0906 22.9447 0.0303024
60.6845 11.097 0.0105235
57.6126 11.446 0.0172114
70.0581 35.3918 2
69.4677 31.1492 2
67.6552 33.5905 2
66.7724 29.6222 2
62.3434 12.6555 2
62.2003 15.782 2
61.8134 18.684 2
65.5239 25.6989 2
64.1455 28.2555 2
61.2133 21.3446 2
62.8552 24.6379 2
60.4211 23.7304 2
59.2468 12.7768 2
56.4051 13.112 2
55.8746 10.2316 2
67.8703 35.5472 3.96942
67.2652 31.6219 3.96957
65.694 33.9271 3.97
64.6613 30.1921 3.96936
63.537 26.4146 3.96965
62.2497 28.7795 3.97159
60.7763 14.2218 3.98138
61.0403 25.34 3.97018
60.6135 17.1267 3.97688
60.2186 19.8201 3.96838
59.6526 22.263 3.96781
58.9686 24.3251 3.97027
54.0376 9.13538 3.98554
57.9107 14.3312 3.97976
54.7867 12.012 3.98059
55.3121 14.6473 3.97793
67.5081 50.1771 0.0269256
57.026 66.7352 0.00746198
60.6694 63.9775 0.00952403
57.5587 63.6933 0.0148349
65.7023 54.1734 0.0256157
64.5368 51.385 0.0304387
60.7739 60.9395 0.0189814
60.6584 58.1601 0.0264178
62.8193 55.0672 0.0283543
60.3256 55.7836 0.0282183
55.0719 67.9323 2
59.22 62.3688 2
55.8056 64.9123 2
56.3274 62.0931 2
65.3312 49.4083 2
63.7044 53.2918 2
62.439 50.6504 2
59.3338 59.5597 2
61.0734 54.3068 2
59.2879 57.0102 2
59.2383 55.1783 2
53.0433 69 3.99293
53.968 66.0137 3.98842
57.881 60.8714 3.97932
54.6845 63.2095 3.98346
55.2113 60.6175 3.97889
63.1898 48.6597 3.96837
61.7374 52.5729 3.96803
60.2585 50.0136 3.96812
58.0174 58.2608 3.97349
59.3202 53.9416 3.96967
58.1222 55.8039 3.96846
50.1104 67.8571 3.98872
47.4639 66.5819 3.98615
46.0571 69.1584 3.98874
48.1036 68.5796 2
48.8032 70.7231 3.99308
50.9494 69.932 2
51.8506 72.1454 4
54.0858 71.1327 2
56.25 69.9759 0
55.1035 7.1401 3.99147
58.3339 6.31992 4
57.0597 8.3357 2
60.3286 7.74926 2
58.9217 9.65538 0.00958349
62.2254 9.30607 0
68.2665 48.1075 0.0271815
69.431 43.9078 0.0272637
66.7098 45.44 0.0307486
67.5973 41.4974 0.0306927
70.0416 39.6573 0.0276132
72.489 37.512 0.0178896
70.1294 37.5213 2
67.8343 39.5121 2
67.2236 43.4698 2
65.548 41.209 2
66.0685 47.418 2
64.6493 44.8474 2
67.9306 37.5217 3.96932
65.7788 39.3696 3.97007
65.1724 43.0245 3.9695
63.7258 40.9281 3.97215
63.9597 46.7154 3.96869
62.7922 44.2137 3.97208
70.0582 35.3916 0.0274847
69.4677 31.149 0.0269213
67.6555 33.5905 0.0303634
66.7723 29.6222 0.0302507
62.3423 12.6542 0.0115186
62.2005 15.7829 0.019402
61.8134 18.6851 0.0276276
65.5241 25.6989 0.0295442
64.1456 28.2556 0.0302867
62.8556 24.6379 0.0301954
61.2134 21.345 0.0316667
60.4212 23.7303 0.0308115
59.2468 12.7774 0.0185168
56.4053 13.113 0.0207506
55.8745 10.2324 0.0155656
67.8703 35.5472 2
67.2652 31.6219 2
65.6939 33.9271 2
64.6612 30.192 2
60.7762 14.2211 2
60.6133 17.1254 2
60.2187 19.8191 2
63.5368 26.4145 2
62.2493 28.7796 2
59.6529 22.2633 2
61.0402 25.3402 2
58.9682 24.3255 2
57.9103 14.3304 2
55.3117 14.6465 2
54.0377 9.13465 2
54.7866 12.0109 2
65.8687 35.6665 3.96992
65.1803 32.1543 3.96956
64.2647 34.2499 3.97174
62.5748 30.6374 3.97169
61.6414 27.0746 3.97053
60.8287 29.1432 3.97456
59.3114 15.6677 3.97911
59.3124 25.8016 3.9727
59.1219 18.3569 3.97372
58.7308 20.8611 3.96577
58.2729 23.0983 3.96723
57.9486 24.671 3.97186
52.1123 8.15358 3.98641
53.058 11.0177 3.98194
56.6763 15.7427 3.97899
53.809 13.6824 3.97858
54.3751 16.0013 3.97821
55.0715 67.9322 0.0071944
65.3314 49.4084 0.0308477
55.8056 64.9113 0.012343
59.2199 62.3677 0.0176732
56.3274 62.0918 0.0190005
63.7048 53.2916 0.0301287
62.4391 50.6504 0.0319203
59.3338 59.5584 0.022361
59.2877 57.0098 0.0288421
61.0732 54.3064 0.0298538
59.2381 55.1781 0.025556
53.0437 69.0001 2
53.9679 66.0144 2
57.8808 60.8725 2
54.6844 63.2106 2
55.2113 60.6188 2
63.1898 48.6596 2
61.7372 52.5729 2
60.2585 50.0134 2
58.0174 58.2623 2
59.3206 53.9415 2
58.1224 55.8039 2
52.0715 67.0002 3.98868
52.9541 64.2204 3.98528
56.6479 59.489 3.97708
53.6814 61.6243 3.98112
54.2592 59.3217 3.9764
60.9685 47.875 3.96915
59.6987 52.0996 3.96774
57.993 49.6067 3.97101
56.774 56.9798 3.97092
57.1096 54.1099 3.96713
50.1103 67.8577 2
49.3377 65.9223 3.98611
47.4638 66.5824 2
46.8932 64.7373 3.98468
45.5589 67.0991 3.98608
43.9739 69.5907 3.98872
46.0571 69.1589 2
46.6098 71.3676 3.99307
48.1036 68.5791 0.0112667
48.8035 70.7233 2
49.554 73.0099 4
50.9491 69.9318 0.00699917
51.8506 72.1455 2
54.0858 71.1327 0
53.0647 6.07167 3.99171
55.1041 7.14018 2
56.25 5.02411 4
58.3339 6.3199 2
57.059 8.33545 0.0089594
60.3285 7.74928 0
66.0685 47.4181 0.030874
67.2237 43.4699 0.0307031
64.6495 44.8475 0.0308392
65.5483 41.2091 0.0301429
67.8344 39.5121 0.0306371
70.1295 37.5213 0.027592
67.9304 37.5217 2
65.7785 39.3696 2
65.1722 43.0244 2
63.7256 40.928 2
63.9593 46.7153 2
62.7915 44.2135 2
65.8815 37.5014 3.96982
63.8618 39.2657 3.9718
63.3036 42.548 3.97195
62.3824 40.6958 3.97427
61.949 45.9152 3.97104
61.4151 43.6794 3.97498
67.8703 35.5472 0.0305766
67.2652 31.6219 0.0304274
65.694 33.9271 0.030004
64.6613 30.1921 0.0306441
60.7763 14.2218 0.0186191
60.6135 17.1267 0.0231164
60.2186 19.8201 0.0316248
63.537 26.4146 0.0303545
62.2497 28.7795 0.0284071
61.0403 25.34 0.0298219
59.6526 22.263 0.0321915
58.9686 24.3251 0.0297305
57.9107 14.3312 0.0202442
55.3121 14.6473 0.0220729
54.0376 9.13538 0.0144613
54.7867 12.012 0.0194125
65.8684 35.6665 2
65.1804 32.1543 2
64.2647 34.2499 2
62.5745 30.6375 2
59.3109 15.6667 2
59.122 18.3557 2
58.7314 20.8612 2
61.6409 27.0748 2
60.8287 29.1434 2
58.2729 23.0986 2
59.3127 25.8019 2
57.9482 24.6714 2
56.6757 15.7418 2
54.3745 16.0005 2
53.8087 13.6813 2
52.1124 8.15293 2
53.0579 11.0167 2
64.0604 35.6322 3.97144
62.8957 33.0473 3.97206
60.5778 30.6147 3.97484
59.544 27.915 3.97389
57.9387 16.9836 3.9776
57.7106 25.7329 3.97413
57.709 19.4808 3.97002
57.3535 21.8502 3.96445
57.1635 23.9545 3.96875
50.1125 7.28501 3.9872
51.2326 10.1254 3.98311
52.1717 12.7988 3.98037
55.5361 16.9741 3.9785
52.9763 15.2671 3.97613
53.756 16.9842 3.97973
53.0433 69 0.0070703
53.968 66.0137 0.0115751
63.1898 48.6597 0.0316257
54.6845 63.2095 0.0165414
57.881 60.8714 0.020679
55.2113 60.6175 0.0211132
61.7374 52.5729 0.0319684
60.2585 50.0136 0.0318773
58.0174 58.2608 0.0265056
58.1222 55.8039 0.0315387
59.3202 53.9416 0.03033
52.0714 67.0008 2
52.9539 64.2211 2
56.6477 59.4901 2
53.6813 61.6255 2
54.2592 59.323 2
60.9678 47.8747 2
59.699 52.0995 2
57.9914 49.6063 2
56.7735 56.9843 2
57.1102 54.1099 2
51.1687 65.1294 3.98593
52.0468 62.5407 3.98325
55.4791 58.2491 3.97726
52.8338 60.1363 3.97891
53.6377 58.4711 3.97984
58.2576 46.8394 3.97373
57.5428 51.7754 3.9687
56.2011 49.5416 3.97152
55.4643 55.7785 3.96763
55.339 53.3667 3.96772
50.1104 67.8571 0.0112751
49.3376 65.9229 2
48.6189 64.124 3.98482
47.4639 66.5819 0.0138522
45.5588 67.0996 2
46.893 64.7379 2
46.3828 63.0546 3.98405
45.1334 65.1984 3.98461
43.632 67.4696 3.98609
41.861 69.8782 3.98857
43.9739 69.5912 2
44.3771 71.8624 3.99295
46.0571 69.1584 0.0112635
46.6101 71.3678 2
47.2057 73.7222 4
48.8032 70.7231 0.00692257
49.554 73.0099 2
51.8506 72.1454 0
50.9545 5.13184 3.9921
53.0651 6.07159 2
54.0858 3.86728 4
55.1035 7.1401 0.008526
56.25 5.02406 2
58.3339 6.31992 0
63.9597 46.7154 0.0313133
65.1724 43.0245 0.0304959
62.7922 44.2137 0.0279194
63.7258 40.9281 0.0278492
65.7788 39.3696 0.0299326
67.9306 37.5217 0.0306806
65.8811 37.5013 2
63.8613 39.2656 2
63.3032 42.5478 2
62.3821 40.6957 2
61.9481 45.9149 2
61.4143 43.6792 2
63.9247 37.4565 3.97154
62.0951 39.3536 3.97321
61.1643 41.9549 3.97496
60.2155 44.7649 3.97499
65.8687 35.6665 0.0300768
65.1803 32.1543 0.0304398
64.2647 34.2499 0.0282556
62.5748 30.6374 0.0283128
59.3114 15.6677 0.0208862
59.1219 18.3569 0.0262765
58.7308 20.8611 0.0342314
61.6414 27.0746 0.0294655
60.8287 29.1432 0.0254409
59.3124 25.8016 0.0273018
58.2729 23.0983 0.0327691
57.9486 24.671 0.0281362
56.6763 15.7427 0.0210086
54.3751 16.0013 0.0217915
53.809 13.6824 0.0214202
52.1123 8.15358 0.0135896
53.058 11.0177 0.0180572
64.0599 35.6322 2
62.8953 33.0474 2
60.5779 30.6148 2
57.9384 16.9825 2
57.7093 19.4792 2
57.3541 21.8505 2
59.5437 27.9152 2
57.1622 23.9552 2
57.7113 25.7333 2
50.1125 7.28448 2
55.5355 16.973 2
53.7554 16.9834 2
52.9758 15.266 2
52.1714 12.7979 2
51.2324 10.1247 2
62.1304 35.3599 3.97298
60.2273 32.7476 3.97471
58.5688 30.0815 3.976
57.2459 27.3893 3.97537
56.6332 18.1588 3.97716
56.2566 25.1111 3.97181
56.3451 20.5308 3.96771
56.0811 22.8807 3.96528
48.0564 6.52762 3.98809
49.3246 9.33256 3.9837
50.433 11.996 3.98134
51.3766 14.5013 3.97868
54.4113 17.9242 3.97935
52.3583 17.0428 3.97536
52.0715 67.0002 0.0113239
52.9541 64.2204 0.0147239
60.9685 47.875 0.0308497
53.6814 61.6243 0.0188762
56.6479 59.489 0.022923
54.2592 59.3217 0.0235997
59.6987 52.0996 0.0322567
57.993 49.6067 0.0289906
56.774 56.9798 0.029083
57.1096 54.1099 0.0328715
51.1685 65.13 2
52.0465 62.5417 2
55.4789 58.2501 2
52.8338 60.1376 2
53.6376 58.4722 2
58.2571 46.8391 2
57.543 51.7752 2
56.1999 49.541 2
55.4649 55.7793 2
55.3397 53.3669 2
50.347 63.3825 3.98432
51.2442 60.937 3.98086
54.2148 57.266 3.97739
52.3107 58.6333 3.97671
56.6268 44.1702 3.97714
55.4318 47.8812 3.97417
55.0423 51.3758 3.96834
53.9891 54.5245 3.96614
49.3377 65.9223 0.013893
48.6188 64.1247 2
47.9629 62.4761 3.98397
45.5589 67.0991 0.013924
46.8932 64.7373 0.0153153
43.6319 67.4703 2
46.3827 63.0552 2
45.1332 65.199 2
45.9884 61.587 3.9837
44.768 63.455 3.98376
43.3573 65.5078 3.98451
41.6639 67.6884 3.98579
39.7025 70.0252 3.98865
41.861 69.8788 2
42.1113 72.2073 3.99287
43.9739 69.5907 0.011285
44.3773 71.8627 2
44.8159 74.2794 4
46.6098 71.3676 0.00692594
47.2057 73.7222 2
49.554 73.0099 0
48.785 4.32264 3.99255
50.9549 5.1317 2
51.8506 2.85458 4
53.0647 6.07167 0.00829102
54.0858 3.86728 2
56.25 5.02411 0
61.949 45.9152 0.0289622
63.3036 42.548 0.0280532
61.4151 43.6794 0.0250154
62.3824 40.6958 0.0257278
63.8618 39.2657 0.0282007
65.8815 37.5014 0.0301818
63.924 37.4564 2
62.0944 39.3535 2
61.1639 41.9547 2
60.2144 44.7646 2
61.9342 37.4441 3.97347
60.1729 39.8444 3.97587
58.9206 42.9109 3.97661
64.0604 35.6322 0.0285551
62.8957 33.0473 0.0279368
60.5778 30.6147 0.0251583
57.9387 16.9836 0.0224035
57.709 19.4808 0.0299835
57.3535 21.8502 0.0355503
59.544 27.915 0.0261115
57.7106 25.7329 0.0258711
57.1635 23.9545 0.0312545
55.5361 16.9741 0.0214997
53.756 16.9842 0.0202709
52.9763 15.2671 0.0238731
50.1125 7.28501 0.0128021
52.1717 12.7988 0.0196255
51.2326 10.1254 0.0168854
62.1294 35.36 2
60.2263 32.7476 2
58.568 30.0818 2
56.6329 18.1574 2
56.3455 20.5279 2
56.0816 22.8813 2
57.2476 27.3897 2
56.2569 25.1119 2
48.0564 6.52699 2
49.3244 9.33204 2
54.411 17.9234 2
52.3577 17.0419 2
51.3761 14.5002 2
50.4328 11.9953 2
59.8106 35.12 3.97544
57.9124 32.2759 3.97706
56.4848 29.3494 3.97653
55.3935 26.611 3.9755
55.335 19.193 3.97617
54.8918 24.0701 3.96772
54.9808 21.5755 3.96655
45.9624 5.8824 3.98875
43.3738 7.47368 3.98585
47.3551 8.62533 3.9845
48.6 11.2967 3.98171
49.7131 13.7468 3.9805
50.6313 16.1373 3.97786
53.1189 18.6662 3.97529
51.2959 18.0566 3.98161
51.1687 65.1294 0.0140661
52.0468 62.5407 0.0167531
58.2576 46.8394 0.026273
52.8338 60.1363 0.0210891
55.4791 58.2491 0.0227418
53.6377 58.4711 0.0201579
57.5428 51.7754 0.0313002
56.2011 49.5416 0.0284796
55.4643 55.7785 0.0323737
55.339 53.3667 0.0322824
50.3467 63.383 2
51.2441 60.938 2
54.2147 57.2672 2
52.3106 58.6343 2
56.6259 44.1697 2
55.4297 47.8805 2
55.0428 51.3755 2
53.99 54.526 2
49.5924 61.7462 3.98304
55.5074 41.6892 3.97759
50.5659 59.3286 3.97692
52.1778 56.486 3.97104
54.0812 45.5441 3.97717
53.2689 49.3108 3.97122
52.6385 52.8308 3.96576
48.6189 64.124 0.0151845
47.9627 62.4766 2
47.33 61.0103 3.98339
43.632 67.4696 0.0139066
45.1334 65.1984 0.0153942
46.3828 63.0546 0.0159538
41.6639 67.6889 2
43.3572 65.5086 2
45.9883 61.5877 2
44.7679 63.4557 2
45.7669 60.6312 3.98226
44.4843 61.8359 3.98317
43.1472 63.7272 3.98328
41.5467 65.6453 3.98385
39.6329 67.768 3.98549
37.526 70.0503 3.98854
39.7026 70.0259 2
39.818 72.4044 3.99269
41.861 69.8782 0.011429
42.1116 72.2076 2
42.3947 74.6792 4
44.3771 71.8624 0.00704555
44.8159 74.2794 2
47.2057 73.7222 0
43.8518 5.35916 3.989
46.571 3.64707 3.99278
48.7853 4.3224 2
49.554 1.99015 4
50.9545 5.13184 0.00789745
51.8506 2.85453 2
54.0858 3.86728 0
60.2155 44.7649 0.0250127
61.1643 41.9549 0.0250437
62.0951 39.3536 0.0267898
63.9247 37.4565 0.0284641
61.9334 37.444 2
60.1721 39.8442 2
58.9199 42.9106 2
59.6666 37.5652 3.97556
57.8956 40.6497 3.9774
54.9492 39.7081 3.97722
62.1304 35.3599 0.0270169
60.2273 32.7476 0.0252852
58.5688 30.0815 0.023999
56.6332 18.1588 0.0228436
56.3451 20.5308 0.0322888
56.0811 22.8807 0.0347179
57.2459 27.3893 0.0246284
56.2566 25.1111 0.0281946
54.4113 17.9242 0.0206527
52.3583 17.0428 0.0246405
51.3766 14.5013 0.0213203
48.0564 6.52762 0.0119137
49.3246 9.33256 0.0163047
50.433 11.996 0.0186615
59.8095 35.12 2
45.9624 5.882 2
43.3738 7.47323 2
57.9129 32.2763 2
56.4841 29.3498 2
55.335 19.1921 2
54.9817 21.5747 2
54.8917 24.0715 2
55.3881 26.6126 2
47.355 8.62459 2
48.5997 11.2962 2
53.1188 18.6654 2
51.2955 18.0558 2
50.6308 16.1363 2
49.7125 13.7462 2
57.2777 34.7655 3.97741
55.6432 31.5305 3.9782
54.4194 28.4205 3.97867
53.7283 25.5132 3.97369
53.9575 20.1449 3.97518
53.5495 22.7292 3.96172
41.399 7.07869 3.98651
45.3599 7.99564 3.98573
42.8658 9.41727 3.98335
46.6665 10.6563 3.98208
47.7448 13.1065 3.98144
48.9295 15.4062 3.97866
50.0018 17.7062 3.97952
51.6405 19.3308 3.98346
50.347 63.3825 0.0156777
51.2442 60.937 0.0191389
56.6268 44.1702 0.022865
55.4318 47.8812 0.0258255
52.3107 58.6333 0.0232891
54.2148 57.266 0.0226096
55.0423 51.3758 0.0316557
53.9891 54.5245 0.0338607
49.5921 61.7466 2
55.5069 41.6887 2
50.5658 59.3298 2
52.1778 56.4869 2
54.0836 45.5435 2
53.2718 49.3103 2
52.6406 52.8302 2
48.849 60.2028 3.98118
52.3701 42.6172 3.97869
49.7859 57.6229 3.97704
50.5741 54.4161 3.96881
51.7082 47.2466 3.97622
51.163 50.927 3.96639
48.0076 43.7751 3.99142
47.9629 62.4761 0.0160289
47.3299 61.0108 2
46.6191 59.7964 3.98281
41.6639 67.6884 0.0142077
43.3573 65.5078 0.0154915
44.768 63.455 0.0162383
45.9884 61.587 0.0163045
39.633 67.7687 2
41.5465 65.6457 2
45.7667 60.6319 2
43.1471 63.7279 2
44.4843 61.8366 2
44.6239 60.2932 3.9827
42.9513 62.0837 3.98215
41.6006 63.8202 3.98325
39.648 65.6131 3.98317
37.5635 67.7502 3.98531
31.6966 65.1319 3.98385
33.392 67.4877 3.98527
35.3333 69.9604 3.98855
37.526 70.051 2
37.5095 72.4589 3.9926
39.7025 70.0252 0.0113485
39.8181 72.4047 2
39.9526 74.9197 4
42.1113 72.2073 0.00713069
42.3947 74.6792 2
44.8159 74.2794 0
41.7364 4.96825 3.98941
43.8518 5.35866 2
44.3262 3.11014 3.99313
46.5712 3.64687 2
47.2057 1.27793 4
48.785 4.32264 0.0074543
49.554 1.99013 2
51.8506 2.85458 0
58.9206 42.9109 0.0233886
60.1729 39.8444 0.0241303
61.9342 37.4441 0.0265277
59.6662 37.5651 2
57.8941 40.6494 2
54.9501 39.7066 2
56.6835 37.8911 3.97809
49.403 41.317 3.98895
52.9697 39.3049 3.98082
39.4424 6.80205 3.98661
59.8106 35.12 0.0245649
57.9124 32.2759 0.0229351
56.4848 29.3494 0.0234678
55.335 19.193 0.0238299
54.9808 21.5755 0.0334537
54.8918 24.0701 0.0322824
55.3935 26.611 0.0244982
53.1189 18.6662 0.0247125
51.2959 18.0566 0.0183926
50.6313 16.1373 0.0221396
45.9624 5.8824 0.0112548
49.7131 13.7468 0.0195044
47.3551 8.62533 0.0155032
48.6 11.2967 0.0182894
43.3738 7.47368 0.01415
57.2764 34.7658 2
41.399 7.07818 2
45.3598 7.99531 2
42.8657 9.41684 2
55.6426 31.5308 2
54.415 28.4224 2
53.9579 20.1444 2
53.55 22.7268 2
53.7264 25.5147 2
46.6663 10.6555 2
47.7443 13.1059 2
51.6403 19.3298 2
50.0013 17.7052 2
48.9289 15.4057 2
54.7368 33.9755 3.97698
53.3771 30.5036 3.97733
52.5187 27.2226 3.97558
52.0986 24.12 3.9726
52.3715 21.0657 3.9789
41.0137 9.04967 3.98369
44.7242 9.99718 3.98324
42.4688 10.9052 3.9832
46.0049 12.7347 3.97967
47.6798 14.59 3.97894
48.1094 16.9946 3.9776
49.8118 19.6396 3.97652
49.5924 61.7462 0.0169591
50.5659 59.3286 0.0230803
55.5074 41.6892 0.0224123
54.0812 45.5441 0.0228302
53.2689 49.3108 0.0287762
52.1778 56.486 0.028959
52.6385 52.8308 0.0342407
48.8488 60.2028 2
52.3744 42.616 2
49.7858 57.6244 2
50.5747 54.4168 2
51.7104 47.2456 2
51.1651 50.926 2
48.012 43.7872 2
47.9858 58.7427 3.97955
49.9537 45.2546 3.97819
48.5881 55.9137 3.97767
49.0959 52.5781 3.97201
49.5974 49.0275 3.97131
45.8064 39.8614 3.89175
46.2486 42.6558 3.93291
46.3647 45.8198 3.99156
43.6425 41.1537 3.84195
41.9337 42.0173 3.75418
47.33 61.0103 0.0166056
46.6187 59.797 2
45.4681 58.793 3.98228
39.6329 67.768 0.0145118
41.5467 65.6453 0.0161493
43.1472 63.7272 0.0167218
44.4843 61.8359 0.0168287
45.7669 60.6312 0.0177428
41.6006 63.8207 2
37.5635 67.7511 2
39.6479 65.6137 2
44.6237 60.2939 2
42.9513 62.0843 2
41.7542 62.4944 3.98237
42.4811 59.9834 3.98307
39.8942 63.5545 3.98235
37.6424 65.5121 3.98321
35.4634 67.6596 3.98521
33.5751 65.3451 3.98334
31.9591 63.3037 3.98321
29.8826 64.7231 3.98449
31.6967 65.1327 2
31.3765 67.1976 3.9855
33.392 67.4884 2
33.1561 69.7537 3.98839
35.3333 69.9611 2
35.1947 72.3733 3.99255
37.526 70.0503 0.011459
37.5095 72.4594 2
37.5 75 4
39.818 72.4044 0.00730773
39.9526 74.9197 2
42.3947 74.6792 0
39.6241 4.71536 3.98966
41.7365 4.96775 2
42.0625 2.71768 3.99325
43.8518 5.35916 0.0110007
44.3264 3.10984 2
44.8158 0.721173 4
46.571 3.64707 0.00721879
47.2057 1.27779 2
49.554 1.99015 0
57.8956 40.6497 0.0226036
59.6666 37.5652 0.0244361
54.9492 39.7081 0.0227841
49.4185 41.3202 2
56.6818 37.8912 2
52.9719 39.3073 2
53.8171 36.6312 3.97711
47.3291 40.3947 3.93911
50.3434 38.5113 3.99099
37.5163 6.67307 3.98691
39.4425 6.80151 2
39.2112 8.69204 3.9844
35.942 8.49175 3.98477
57.2777 34.7655 0.0225939
55.6432 31.5305 0.0217999
54.4194 28.4205 0.0213326
53.9575 20.1449 0.02482
53.5495 22.7292 0.0382803
53.7283 25.5132 0.0263074
51.6405 19.3308 0.0165443
50.0018 17.7062 0.0204803
48.9295 15.4062 0.0213351
45.3599 7.99564 0.0142677
47.7448 13.1065 0.0185581
46.6665 10.6563 0.0179198
41.399 7.07869 0.0134891
42.8658 9.41727 0.0166475
54.7399 33.9748 2
41.0136 9.04924 2
44.7239 9.99704 2
42.4684 10.9049 2
53.372 30.503 2
52.5237 27.224 2
52.3722 21.0642 2
52.0998 24.1213 2
46.0044 12.7336 2
47.6793 14.5893 2
49.8118 19.6385 2
48.1088 16.9941 2
52.3013 32.8907 3.98002
51.2081 29.172 3.97837
50.7201 25.754 3.97318
49.9216 22.223 3.97805
40.5703 11.6097 3.9809
43.8583 11.921 3.98017
45.8004 15.4292 3.98007
47.5002 19.2531 3.97685
46.1422 37.4889 3.89892
48.849 60.2028 0.0188182
49.7859 57.6229 0.0229628
52.3701 42.6172 0.021315
51.7082 47.2466 0.0237808
51.163 50.927 0.0336095
50.5741 54.4161 0.0311922
48.0076 43.7751 0.00858468
47.9854 58.7435 2
49.9599 45.2581 2
48.588 55.9162 2
49.0965 52.5802 2
49.6005 49.0268 2
45.8336 39.8726 2
46.2673 42.67 2
46.3647 45.8139 2
43.6654 41.1718 2
41.9447 42.0259 2
46.8356 57.3447 3.98268
44.389 39.4334 3.84203
42.2788 40.88 3.7908
47.9708 47.2199 3.97633
47.1497 54.2355 3.97551
47.536 50.733 3.96581
44.7062 47.403 3.98715
44.9103 41.9522 3.892
44.8297 44.5542 3.94454
42.4963 42.6694 3.85079
40.8365 42.3602 3.78596
46.6191 59.7964 0.0171914
45.4676 58.7935 2
43.8749 57.7175 3.98474
37.5635 67.7502 0.0146939
39.648 65.6131 0.0168323
41.6006 63.8202 0.0167483
42.9513 62.0837 0.0178546
44.6239 60.2932 0.0173008
35.4634 67.6604 2
41.7542 62.4949 2
39.8941 63.555 2
37.6424 65.5129 2
42.4812 59.9838 2
40.6236 61.6517 3.98226
40.444 58.2131 3.9827
37.8373 63.2156 3.98162
35.5729 65.4341 3.98309
33.5752 65.3457 2
31.9589 63.3044 2
33.6288 63.3431 3.98266
30.3779 62.8625 3.98351
32.1227 62.0099 3.98371
26.8677 61.5056 3.98288
28.0614 64.1509 3.9842
29.8827 64.7238 2
29.4058 66.7613 3.98569
31.6966 65.1319 0.0161495
31.3766 67.1983 2
31.0133 69.4186 3.98837
33.392 67.4877 0.0147317
33.1561 69.7543 2
32.8916 72.1475 3.9926
35.3333 69.9604 0.0114508
35.1947 72.3737 2
35.0474 74.9194 4
37.5095 72.4589 0.00739954
37.5 75 2
39.9526 74.9197 0
35.6209 6.72413 3.98658
37.5234 4.61491 3.98973
39.6241 4.71488 2
39.7888 2.47407 3.99334
41.7364 4.96825 0.0105896
42.0626 2.71736 2
42.3946 0.32156 4
44.3262 3.11014 0.00686902
44.8159 0.72056 2
47.2057 1.27793 0
49.403 41.317 0.0110456
56.6835 37.8911 0.021907
52.9697 39.3049 0.0191831
47.3456 40.4071 2
50.3571 38.5094 2
53.823 36.6325 2
51.1389 35.5789 3.9791
47.9863 37.7394 3.95342
45.8073 35.1342 3.89268
43.649 33.84 3.83948
41.941 32.9858 3.75091
37.4581 8.53339 3.98482
37.5163 6.67241 2
39.4424 6.80205 0.0133946
39.2112 8.69142 2
38.977 10.1263 3.98352
35.8989 9.77241 3.9831
34.1506 8.82133 3.98433
35.9418 8.49105 2
54.7368 33.9755 0.0230217
53.3771 30.5036 0.0226739
52.5187 27.2226 0.0244162
52.3715 21.0657 0.0211047
52.0986 24.12 0.0274014
49.8118 19.6396 0.0234793
48.1094 16.9946 0.0223956
47.6798 14.59 0.0210566
44.7242 9.99718 0.0167552
46.0049 12.7347 0.0203255
41.0137 9.04967 0.016314
42.4688 10.9052 0.016796
52.3043 32.8908 2
40.57 11.6097 2
43.8576 11.921 2
51.2205 29.1722 2
50.7219 25.7568 2
49.9224 22.2219 2
45.7998 15.4277 2
47.4998 19.2518 2
49.8319 31.4209 3.9741
49.1956 27.5197 3.97638
49.3583 24.4372 3.98373
47.1753 21.9895 3.97408
38.3029 12.736 3.98004
42.1015 14.3107 3.97845
44.7981 18.4712 3.97737
44.6828 37.4958 3.84389
46.1775 37.4955 2
47.9858 58.7427 0.0204536
48.5881 55.9137 0.0223338
49.9537 45.2546 0.0218092
49.5974 49.0275 0.0286901
49.0959 52.5781 0.0279943
45.8064 39.8614 0.108254
46.2486 42.6558 0.0670924
46.3647 45.8198 0.00844235
43.6425 41.1537 0.158053
41.9337 42.0173 0.245819
46.8348 57.3458 2
44.4069 39.4463 2
42.2732 40.8817 2
47.9716 47.2217 2
47.1498 54.2406 2
47.5376 50.7348 2
44.7101 47.3806 2
44.9294 41.9673 2
44.8463 44.5709 2
42.5265 42.6916 2
40.8358 42.3616 2
45.391 55.9356 3.98834
42.6014 39.2734 3.80334
40.7365 40.7986 3.86502
46.0187 48.9005 3.98432
45.5086 52.5282 3.98225
43.3784 48.4312 4.00292
43.3159 46.106 3.93603
43.557 43.7513 3.88593
41.0503 43.8264 3.84608
39.2852 42.7092 3.80006
45.4681 58.793 0.0177201
43.8746 57.7175 2
42.1045 56.3415 3.9873
35.4634 67.6596 0.0147904
37.6424 65.5121 0.0167909
39.8942 63.5545 0.0176492
41.7542 62.4944 0.0176337
42.4811 59.9834 0.0169336
35.573 65.435 2
40.6236 61.6524 2
37.8371 63.2164 2
40.4438 58.2144 2
38.9232 56.5068 3.98929
38.2505 60.3338 3.98167
35.6071 63.209 3.98153
33.5751 65.3451 0.0166551
31.9591 63.3037 0.0167897
33.6286 63.3438 2
30.3778 62.8631 2
32.1226 62.0105 2
28.6804 62.2072 3.98333
33.3455 61.5221 3.98285
31.0659 61.2271 3.98328
27.5673 59.6022 3.98185
23.7913 59.0885 3.98055
25.0334 60.8781 3.98174
26.8677 61.5062 2
26.228 63.4833 3.98423
28.0616 64.1516 2
27.4623 66.1853 3.98573
29.8826 64.7231 0.0155063
29.4059 66.762 2
28.9054 68.9442 3.98836
31.3765 67.1976 0.0145038
31.0132 69.4193 2
30.6139 71.7784 3.99265
33.1561 69.7537 0.0116076
32.8915 72.1478 2
32.6054 74.6784 4
35.1947 72.3733 0.00744588
35.0474 74.9197 2
37.5 75 0
33.7236 6.97877 3.9861
35.4349 4.68513 3.98954
35.6208 6.72351 2
37.5142 2.38671 3.99333
37.5234 4.61441 2
39.6241 4.71536 0.010343
39.7889 2.47376 2
39.9526 0.0806499 4
42.0625 2.71768 0.00675292
42.3947 0.320817 2
44.8158 0.721173 0
44.4044 35.5585 3.83663
42.2891 34.1154 3.78643
47.3291 40.3947 0.0608949
50.3434 38.5113 0.00900902
53.8171 36.6312 0.0228859
48.0002 37.7487 2
51.1494 35.5781 2
45.8276 35.1161 2
43.6742 33.8222 2
41.9515 32.9766 2
48.1624 34.3064 3.97573
44.9166 33.0402 3.88395
42.5084 32.3346 3.84652
40.8454 32.6444 3.78404
37.3113 10.6296 3.98221
37.458 8.53252 2
37.5163 6.67307 0.013086
39.2112 8.69204 0.0155985
38.977 10.1256 2
34.7541 10.3786 3.98237
35.8989 9.77172 2
32.3773 9.36812 3.98369
34.1503 8.82078 2
35.942 8.49175 0.0152325
52.3013 32.8907 0.0199751
51.2081 29.172 0.0216306
50.7201 25.754 0.0268218
49.9216 22.223 0.0219536
47.5002 19.2531 0.0231495
45.8004 15.4292 0.0199268
43.8583 11.921 0.0198319
40.5703 11.6097 0.0190951
49.8404 31.416 2
38.3027 12.7357 2
42.1007 14.3114 2
49.1982 27.523 2
49.3599 24.4362 2
47.1755 21.9884 2
44.7977 18.4733 2
47.6702 29.5238 3.99104
47.0545 25.1797 3.98322
44.2824 21.3542 3.97599
36.5826 12.9321 3.98058
38.6814 14.8096 3.9786
41.7483 17.8503 3.97769
42.7261 37.4886 3.80806
44.6968 37.4964 2
46.1422 37.4889 0.101078
46.8356 57.3447 0.0173162
47.1497 54.2355 0.0244873
47.9708 47.2199 0.0236688
47.536 50.733 0.0341895
44.389 39.4334 0.157969
44.9103 41.9522 0.108004
44.8297 44.5542 0.0554561
44.7062 47.403 0.0128521
42.4963 42.6694 0.149206
42.2788 40.88 0.209203
40.8365 42.3602 0.214035
45.3907 55.9354 2
42.5993 39.2714 2
40.7297 40.7924 2
46.0191 48.9032 2
45.5103 52.5336 2
43.381 48.45 2
43.3417 46.1317 2
43.5767 43.7705 2
41.072 43.8496 2
39.2775 42.7034 2
43.727 54.4469 3.99723
40.8371 39.1689 3.8957
39.1591 40.8855 3.89478
43.6504 50.4855 4.00144
41.914 47.655 3.96994
41.8409 45.176 3.89126
39.3495 44.5559 3.85682
37.4959 42.8233 3.81647
43.8749 57.7175 0.0152616
42.1038 56.3424 2
40.4144 54.9501 3.99114
35.5729 65.4341 0.0169063
37.8373 63.2156 0.0183813
40.6236 61.6517 0.0177414
40.444 58.2131 0.0173039
35.6069 63.2098 2
38.2503 60.335 2
38.9231 56.5087 2
37.9974 55.2613 3.98883
36.9333 57.6344 3.98167
35.3636 60.9197 3.98244
33.6288 63.3431 0.0173421
30.3779 62.8625 0.0164923
32.1227 62.0099 0.0162915
33.3454 61.5228 2
28.6803 62.2078 2
31.0658 61.2277 2
29.4022 60.2959 3.98264
32.3562 59.7547 3.98584
28.0224 58.3822 3.98594
27.5673 59.6028 2
25.3781 58.6006 3.97958
22.7564 58.245 3.97415
23.3994 60.3572 3.97994
23.7913 59.0893 2
25.0334 60.8788 2
24.4306 62.7757 3.98365
26.8677 61.5056 0.0171209
26.2282 63.484 2
25.5462 65.4953 3.98573
28.0614 64.1509 0.0158002
27.4623 66.1859 2
26.8349 68.3326 3.98841
29.4058 66.7613 0.0143058
28.9054 68.9448 2
28.3689 71.2636 3.99274
31.0133 69.4186 0.011625
30.6137 71.7788 2
30.1842 74.2788 4
32.8916 72.1475 0.00740106
32.6053 74.6792 2
35.0474 74.9194 0
31.788 7.41869 3.98566
33.347 4.9243 3.98929
33.7235 6.97816 2
35.2443 2.4628 3.99336
35.4349 4.68464 2
35.6209 6.72413 0.0134232
37.5 0 4
37.5142 2.38641 2
37.5234 4.61491 0.0102664
39.7888 2.47407 0.00666409
39.9526 0.0802889 2
42.3946 0.32156 0
42.6054 35.7117 3.80446
44.4164 35.5474 2
40.7453 34.2015 3.86344
42.2825 34.1151 2
47.9863 37.7394 0.0465767
51.1389 35.5789 0.0209012
45.8073 35.1342 0.107319
43.649 33.84 0.160522
41.941 32.9858 0.249089
48.1769 34.2879 2
44.937 33.0274 2
42.5323 32.3143 2
40.8447 32.6425 2
46.1873 31.5619 3.95046
43.5612 31.2518 3.88311
41.0635 31.1795 3.84553
39.2924 32.2963 3.79909
35.693 11.7751 3.98116
37.3114 10.6288 2
37.4581 8.53339 0.015183
38.977 10.1263 0.016482
33.098 11.2156 3.9813
34.7542 10.3779 2
35.8989 9.77241 0.0169044
30.482 10.0163 3.98307
32.3771 9.36761 2
34.1506 8.82133 0.0156672
49.8319 31.4209 0.0259022
49.1956 27.5197 0.0236215
49.3583 24.4372 0.0162725
47.1753 21.9895 0.0259202
44.7981 18.4712 0.0226284
42.1015 14.3107 0.021555
38.3029 12.736 0.0199571
36.5825 12.9316 2
47.673 29.5066 2
38.6809 14.81 2
41.7479 17.8505 2
47.0573 25.1787 2
44.2824 21.3459 2
45.4709 27.6572 4.00196
43.7738 24.0802 4.00176
41.338 20.7335 3.97903
35.7724 14.7593 3.97944
38.6815 17.6016 3.97692
40.8823 37.4815 3.90621
42.7309 37.4898 2
44.6828 37.4958 0.156109
45.391 55.9356 0.0116573
45.5086 52.5282 0.0177539
46.0187 48.9005 0.0156786
42.6014 39.2734 0.196662
43.557 43.7513 0.114074
43.3159 46.106 0.063972
43.3784 48.4312 -0.00291976
41.0503 43.8264 0.153919
40.7365 40.7986 0.134983
39.2852 42.7092 0.199936
43.7266 54.4479 2
40.8301 39.1645 2
39.1508 40.8768 2
43.6517 50.5006 2
41.9072 47.6688 2
41.8635 45.1949 2
37.4966 42.8126 2
39.3691 44.5708 2
41.8677 53.0218 3.99401
39.1734 39.1689 3.92942
37.4955 40.9296 3.9133
35.7123 42.7094 3.7998
40.885 49.7092 4.00106
39.8042 46.0741 3.87266
37.4943 44.7784 3.8452
42.1045 56.3415 0.0127011
40.4143 54.9505 2
38.7259 53.8757 3.99571
35.6071 63.209 0.0184736
38.2505 60.3338 0.0183318
38.9232 56.5068 0.0107138
35.3633 60.9203 2
36.9333 57.6359 2
37.9977 55.2621 2
36.3186 55.3894 3.98906
34.4872 58.5319 3.98602
33.3455 61.5221 0.0171509
28.6804 62.2072 0.0166723
31.0659 61.2271 0.0167201
32.3561 59.7553 2
29.4022 60.2964 2
30.2987 57.828 3.98597
28.0223 58.3828 2
26.9471 56.8326 3.97936
27.5673 59.6022 0.0181476
25.3781 58.6013 2
23.8411 56.8035 3.9722
21.3345 57.3997 3.97341
21.9925 59.6278 3.97906
22.7563 58.2464 2
22.7346 62.0268 3.98235
23.3994 60.3581 2
23.7913 59.0885 0.0194542
25.0334 60.8781 0.0182568
24.4308 62.7765 2
23.6801 64.7136 3.98544
26.228 63.4833 0.015765
25.5463 65.4959 2
24.807 67.5937 3.98838
27.4623 66.1853 0.0142736
26.8349 68.3332 2
26.1641 70.6043 3.99284
28.9054 68.9442 0.0116386
28.3687 71.2639 2
27.7943 73.7221 4
30.6139 71.7784 0.00735414
30.1841 74.2794 2
32.6054 74.6784 0
29.8104 7.99204 3.98506
31.2521 5.33143 3.98877
31.7878 7.41806 2
32.98 2.70099 3.99319
33.3469 4.92375 2
33.7236 6.97877 0.0138959
35.0474 0.080333 4
35.2443 2.4625 2
35.4349 4.68513 0.0104562
37.5 0 2
37.5142 2.38671 0.00666786
39.9526 0.0806499 0
40.8382 35.807 3.89755
42.6026 35.7147 2
44.4044 35.5585 0.163371
28.5427 10.6917 3.98272
39.1655 34.1186 3.89459
40.7362 34.2075 2
42.2891 34.1154 0.213573
48.1624 34.3064 0.0242688
44.9166 33.0402 0.11605
42.5084 32.3346 0.153482
40.8454 32.6444 0.215963
46.2092 31.5531 2
43.5745 31.2354 2
41.0845 31.1563 2
39.2865 32.3018 2
44.3493 29.7582 3.9422
41.8614 29.8329 3.894
39.3723 30.4473 3.8577
37.5045 32.1849 3.81681
34.0929 12.9337 3.98031
35.6931 11.7744 2
37.3113 10.6296 0.017794
31.1858 11.9839 3.98157
33.0981 11.215 2
34.7541 10.3786 0.0176256
30.4818 10.0155 2
32.3773 9.36812 0.0163105
47.6702 29.5238 0.00895952
47.0545 25.1797 0.0167757
36.5826 12.9321 0.0194238
44.2824 21.3542 0.0240098
41.7483 17.8503 0.022306
38.6814 14.8096 0.0214001
35.7721 14.759 2
45.473 27.656 2
38.6802 17.603 2
41.337 20.729 2
43.7751 24.0748 2
33.6081 15.8765 3.97942
43.0082 26.4962 3.99726
40.9027 23.3029 4.00342
38.4183 20.3504 3.97685
35.8485 17.513 3.97822
39.1888 37.4838 3.93798
40.876 37.481 2
42.7261 37.4886 0.191938
43.727 54.4469 0.00276632
43.6504 50.4855 -0.00144379
40.8371 39.1689 0.104298
41.8409 45.176 0.108744
41.914 47.655 0.0300601
39.3495 44.5559 0.143181
39.1591 40.8855 0.105217
37.4959 42.8233 0.183529
41.8701 53.0216 2
39.1625 39.1663 2
37.4956 40.9176 2
40.8936 49.7178 2
35.7178 42.7044 2
39.8291 46.098 2
37.4919 44.7892 2
39.8026 51.9286 3.99644
37.4938 39.1824 3.95033
35.8308 40.8954 3.89387
34.1555 42.3579 3.78539
35.6245 44.5582 3.85596
38.6843 48.7264 3.98178
37.4844 46.3864 3.87788
40.4144 54.9501 0.00885748
38.7268 53.8749 2
36.7221 53.2196 4.00506
35.3636 60.9197 0.0175557
36.9333 57.6344 0.0183334
37.9974 55.2613 0.0111653
34.4869 58.5323 2
36.3189 55.3919 2
33.2294 55.5169 3.99073
32.3562 59.7547 0.0141631
29.4022 60.2959 0.017361
30.2986 57.8287 2
28.6959 55.3224 3.97919
28.0224 58.3822 0.0140588
26.9468 56.833 2
25.3167 55.1411 3.97418
21.8144 55.3462 3.96893
25.3781 58.6006 0.0204243
23.8407 56.8055 2
20.2197 57.0279 3.97818
20.6446 58.7837 3.9768
21.3341 57.4014 2
21.1652 61.1753 3.98068
21.9924 59.6289 2
22.7564 58.245 0.0258454
21.8935 63.8414 3.98475
22.7348 62.0277 2
23.3994 60.3572 0.0200555
24.4306 62.7757 0.0163538
23.6802 64.7142 2
22.8352 66.7373 3.98834
25.5462 65.4953 0.0142683
24.8071 67.5943 2
24.0083 69.8054 3.99288
26.8349 68.3326 0.0115935
26.1638 70.6046 2
25.446 73.0099 4
28.3689 71.2636 0.00726033
27.7943 73.7222 2
30.1842 74.2788 0
27.8203 8.65178 3.98476
29.1541 5.87719 3.98825
29.8103 7.99127 2
30.7251 3.09819 3.99294
31.252 5.33092 2
31.788 7.41869 0.014338
32.6053 0.320823 4
32.9799 2.70066 2
33.347 4.9243 0.0107108
35.0474 0.0802903 2
35.2443 2.4628 0.00664158
37.5 0 0
39.1831 35.8111 3.92838
40.8302 35.8106 2
42.6054 35.7117 0.195541
28.5426 10.6911 2
26.6214 11.387 3.98294
29.2247 12.6405 3.98232
37.5005 34.0786 3.91213
39.1545 34.1279 2
40.7453 34.2015 0.136565
46.1873 31.5619 0.0495435
43.5612 31.2518 0.116892
41.0635 31.1795 0.154474
39.2924 32.2963 0.200913
44.3674 29.7425 2
41.8796 29.8128 2
39.3867 30.4294 2
37.507 32.1955 2
42.3449 28.4015 3.92567
39.8583 28.9255 3.89151
37.5233 30.2199 3.84447
35.7218 32.2943 3.79884
31.9146 14.4792 3.98069
34.093 12.9331 2
35.693 11.7751 0.0188359
31.186 11.9832 2
33.098 11.2156 0.0187025
30.482 10.0163 0.0169296
45.4709 27.6572 -0.00195948
43.7738 24.0802 -0.00175667
35.7724 14.7593 0.0205649
41.338 20.7335 0.020973
38.6815 17.6016 0.023083
33.6074 15.8759 2
35.847 17.5133 2
43.0133 26.4942 2
38.4187 20.3454 2
40.9011 23.2943 2
33.5503 17.3869 3.98105
40.3916 25.6442 4.00412
38.0713 22.888 3.99442
35.5829 20.0851 3.98055
37.4947 37.4941 3.96116
39.1768 37.4841 2
40.8823 37.4815 0.09379
41.8677 53.0218 0.00598642
40.885 49.7092 -0.00105823
39.1734 39.1689 0.0705784
39.8042 46.0741 0.127345
37.4943 44.7784 0.154795
37.4955 40.9296 0.0866961
35.7123 42.7094 0.200203
39.8102 51.9289 2
37.4947 39.1796 2
35.8405 40.8868 2
38.6838 48.7584 2
34.1564 42.3599 2
35.6106 44.5763 2
37.485 46.4091 2
37.6412 51.0124 4.00877
35.8175 39.1858 3.92969
34.2568 40.808 3.86499
33.0527 42.0174 3.75217
33.929 43.817 3.8442
35.1471 46.0569 3.88395
36.8616 48.3652 3.9534
38.7259 53.8757 0.00428957
36.7224 53.2231 2
34.3646 52.4816 3.99368
34.4872 58.5319 0.0139816
36.3186 55.3894 0.0109367
33.2289 55.5173 2
30.5253 53.3763 3.98001
30.2987 57.828 0.0140299
28.6955 55.3236 2
26.8934 53.4335 3.97375
26.9471 56.8326 0.0206392
25.3163 55.1442 2
23.586 53.4747 3.9668
20.4813 53.2147 3.96221
19.9353 55.83 3.97193
21.8134 55.3477 2
23.8411 56.8035 0.0278039
19.4378 57.8891 3.97604
20.2192 57.0295 2
19.7053 60.2071 3.9783
20.6445 58.7848 2
21.3345 57.3997 0.026588
20.2061 62.8619 3.983
21.1653 61.1765 2
21.9925 59.6278 0.020937
20.9366 65.7663 3.98806
21.8937 63.8422 2
22.7346 62.0268 0.0176469
23.6801 64.7136 0.0145587
22.8353 66.7379 2
21.9107 68.8725 3.99281
24.807 67.5937 0.011621
24.008 69.8056 2
23.1494 72.1454 4
26.1641 70.6043 0.00715916
25.446 73.0099 2
27.7943 73.7221 0
25.8594 9.38007 3.98438
27.0688 6.54135 3.98765
27.8201 8.65111 2
28.4872 3.64419 3.99268
29.1539 5.87659 2
29.8104 7.99204 0.0149448
30.1841 0.720592 4
30.725 3.0979 2
31.2521 5.33143 0.0112315
32.6053 0.320817 2
32.98 2.70099 0.0068051
35.0474 0.080333 0
37.4967 35.8117 3.95072
39.1692 35.8144 2
40.8382 35.807 0.102446
24.7762 12.07 3.9832
23.7508 14.3556 3.98233
28.5427 10.6917 0.0172823
26.6214 11.3864 2
29.2249 12.6398 2
27.2908 13.373 3.98273
29.78 14.2002 3.9818
35.8386 34.1126 3.89556
37.4992 34.0903 2
39.1655 34.1186 0.105413
37.5045 32.1849 0.183195
44.3493 29.7582 0.057798
41.8614 29.8329 0.106005
39.3723 30.4473 0.142296
42.365 28.38 2
39.8734 28.8994 2
37.522 30.2114 2
35.7294 32.2992 2
40.0446 27.555 3.92091
37.5319 28.6117 3.88658
35.6547 30.4529 3.85932
34.1737 32.6433 3.78488
30.926 16.8361 3.98141
31.9145 14.4786 2
34.0929 12.9337 0.0196881
31.1858 11.9839 0.0184346
43.0082 26.4962 0.00273895
40.9027 23.3029 -0.00342409
33.6081 15.8765 0.0205801
35.8485 17.513 0.0217799
38.4183 20.3504 0.0231531
33.5491 17.3869 2
35.5835 20.0852 2
40.3923 25.6356 2
38.0677 22.8837 2
32.8623 19.7944 3.98161
37.798 25.2006 4.01046
35.1973 22.6457 3.98944
35.8066 37.5002 3.94056
37.4952 37.4936 2
39.1888 37.4838 0.0620238
39.8026 51.9286 0.00355848
38.6843 48.7264 0.0182221
37.4938 39.1824 0.0496723
37.4844 46.3864 0.122116
35.6245 44.5582 0.144043
35.8308 40.8954 0.106134
34.1555 42.3579 0.214607
37.6489 51.0254 2
35.8309 39.1818 2
34.2642 40.8026 2
36.8541 48.3865 2
33.0428 42.0266 2
33.9123 43.8378 2
35.1326 46.0767 2
35.4773 50.1438 4.00334
34.1647 39.1861 3.89961
32.7028 40.886 3.78858
32.4863 42.6694 3.85117
33.1433 45.168 3.89176
34.271 47.4315 3.93085
36.7221 53.2196 -0.00505635
34.3653 52.4867 2
32.0185 51.1858 4.00184
33.2294 55.5169 0.0092681
30.5249 53.3809 2
28.4424 51.5905 3.97798
28.6959 55.3224 0.0208145
26.8925 53.4358 2
25.0971 51.7393 3.96331
25.3167 55.1411 0.0258208
23.585 53.4767 2
21.9867 51.7958 3.96254
19.2186 51.63 3.96578
18.9302 54.3023 3.96502
20.4803 53.2142 2
18.4481 56.7212 3.9762
19.9344 55.8316 2
21.8144 55.3462 0.0310663
18.3683 59.1105 3.97567
19.4374 57.8901 2
20.2197 57.0279 0.0218241
18.6176 61.7678 3.98065
19.7054 60.2084 2
20.6446 58.7837 0.0231995
19.1257 64.6768 3.98714
20.2062 62.8631 2
21.1652 61.1753 0.019317
19.8848 67.8091 3.9927
20.9367 65.767 2
21.8935 63.8414 0.015245
22.8352 66.7373 0.0116621
21.9104 68.8726 2
20.9142 71.1327 4
24.0083 69.8054 0.00712121
23.1494 72.1455 2
25.446 73.0099 0
23.0956 12.7848 3.98285
23.9718 10.1668 3.98418
25.0225 7.31168 3.98718
25.8593 9.37949 2
26.2789 4.3285 3.99236
27.0685 6.54081 2
27.8203 8.65178 0.015244
27.7943 1.27781 4
28.487 3.64389 2
29.1541 5.87719 0.0117517
30.1841 0.720551 2
30.7251 3.09819 0.00706004
32.6053 0.320823 0
35.8171 35.8176 3.93183
37.4961 35.8136 2
39.1831 35.8111 0.0716153
24.7764 12.0696 2
23.7513 14.3553 2
22.4797 15.0325 3.98181
25.3569 13.9047 3.98223
24.0243 15.6183 3.98133
26.6214 11.387 0.0170607
29.2247 12.6405 0.017677
27.2911 13.3725 2
29.78 14.1997 2
28.3561 15.974 3.98222
34.266 34.2001 3.86428
35.8483 34.1212 2
37.5005 34.0786 0.0878681
35.7218 32.2943 0.201158
37.5233 30.2199 0.155529
42.3449 28.4015 0.0743337
39.8583 28.9255 0.108495
40.0563 27.538 2
37.5357 28.5866 2
35.6361 30.4282 2
34.1696 32.6421 2
37.6167 27.251 3.93465
35.1917 28.9277 3.88825
33.9441 31.1813 3.84441
33.078 32.9828 3.75269
30.2078 19.3393 3.98515
30.9254 16.8363 2
31.9146 14.4792 0.0193147
40.3916 25.6442 -0.0041211
38.0713 22.888 0.00558261
33.5503 17.3869 0.0189475
35.5829 20.0851 0.0194546
32.8622 19.7955 2
35.196 22.6453 2
37.7841 25.1959 2
32.3103 22.4122 3.9913
34.9936 25.19 4.0054
34.1137 37.5019 3.90791
35.8199 37.499 2
37.4947 37.4941 0.038843
37.6412 51.0124 -0.00877385
36.8616 48.3652 0.0466023
35.8175 39.1858 0.0703146
35.1471 46.0569 0.116051
33.929 43.817 0.155803
34.2568 40.808 0.135009
33.0527 42.0174 0.247834
35.4751 50.1592 2
34.1763 39.1826 2
32.7073 40.8865 2
34.2665 47.4663 2
32.4688 42.6867 2
33.1281 45.1878 2
33.2649 49.1345 4.00278
32.3848 39.2848 3.8065
31.3345 41.1581 3.8411
31.4365 43.751 3.88956
32.2697 46.352 3.92939
34.3646 52.4816 0.00632486
32.017 51.1939 2
29.8845 49.7053 3.99
30.5253 53.3763 0.0199862
28.4407 51.5905 2
26.5347 49.977 3.97072
26.8934 53.4335 0.0262456
25.0953 51.7378 2
23.3694 50.1857 3.97087
23.586 53.4747 0.033203
21.9856 51.7948 2
20.4859 50.3105 3.96842
18.0061 50.3266 3.96908
17.8477 52.7871 3.96474
19.2176 51.6296 2
17.4419 55.3358 3.9681
18.9292 54.3022 2
20.4813 53.2147 0.0377882
17.1355 57.8721 3.97535
18.4474 56.7221 2
19.9353 55.83 0.0280711
17.136 60.549 3.97742
18.3681 59.1117 2
19.4378 57.8891 0.0239613
17.4065 63.4686 3.98467
18.6177 61.7691 2
19.7053 60.2071 0.0217005
17.9411 66.6175 3.99243
19.1257 64.6778 2
20.2061 62.8619 0.0170019
18.75 69.9759 4
19.8844 67.8092 2
20.9366 65.7663 0.01194
21.9107 68.8725 0.00719476
20.9142 71.1327 2
23.1494 72.1454 0
21.5865 13.6052 3.98228
22.1899 11.0262 3.98378
23.0959 12.7847 2
23.0403 8.17723 3.98688
23.9718 10.1664 2
24.1165 5.14333 3.99208
25.0222 7.31118 2
25.8594 9.38007 0.0156238
25.446 1.99014 4
26.2785 4.32828 2
27.0688 6.54135 0.0123507
27.7943 1.27778 2
28.4872 3.64419 0.00731879
30.1841 0.720592 0
34.1586 35.8183 3.89733
35.8296 35.8194 2
37.4967 35.8117 0.0492804
21.3051 15.8283 3.98176
24.7762 12.07 0.0168033
23.7508 14.3556 0.01767
25.3574 13.9045 2
22.4803 15.0323 2
24.0249 15.6182 2
23.2638 16.2504 3.98087
25.3798 16.0867 3.98195
27.2908 13.373 0.0172732
29.78 14.2002 0.0181988
28.3563 15.9741 2
27.4397 18.7967 3.98411
32.7234 34.1138 3.78668
34.2773 34.2063 2
35.8386 34.1126 0.104438
34.1737 32.6433 0.215122
35.6547 30.4529 0.140679
37.5319 28.6117 0.113419
40.0446 27.555 0.0790861
37.6177 27.2205 2
33.0632 32.974 2
35.1785 28.9077 2
33.9288 31.1553 2
35.072 27.3779 3.93749
33.168 29.837 3.88782
32.5043 32.3245 3.84272
29.5792 21.9331 3.99704
30.2079 19.3413 2
30.926 16.8361 0.0185902
37.798 25.2006 -0.0104608
35.1973 22.6457 0.0105581
32.8623 19.7944 0.0183891
32.3082 22.4121 2
35.0078 25.1839 2
31.7256 25.6326 4.00186
32.2619 37.5036 3.81028
34.122 37.5027 2
35.8066 37.5002 0.0594411
35.4773 50.1438 -0.00334407
34.271 47.4315 0.0691497
34.1647 39.1861 0.100388
33.1433 45.168 0.108238
32.4863 42.6694 0.148827
32.7028 40.886 0.211416
33.2597 49.1275 2
32.3885 39.2812 2
31.3117 41.1712 2
32.2476 46.3767 2
31.4184 43.7655 2
31.1848 47.964 3.99352
30.5864 39.4388 3.83824
30.0736 41.9593 3.88464
30.4677 44.9391 3.94167
32.0185 51.1858 -0.00183554
29.8814 49.7046 2
27.9172 48.1723 3.97235
28.4424 51.5905 0.0220214
26.533 49.9759 2
24.6909 48.4613 3.97405
25.0971 51.7393 0.0366853
23.3689 50.1843 2
21.7044 48.7828 3.97109
21.9867 51.7958 0.0374648
20.485 50.3096 2
19.0651 49.088 3.9725
16.9124 49.3278 3.9721
16.7861 51.4033 3.96671
18.0064 50.326 2
16.3986 53.8654 3.96531
17.8467 52.7869 2
19.2186 51.63 0.0342192
15.9792 56.4724 3.97055
17.4412 55.3365 2
18.9302 54.3023 0.0349768
15.75 59.2091 3.97635
17.1352 57.8734 2
18.4481 56.7212 0.0237996
15.7876 62.1376 3.98133
17.1361 60.5504 2
18.3683 59.1105 0.0243254
16.088 65.3001 3.99173
17.4064 63.4697 2
18.6176 61.7678 0.0193483
16.6661 68.6801 4
17.9406 66.6175 2
19.1257 64.6768 0.0128611
18.75 69.9759 2
19.8848 67.8091 0.0073011
20.9142 71.1327 0
20.2188 14.5943 3.9814
21.587 13.6052 2
20.5291 11.9962 3.98319
21.1432 9.14712 3.98667
22.19 11.0259 2
23.0956 12.7848 0.0171531
22.0155 6.0824 3.99192
23.0401 8.17681 2
23.9718 10.1668 0.0158181
23.1494 2.85457 4
24.116 5.14317 2
25.0225 7.31168 0.0128249
25.446 1.99012 2
26.2789 4.3285 0.00764431
27.7943 1.27781 0
32.3897 35.7171 3.80239
34.1681 35.8233 2
35.8171 35.8176 0.0681679
21.3057 15.828 2
20.3032 16.9623 3.98199
22.097 16.6346 3.9796
25.3569 13.9047 0.0177655
22.4797 15.0325 0.018186
24.0243 15.6183 0.0186717
25.3803 16.0865 2
23.2644 16.2502 2
24.204 18.4515 3.9788
27.0184 21.4565 3.98996
28.3561 15.974 0.017778
27.4404 18.797 2
31.3677 33.8471 3.84278
32.7297 34.1137 2
34.266 34.2001 0.135718
33.078 32.9828 0.247308
33.9441 31.1813 0.155593
35.1917 28.9277 0.111753
37.6167 27.251 0.0653512
35.0551 27.3452 2
32.4714 32.3088 2
33.1515 29.8083 2
32.5852 28.1075 3.95278
31.4396 31.2568 3.88991
28.8294 24.4035 3.98209
29.5763 21.9367 2
30.2078 19.3393 0.0148515
34.9936 25.19 -0.00539993
32.3103 22.4122 0.00869753
31.7328 25.6176 2
29.6938 27.3164 3.96761
30.2965 37.4947 3.84396
32.2615 37.5011 2
34.1137 37.5019 0.0920901
33.2649 49.1345 -0.00278475
32.2697 46.352 0.0706097
32.3848 39.2848 0.193501
31.4365 43.751 0.11044
31.3345 41.1581 0.158897
31.1818 47.9671 2
30.5654 39.4511 2
30.0546 41.9726 2
30.4423 44.9564 2
29.2448 46.565 4.00095
29.1721 39.854 3.89142
28.789 43.1633 3.94553
29.8845 49.7053 0.00999661
27.9133 48.169 2
26.0129 46.6457 3.97526
26.5347 49.977 0.0292827
24.6902 48.4593 2
22.8723 47.0687 3.97553
23.3694 50.1857 0.0291342
21.7039 48.7818 2
20.0293 47.6131 3.97708
20.4859 50.3105 0.0315765
19.0658 49.0872 2
17.6983 48.1746 3.97563
16.1586 48.6796 3.97419
16.9132 49.3272 2
15.862 50.1664 3.96949
15.3852 52.4122 3.967
16.7855 51.4031 2
18.0061 50.3266 0.0309174
14.8743 54.9718 3.96715
16.3979 53.8655 2
17.8477 52.7871 0.0352598
14.4605 57.7373 3.97409
15.9788 56.4734 2
17.4419 55.3358 0.031899
14.2661 60.6912 3.97993
15.7499 59.2106 2
17.1355 57.8721 0.0246468
14.3327 63.8591 3.98994
15.7874 62.1388 2
17.136 60.549 0.0225806
14.6715 67.2507 4
16.0873 65.2999 2
17.4065 63.4686 0.0153339
16.6661 68.6801 2
17.9411 66.6175 0.00756952
18.75 69.9759 0
18.933 15.7817 3.98079
20.2192 14.5943 2
18.979 13.1072 3.98225
21.5865 13.6052 0.0177231
20.5295 11.9961 2
19.3425 10.235 3.98631
19.9901 7.14707 3.99187
21.1431 9.14682 2
22.1899 11.0262 0.016219
20.9142 3.86727 4
22.0149 6.08239 2
23.0403 8.17723 0.0131227
23.1494 2.85451 2
24.1165 5.14333 0.00791946
25.446 1.99014 0
30.6032 35.5702 3.84143
32.3953 35.7186 2
34.1586 35.8183 0.102668
21.3051 15.8283 0.0182431
22.0976 16.6344 2
20.3036 16.9616 2
19.2452 18.4104 3.97829
21.7819 17.8518 3.98029
25.3798 16.0867 0.0180498
23.2638 16.2504 0.0191288
24.2047 18.4514 2
22.2819 19.8966 3.97575
24.5977 21.326 3.98342
26.4402 23.7226 3.97017
27.0178 21.4566 2
27.4397 18.7967 0.0158874
30.1006 33.045 3.88807
31.3391 33.8178 2
32.7234 34.1138 0.213325
32.5043 32.3245 0.157283
33.168 29.837 0.112183
35.072 27.3779 0.0625089
32.5776 28.0947 2
31.4378 31.2384 2
30.179 29.5497 3.96077
27.9344 26.5438 3.97849
28.8309 24.4126 2
29.5792 21.9331 0.00296426
31.7256 25.6326 -0.00185721
29.6917 27.2794 2
28.8362 37.5144 3.89941
30.2889 37.4991 2
32.2619 37.5036 0.189724
31.1848 47.964 0.00648269
30.4677 44.9391 0.0583319
30.5864 39.4388 0.161763
30.0736 41.9593 0.115364
29.2412 46.5806 2
29.1506 39.8724 2
28.7646 43.1795 2
27.3722 44.8587 3.98436
26.9431 40.5844 3.96644
27.9172 48.1723 0.0276459
26.0083 46.6481 2
24.0955 45.2032 3.97776
24.6909 48.4613 0.0259488
22.8718 47.0672 2
21.0007 45.8867 3.97891
21.7044 48.7828 0.0289129
20.0311 47.6121 2
18.3636 46.7329 3.97767
19.0651 49.088 0.0274962
17.6986 48.174 2
16.3574 47.7095 3.97528
16.1591 48.6792 2
15.2054 49.0119 3.97187
16.9124 49.3278 0.0278994
15.8626 50.1661 2
14.4977 50.9816 3.96835
13.8362 53.4301 3.96842
15.3856 52.4121 2
16.7861 51.4033 0.0332923
13.2579 56.1635 3.97035
14.8741 54.9721 2
16.3986 53.8654 0.0346939
12.849 59.1245 3.97875
14.4604 57.7385 2
15.9792 56.4724 0.0294498
12.6785 62.3013 3.98765
14.266 60.6923 2
15.75 59.2091 0.0236469
12.7746 65.6939 4
14.3318 63.8586 2
15.7876 62.1376 0.0186718
14.6714 67.2507 2
16.088 65.3001 0.00827476
16.6661 68.6801 0
17.6684 17.158 3.97825
18.9333 15.7813 2
17.5108 14.372 3.981
20.2188 14.5943 0.0185964
18.9794 13.107 2
17.6381 11.4541 3.98536
20.5291 11.9962 0.0168107
19.3426 10.2348 2
18.0503 8.33986 3.99183
18.75 5.0241 4
19.9895 7.14727 2
21.1432 9.14712 0.0133285
20.9142 3.86727 2
22.0155 6.0824 0.00808093
23.1494 2.85457 0
29.1921 35.1274 3.8955
30.5846 35.5557 2
32.3897 35.7171 0.197607
22.097 16.6346 0.0203978
20.3032 16.9623 0.0180078
21.7824 17.8515 2
19.2456 18.4096 2
17.985 19.9439 3.97437
20.8792 19.3823 3.97826
24.204 18.4515 0.021202
22.2823 19.8962 2
24.5976 21.3267 2
22.3669 21.7236 3.97816
24.7139 23.1708 3.97284
25.516 25.9521 3.96895
26.4436 23.7226 2
27.0184 21.4565 0.0100411
28.4728 32.3409 3.94045
30.0767 33.0379 2
31.3677 33.8471 0.157215
31.4396 31.2568 0.110091
32.5852 28.1075 0.0472228
30.1617 29.5388 2
27.1027 29.1348 4.00292
27.9312 26.5444 2
28.8294 24.4035 0.0179054
29.6938 27.3164 0.0323856
27.0664 37.3693 3.94947
28.8057 37.5032 2
30.2965 37.4947 0.156037
29.2448 46.565 -0.000945809
28.789 43.1633 0.0544726
29.1721 39.854 0.108584
27.3667 44.874 2
26.9301 40.6013 2
25.3899 43.1664 3.97815
24.1926 39.4355 3.97927
26.0129 46.6457 0.0247364
24.0884 45.2025 2
21.9906 43.9421 3.97911
22.8723 47.0687 0.0244726
21.0012 45.8858 2
19.0438 44.9639 3.97821
20.0293 47.6131 0.0229182
18.3651 46.7322 2
16.6616 46.2084 3.97579
17.6983 48.1746 0.0243746
16.3578 47.7092 2
14.943 47.6664 3.97294
16.1586 48.6796 0.0258139
15.206 49.0116 2
13.7939 49.5433 3.96971
15.862 50.1664 0.0305066
14.4982 50.9815 2
12.9013 51.8713 3.969
12.1463 54.5229 3.97039
13.8365 53.4301 2
15.3852 52.4122 0.0330019
11.535 57.4559 3.97594
13.2579 56.1643 2
14.8743 54.9718 0.0328454
11.1333 60.6272 3.98603
12.849 59.1254 2
14.4605 57.7373 0.0259122
10.9835 64.0165 4
12.6774 62.3002 2
14.2661 60.6912 0.0200689
12.7745 65.694 2
14.3327 63.8591 0.0100623
14.6715 67.2507 0
16.4031 18.6533 3.97598
17.6687 17.1573 2
16.1022 15.7816 3.98006
18.933 15.7817 0.0192085
17.5112 14.3714 2
16.0199 12.8079 3.98342
18.979 13.1072 0.0177504
17.6383 11.4537 2
16.2015 9.66277 3.99165
19.3425 10.235 0.0136927
18.0497 8.34026 2
16.6661 6.31991 4
18.75 5.02404 2
19.9901 7.14707 0.00813294
20.9142 3.86727 0
27.5883 34.7815 3.94126
29.1666 35.1128 2
30.6032 35.5702 0.158568
16.6909 21.3838 3.96758
21.7819 17.8518 0.0197068
19.2452 18.4104 0.0217137
20.8796 19.3818 2
17.9854 19.9431 2
19.7328 21.5782 3.9777
22.2819 19.8966 0.0242482
24.5977 21.326 0.0165792
22.3672 21.7234 2
24.7153 23.1702 2
22.8751 24.605 3.97064
24.6448 28.532 3.9743
25.5139 25.9505 2
26.4402 23.7226 0.0298288
26.316 31.709 3.98936
28.4478 32.3246 2
30.1006 33.045 0.11193
30.179 29.5497 0.0392315
27.1139 29.1294 2
27.9344 26.5438 0.0215064
24.8925 36.8575 3.98917
27.0462 37.3662 2
28.8362 37.5144 0.100585
27.3722 44.8587 0.0156351
26.9431 40.5844 0.0335645
25.3775 43.1721 2
24.181 39.4352 2
23.0918 41.7948 3.9804
21.9106 38.5092 3.97755
24.0955 45.2032 0.0222365
21.9903 43.9427 2
19.8346 42.8797 3.97809
21.0007 45.8867 0.0210912
19.0442 44.9633 2
17.008 44.3757 3.97653
18.3636 46.7329 0.0223322
16.6622 46.208 2
14.8733 46.0868 3.97339
16.3574 47.7095 0.0247228
14.9433 47.6662 2
13.3029 48.0059 3.97032
15.2054 49.0119 0.0281309
13.7945 49.5431 2
12.1197 50.2508 3.96926
14.4977 50.9816 0.0316458
12.9017 51.8713 2
11.1412 52.8341 3.97106
10.3264 55.7084 3.97468
12.1466 54.5231 2
13.8362 53.4301 0.0315832
9.70025 58.8492 3.98383
11.5349 57.4565 2
13.2579 56.1635 0.0296509
9.30605 62.2254 4
11.1319 60.6255 2
12.849 59.1245 0.0212529
10.9835 64.0165 2
12.6785 62.3013 0.0123473
12.7746 65.6939 0
15.1523 20.1905 3.96991
16.4034 18.6525 2
14.749 17.3052 3.97743
17.6684 17.158 0.0217517
16.1025 15.7806 2
14.4827 14.2905 3.98189
17.5108 14.372 0.0189959
16.0201 12.8072 2
14.4444 11.1138 3.99096
17.6381 11.4541 0.0146429
16.201 9.66332 2
14.6715 7.74927 4
18.0503 8.33986 0.00817395
16.6661 6.31988 2
18.75 5.0241 0
25.5437 34.2695 3.99078
27.5675 34.7733 2
29.1921 35.1274 0.1045
17.8697 22.3295 3.9813
15.538 22.9235 3.97091
16.6912 21.3832 2
20.8792 19.3823 0.0217364
17.985 19.9439 0.0256317
19.7331 21.5775 2
19.6941 24.3847 3.96918
22.3669 21.7236 0.0218395
24.7139 23.1708 0.0271619
22.8751 24.6044 2
22.0129 27.8304 3.97107
23.877 31.1941 3.97534
24.6515 28.5318 2
25.516 25.9521 0.0310511
26.3052 31.696 2
28.4728 32.3409 0.0595514
27.1027 29.1348 -0.00292285
22.6426 36.2823 3.98057
24.8731 36.8549 2
27.0664 37.3693 0.0505302
25.3899 43.1664 0.0218451
24.1926 39.4355 0.0207336
23.0865 41.7934 2
21.9049 38.5091 2
20.8321 40.6377 3.97662
20.2353 37.7905 3.9774
21.9906 43.9421 0.0208915
19.8355 42.88 2
17.4432 42.0972 3.97741
19.0438 44.9639 0.0217914
17.009 44.3754 2
14.8914 44.1969 3.97355
16.6616 46.2084 0.0242123
14.8736 46.0866 2
12.9789 46.2929 3.97053
14.943 47.6664 0.0270573
13.3033 48.0058 2
11.4904 48.5483 3.96922
13.7939 49.5433 0.0302864
12.12 50.2507 2
10.2666 51.079 3.97067
12.9013 51.8713 0.0310041
11.1417 52.8341 2
9.23508 53.888 3.97493
8.38409 56.9817 3.9827
10.3267 55.7082 2
12.1463 54.5229 0.0296111
7.74927 60.3285 4
9.69901 58.8467 2
11.535 57.4559 0.0240567
9.306 62.2255 2
11.1333 60.6272 0.0139712
10.9835 64.0165 0
13.9669 21.7571 3.96869
15.1526 20.1896 2
13.4522 18.904 3.97318
16.4031 18.6533 0.0240226
14.7493 17.304 2
13.0284 15.8839 3.98062
16.1022 15.7816 0.0199434
14.4828 14.2895 2
12.782 12.6873 3.98937
16.0199 12.8079 0.0165762
14.4438 11.1145 2
12.7746 9.30605 4
16.2015 9.66277 0.00834657
14.6715 7.74924 2
16.6661 6.31991 0
23.2146 33.8066 3.97954
25.523 34.2659 2
27.5883 34.7815 0.0587399
17.6545 24.0452 3.97017
17.8699 22.3288 2
14.3257 24.452 3.97
15.5387 22.9232 2
16.6909 21.3838 0.0324244
19.114 27.2086 3.97046
19.7328 21.5782 0.0223021
19.6937 24.3842 2
21.2893 30.6704 3.97287
22.8751 24.605 0.0293554
22.0156 27.8304 2
23.8654 31.1942 2
24.6448 28.532 0.0257012
26.316 31.709 0.0106417
20.3643 35.9295 3.97668
22.6395 36.2802 2
24.8925 36.8575 0.0108338
23.0918 41.7948 0.0196028
21.9106 38.5092 0.0224486
20.8293 40.6385 2
20.2352 37.7908 2
18.1793 39.0006 3.9775
19.8346 42.8797 0.0219074
17.4437 42.097 2
14.8705 41.9151 3.97345
17.008 44.3757 0.0234702
14.892 44.1967 2
12.7293 44.389 3.97068
14.8733 46.0868 0.0266092
12.9791 46.2928 2
10.9915 46.7324 3.96888
13.3029 48.0059 0.0296762
11.4906 48.5483 2
9.52963 49.2395 3.97021
12.1197 50.2508 0.0307376
10.2669 51.0789 2
8.26783 52.0018 3.9747
11.1412 52.8341 0.0289438
9.23546 53.8875 2
7.19304 55.0321 3.98337
6.31991 58.3339 4
8.38325 56.9786 2
10.3264 55.7084 0.025322
7.74924 60.3285 2
9.70025 58.8492 0.0161678
9.30605 62.2254 0
13.2374 25.3635 3.97098
12.8338 23.2835 3.96983
13.9675 21.7568 2
12.2399 20.5538 3.9709
15.1523 20.1905 0.0300934
13.4526 18.9028 2
11.6592 17.5657 3.97832
14.749 17.3052 0.0225718
13.0286 15.8827 2
11.2196 14.3725 3.98734
14.4827 14.2905 0.0181106
12.7812 12.688 2
10.9835 10.9835 4
14.4444 11.1138 0.00903878
12.7745 9.306 2
14.6715 7.74927 0
20.7256 33.4016 3.97512
23.2199 33.8077 2
25.5437 34.2695 0.0092217
15.9491 26.4039 3.97058
17.6543 24.0447 2
17.8697 22.3295 0.0186999
14.326 24.4517 2
15.538 22.9235 0.0290895
18.4702 30.1777 3.97348
19.1132 27.2084 2
19.6941 24.3847 0.0308185
21.2958 30.6705 2
22.0129 27.8304 0.0289272
23.877 31.1941 0.0246647
17.8005 35.9654 3.97783
20.3616 35.9299 2
22.6426 36.2823 0.0194333
20.8321 40.6377 0.0233776
20.2353 37.7905 0.0226017
18.1812 39.0008 2
14.3907 39.1742 3.97459
17.4432 42.0972 0.0225943
14.8711 41.915 2
12.4323 42.2738 3.97115
14.8914 44.1969 0.0264479
12.7296 44.3889 2
10.5706 44.8011 3.96878
12.9789 46.2929 0.0294661
10.9916 46.7324 2
8.91191 47.3188 3.96953
11.4904 48.5483 0.0307805
9.52985 49.2394 2
7.43479 50.0354 3.97408
10.2666 51.079 0.0293347
8.26816 52.0013 2
6.13362 53.0072 3.98402
9.23508 53.888 0.0250742
7.19251 55.0293 2
5.0241 56.25 4
6.31988 58.3339 2
8.38409 56.9817 0.0173016
7.74927 60.3285 0
13.4859 26.8158 3.97044
11.944 24.7884 3.97077
13.2376 25.3633 2
11.1437 22.2375 3.97036
12.8343 23.2832 2
13.9669 21.7571 0.0313112
12.2406 20.5532 2
10.3909 19.321 3.97595
13.4522 18.904 0.0268236
11.6595 17.5646 2
9.76067 16.1564 3.98528
13.0284 15.8839 0.0193763
11.2186 14.3737 2
9.30607 12.7746 4
12.782 12.6873 0.0106335
10.9835 10.9835 2
12.7746 9.30605 0
17.9694 33.1144 3.97614
20.7238 33.4014 2
23.2146 33.8066 0.0204604
15.5547 29.6399 3.97243
15.9487 26.4038 2
17.6545 24.0452 0.0298337
14.3257 24.452 0.0299978
18.4704 30.1778 2
19.114 27.2086 0.0295447
21.2893 30.6704 0.0271309
14.998 36.0186 3.97511
17.8004 35.9655 2
20.3643 35.9295 0.0233168
12.6552 37.8283 3.97404
18.1793 39.0006 0.0224982
14.3912 39.1741 2
11.9522 40.1385 3.97197
14.8705 41.9151 0.0265459
12.4324 42.2737 2
10.1756 42.7764 3.96886
12.7293 44.389 0.0293166
10.5706 44.8011 2
8.3899 45.3207 3.96898
10.9915 46.7324 0.0311173
8.91196 47.3188 2
6.72613 48.0007 3.97346
9.52963 49.2395 0.0297883
7.43497 50.035 2
5.21047 50.9105 3.98392
8.26783 52.0018 0.0253038
6.13333 53.0052 2
3.86727 54.0858 4
7.19304 55.0321 0.0166328
5.02404 56.25 2
6.31991 58.3339 0
12.9517 29.0343 3.97006
11.3754 26.4875 3.96907
13.4853 26.8156 2
10.2015 23.9686 3.97125
11.9445 24.7882 2
13.2374 25.3635 0.0290163
9.24401 21.1396 3.97442
11.1445 22.2372 2
12.8338 23.2835 0.0301659
12.2399 20.5538 0.0291014
10.3916 19.3206 2
8.41684 18.0281 3.98353
11.6592 17.5657 0.0216811
9.75958 16.1584 2
7.74928 14.6715 4
11.2196 14.3725 0.012656
9.30602 12.7745 2
10.9835 10.9835 0
14.5583 32.8642 3.97401
17.9698 33.1146 2
20.7256 33.4016 0.0248798
15.5548 29.6399 2
15.9491 26.4039 0.0294194
18.4702 30.1777 0.0265202
12.9499 36.2088 3.97294
14.999 36.0186 2
17.8005 35.9654 0.0221715
12.6559 37.8281 2
11.3024 38.3086 3.97234
14.3907 39.1742 0.025414
11.9528 40.1384 2
9.76685 40.7529 3.96935
12.4323 42.2738 0.0288547
10.1758 42.7763 2
7.93919 43.2695 3.9687
10.5706 44.8011 0.0312164
8.38996 45.3206 2
6.13249 45.9057 3.97281
8.91191 47.3188 0.0304713
6.72615 48.0003 2
4.4221 48.7513 3.98341
7.43479 50.0354 0.0259192
5.21033 50.9094 2
2.85457 51.8506 4
6.13362 53.0072 0.0159839
3.86727 54.0858 2
5.0241 56.25 0
12.0981 31.2575 3.97116
10.7906 28.4151 3.9689
12.952 29.0343 2
9.41639 25.7981 3.97008
11.3755 26.4873 2
13.4859 26.8158 0.0295563
8.23066 23.0235 3.97451
10.2021 23.9684 2
11.944 24.7884 0.0292254
7.19921 19.9787 3.98289
9.24479 21.1396 2
11.1437 22.2375 0.0296424
10.3909 19.321 0.0240487
8.41616 18.0309 2
6.31992 16.6661 4
9.76067 16.1564 0.0147209
7.74926 14.6714 2
9.30607 12.7746 0
12.1299 34.295 3.97319
14.559 32.8643 2
17.9694 33.1144 0.0238604
15.5547 29.6399 0.0275726
10.8641 36.6105 3.97187
12.9506 36.2087 2
14.998 36.0186 0.0248895
12.6552 37.8283 0.0259594
11.303 38.3085 2
9.36041 38.8225 3.96986
11.9522 40.1385 0.028029
9.76729 40.7528 2
7.55067 41.2108 3.96866
10.1756 42.7764 0.031136
7.93928 43.2694 2
5.64465 43.7686 3.9724
8.3899 45.3207 0.0310172
6.13254 45.9055 2
3.76781 46.5371 3.98276
6.72613 48.0007 0.0265365
4.42204 48.7508 2
1.99014 49.554 4
5.21047 50.9105 0.0160805
2.85451 51.8506 2
3.86727 54.0858 0
10.946 32.9195 3.97224
10.1075 30.3823 3.96909
12.0988 31.2575 2
8.72426 27.7315 3.96952
10.7907 28.415 2
12.9517 29.0343 0.0299448
7.35619 24.9823 3.97378
9.41666 25.7979 2
11.3754 26.4875 0.0309261
6.11606 22.0023 3.9837
8.23125 23.0236 2
10.2015 23.9686 0.0287548
5.02411 18.75 4
7.19895 19.9812 2
9.24401 21.1396 0.0255775
8.41684 18.0281 0.0164702
6.3199 16.6661 2
7.74928 14.6715 0
10.47 34.9999 3.97164
12.1308 34.295 2
14.5583 32.8642 0.0259899
9.02922 36.9843 3.97006
10.8651 36.6105 2
12.9499 36.2088 0.027061
11.3024 38.3086 0.0276627
9.36087 38.8224 2
7.23108 39.1816 3.96904
9.76685 40.7529 0.0306468
7.55088 41.2106 2
5.26021 41.6141 3.97178
7.93919 43.2695 0.0313
5.64474 43.7683 2
3.24563 44.282 3.98236
6.13249 45.9057 0.0271856
3.76787 46.5368 2
1.27781 47.2057 4
4.4221 48.7513 0.0165855
1.99012 49.554 2
2.85457 51.8506 0
10.108 33.8815 3.97187
9.39681 32.1545 3.96966
10.9464 32.9195 2
8.07326 29.6951 3.96929
10.1078 30.3823 2
12.0981 31.2575 0.0288352
6.60002 27.0082 3.97327
8.72431 27.7314 2
10.7906 28.4151 0.0310978
5.17142 24.0951 3.9838
7.35649 24.9824 2
9.41639 25.7981 0.0299181
3.86728 20.9142 4
6.11598 22.004 2
8.23066 23.0235 0.0254912
5.02406 18.75 2
7.19921 19.9787 0.0171057
6.31992 16.6661 0
8.85352 35.2791 3.97021
10.4706 34.9998 2
12.1299 34.295 0.0268111
7.01472 37.2055 3.96922
9.0293 36.9842 2
10.8641 36.6105 0.0281268
9.36041 38.8225 0.0301364
7.23123 39.1815 2
4.98808 39.4673 3.97174
7.55067 41.2108 0.0313369
5.26041 41.6139 2
2.85624 42.0023 3.98197
5.64465 43.7686 0.0275998
3.24574 44.2819 2
0.720592 44.8159 4
3.76781 46.5371 0.017237
1.27778 47.2057 2
1.99014 49.554 0
8.89086 33.6976 3.97018
10.1084 33.8814 2
7.5108 31.6088 3.96944
9.39707 32.1544 2
10.946 32.9195 0.0277619
5.9452 29.0691 3.97302
8.0732 29.695 2
10.1075 30.3823 0.0309089
4.35921 26.2475 3.98325
6.60009 27.0082 2
8.72426 27.7315 0.0304811
2.85458 23.1494 4
5.1714 24.0959 2
7.35619 24.9823 0.026216
3.86728 20.9142 2
6.11606 22.0023 0.0163031
5.02411 18.75 0
6.96486 35.3057 3.96935
8.85393 35.279 2
10.47 34.9999 0.0283601
4.83811 37.3396 3.97224
7.0148 37.2055 2
9.02922 36.9843 0.0299357
7.23108 39.1816 0.030959
4.98823 39.4672 2
2.60441 39.714 3.98162
5.26021 41.6141 0.0282197
2.85646 42.0025 2
0.320823 42.3947 4
3.24563 44.282 0.0176377
0.720551 44.8159 2
1.27781 47.2057 0
7.12462 33.4606 3.96963
8.89101 33.6975 2
10.108 33.8815 0.0281323
5.41615 31.1331 3.97286
7.51085 31.6088 2
9.39681 32.1545 0.0303399
3.68098 28.4434 3.98276
5.94514 29.0692 2
8.07326 29.6951 0.0307085
1.99015 25.446 4
4.35921 26.2478 2
6.60002 27.0082 0.0267301
2.85453 23.1494 2
5.17142 24.0951 0.0161977
3.86728 20.9142 0
4.85237 35.2513 3.97243
6.96509 35.3057 2
8.85352 35.2791 0.0297877
2.49578 37.4285 3.98213
4.83818 37.3397 2
7.01472 37.2055 0.0307842
4.98808 39.4673 0.0282636
2.60461 39.7144 2
0.080333 39.9526 4
2.85624 42.0023 0.0180275
0.320817 42.3947 2
0.720592 44.8159 0
5.04562 33.1898 3.97278
7.12478 33.4605 2
8.89086 33.6976 0.0298214
3.14534 30.666 3.98234
5.41619 31.1332 2
7.5108 31.6088 0.0305623
1.27793 27.7943 4
3.681 28.4435 2
5.9452 29.0691 0.026978
1.99013 25.446 2
4.35921 26.2475 0.0167545
2.85458 23.1494 0
2.54789 35.159 3.98221
4.85261 35.2514 2
6.96486 35.3057 0.0306527
0 37.5 4
2.49589 37.4289 2
4.83811 37.3396 0.0277581
2.60441 39.714 0.0183804
0.0802903 39.9526 2
0.320823 42.3947 0
2.76542 32.9057 3.98238
5.04577 33.19 2
7.12462 33.4606 0.0303747
0.721173 30.1842 4
3.14546 30.6665 2
5.41615 31.1331 0.0271421
1.27779 27.7943 2
3.68098 28.4434 0.0172385
1.99015 25.446 0
0.0806499 35.0474 4
2.54816 35.1594 2
4.85237 35.2513 0.0275682
0 37.5 2
2.49578 37.4285 0.0178662
0.080333 39.9526 0
0.32156 32.6054 4
2.76558 32.9061 2
5.04562 33.1898 0.0272243
0.72056 30.1841 2
3.14534 30.666 0.0176566
1.27793 27.7943 0
0.0802889 35.0474 2
2.54789 35.159 0.0177858
0 37.5 0
0.320817 32.6053 2
2.76542 32.9057 0.017617
0.721173 30.1842 0
0.0806499 35.0474 0
0.32156 32.6054 0
CELLS 1910 17190
8 18 6 25 56 2 0 5 16
8 57 23 6 18 17 4 0 2
8 78 36 9 29 31 11 1 7
8 31 11 1 7 79 37 10 30
8 110 57 18 50 48 17 2 14
8 50 18 56 111 14 2 16 49
8 116 62 22 55 52 20 3 15
8 56 25 67 118 16 5 24 53
8 119 63 23 57 54 21 4 17
8 55 22 63 119 15 3 21 54
8 58 26 68 121 18 6 25 56
8 122 65 26 58 57 23 6 18
8 73 31 7 27 142 79 30 71
8 143 78 29 72 73 31 7 27
8 83 147 76 34 32 74 28 8
8 84 148 78 36 33 75 29 9
8 76 34 8 28 148 84 33 75
8 37 79 150 86 10 30 77 35
8 151 87 36 78 80 38 11 31
8 80 38 11 31 152 88 37 79
8 175 100 42 94 96 44 12 40
8 44 96 176 101 12 40 95 43
8 101 176 98 46 43 95 41 13
8 46 98 178 103 13 41 97 45
8 178 103 45 97 147 83 32 74
8 189 116 55 109 106 52 15 47
8 111 56 118 191 49 16 53 107
8 192 119 57 110 108 54 17 48
8 109 55 119 192 47 15 54 108
8 194 122 58 112 110 57 18 50
8 112 58 121 195 50 18 56 111
8 115 61 19 51 197 124 59 113
8 115 61 125 198 51 19 60 114
8 198 125 62 116 114 60 20 52
8 200 127 64 120 116 62 22 55
8 118 67 132 202 53 24 66 117
8 121 68 133 203 56 25 67 118
8 120 64 128 204 55 22 63 119
8 204 128 65 122 119 63 23 57
8 206 134 68 121 123 69 26 58
8 123 69 26 58 207 131 65 122
8 226 147 74 138 140 76 28 70
8 229 148 75 139 143 78 29 72
8 140 76 28 70 229 148 75 139
8 142 79 30 71 231 150 77 141
8 144 80 31 73 232 152 79 142
8 233 151 78 143 144 80 31 73
8 150 86 35 77 235 154 81 145
8 235 154 81 145 146 82 39 91
8 146 82 39 91 236 155 90 165
8 238 157 83 147 149 85 34 76
8 239 158 84 148 151 87 36 78
8 149 85 34 76 239 158 84 148
8 152 88 37 79 241 160 86 150
8 242 161 87 151 153 89 38 80
8 153 89 38 80 243 162 88 152
8 171 98 41 92 265 178 97 169
8 265 178 97 169 226 147 74 138
8 172 96 40 93 266 176 95 170
8 266 176 95 170 171 98 41 92
8 269 175 94 173 172 96 40 93
8 271 180 99 174 175 100 42 94
8 197 124 59 113 271 180 99 174
8 272 181 100 175 177 102 44 96
8 273 182 101 176 179 104 46 98
8 177 102 44 96 273 182 101 176
8 179 104 46 98 275 184 103 178
8 275 184 103 178 238 157 83 147
8 188 115 51 105 283 197 113 186
8 188 115 198 284 105 51 114 187
8 284 198 116 189 187 114 52 106
8 286 200 120 193 189 116 55 109
8 191 118 202 288 107 53 117 190
8 195 121 203 289 111 56 118 191
8 193 120 204 290 109 55 119 192
8 290 204 122 194 192 119 57 110
8 196 123 58 112 292 207 122 194
8 293 206 121 195 196 123 58 112
8 199 126 61 115 297 211 124 197
8 298 212 127 200 198 125 62 116
8 199 126 212 298 115 61 125 198
8 205 129 64 120 300 214 127 200
8 301 217 130 201 202 132 66 117
8 209 136 168 264 301 217 130 201
8 302 219 132 202 203 133 67 118
8 303 220 133 203 206 134 68 121
8 205 129 215 304 120 64 128 204
8 304 215 131 207 204 128 65 122
8 306 221 134 206 208 135 69 123
8 208 135 69 123 307 218 131 207
8 210 137 167 263 309 223 136 209
8 328 238 147 226 230 149 76 140
8 228 146 91 166 329 236 165 260
8 231 150 77 141 330 235 145 227
8 330 235 145 227 228 146 91 166
8 332 239 148 229 233 151 78 143
8 230 149 76 140 332 239 148 229
8 232 152 79 142 334 241 150 231
8 234 153 80 144 335 243 152 232
8 336 242 151 233 234 153 80 144
8 236 155 90 165 338 245 164 259
8 241 160 86 150 339 246 154 235
8 339 246 154 235 237 156 82 146
8 237 156 82 146 340 247 155 236
8 342 249 157 238 240 159 85 149
8 343 250 158 239 242 161 87 151
8 240 159 85 149 343 250 158 239
8 243 162 88 152 345 252 160 241
8 244 163 253 346 153 89 161 242
8 244 163 89 153 347 254 162 243
8 311 224 261 371 210 137 167 263
8 263 167 262 372 209 136 168 264
8 267 179 98 171 375 275 178 265
8 375 275 178 265 328 238 147 226
8 376 273 176 266 267 179 98 171
8 268 177 96 172 376 273 176 266
8 379 272 175 269 268 177 96 172
8 380 271 174 270 269 175 94 173
8 283 197 113 186 380 271 174 270
8 381 277 180 271 272 181 100 175
8 297 211 124 197 381 277 180 271
8 382 278 181 272 274 183 102 177
8 274 183 102 177 383 279 182 273
8 383 279 182 273 276 185 104 179
8 385 281 184 275 342 249 157 238
8 276 185 104 179 385 281 184 275
8 285 199 115 188 393 297 197 283
8 394 298 200 286 284 198 116 189
8 285 199 298 394 188 115 198 284
8 291 205 120 193 396 300 200 286
8 397 301 201 287 288 202 117 190
8 295 209 264 374 397 301 201 287
8 398 302 202 288 289 203 118 191
8 399 303 203 289 293 206 121 195
8 291 205 304 400 193 120 204 290
8 400 304 207 292 290 204 122 194
8 294 208 123 196 402 307 207 292
8 403 306 206 293 294 208 123 196
8 296 210 263 373 405 309 209 295
8 408 312 213 299 297 211 126 199
8 299 213 313 409 199 126 212 298
8 409 313 214 300 298 212 127 200
8 305 216 129 205 411 315 214 300
8 412 318 217 301 302 219 132 202
8 309 223 136 209 412 318 217 301
8 413 320 219 302 303 220 133 203
8 306 221 321 414 206 134 220 303
8 307 218 131 207 415 316 215 304
8 305 216 316 415 205 129 215 304
8 417 322 221 306 308 222 135 208
8 308 222 135 208 418 319 218 307
8 310 225 137 210 420 325 223 309
8 423 326 224 311 310 225 137 210
8 329 236 165 260 441 338 259 368
8 442 342 238 328 333 240 149 230
8 331 237 146 228 443 340 236 329
8 334 241 150 231 444 339 235 330
8 444 339 235 330 331 237 146 228
8 446 343 239 332 336 242 151 233
8 333 240 149 230 446 343 239 332
8 335 243 152 232 448 345 241 334
8 337 244 153 234 449 347 243 335
8 337 244 346 450 234 153 242 336
8 338 245 164 259 452 349 258 367
8 340 247 155 236 453 350 245 338
8 345 252 160 241 454 351 246 339
8 454 351 246 339 341 248 156 237
8 341 248 156 237 455 352 247 340
8 240 159 251 344 342 249 354 457
8 242 161 253 346 343 250 355 458
8 343 250 355 458 240 159 251 344
8 347 254 162 243 460 357 252 345
8 348 255 358 461 244 163 253 346
8 348 255 163 244 462 359 254 347
8 473 360 257 365 363 256 364 482
8 452 349 258 367 365 257 366 485
8 422 324 369 488 311 224 261 371
8 371 261 370 490 263 167 262 372
8 407 311 371 491 296 210 263 373
8 373 263 372 492 295 209 264 374
8 493 385 275 375 442 342 238 328
8 377 276 179 267 493 385 275 375
8 378 274 177 268 494 383 273 376
8 494 383 273 376 377 276 179 267
8 497 382 272 379 378 274 177 268
8 498 381 271 380 379 272 175 269
8 393 297 197 283 498 381 271 380
8 499 387 277 381 382 278 181 272
8 408 312 211 297 499 387 277 381
8 500 388 278 382 384 280 183 274
8 501 389 279 383 386 282 185 276
8 384 280 183 274 501 389 279 383
8 386 282 185 276 503 391 281 385
8 503 391 281 385 457 354 249 342
8 511 408 299 395 393 297 199 285
8 395 299 409 512 285 199 298 394
8 512 409 300 396 394 298 200 286
8 401 305 205 291 514 411 300 396
8 515 412 301 397 398 302 202 288
8 405 309 209 295 515 412 301 397
8 516 413 302 398 399 303 203 289
8 403 306 414 517 293 206 303 399
8 402 307 207 292 518 415 304 400
8 401 305 415 518 291 205 304 400
8 404 308 208 294 520 418 307 402
8 521 417 306 403 404 308 208 294
8 406 310 210 296 523 420 309 405
8 526 423 311 407 406 310 210 296
8 410 314 213 299 527 424 312 408
8 528 425 315 411 409 313 214 300
8 410 314 425 528 299 213 313 409
8 416 317 216 305 530 427 315 411
8 531 430 318 412 413 320 219 302
8 420 325 223 309 531 430 318 412
8 532 432 320 413 414 321 220 303
8 417 322 433 533 306 221 321 414
8 418 319 218 307 534 428 316 415
8 416 317 428 534 305 216 316 415
8 419 323 434 536 308 222 322 417
8 419 323 222 308 537 431 319 418
8 421 327 225 310 539 438 325 420
8 421 327 439 541 310 225 326 423
8 543 437 324 422 423 326 224 311
8 441 338 259 368 559 452 367 486
8 443 340 236 329 560 453 338 441
8 333 240 344 447 442 342 457 561
8 445 341 237 331 562 455 340 443
8 448 345 241 334 563 454 339 444
8 563 454 339 444 445 341 237 331
8 336 242 346 450 446 343 458 565
8 446 343 458 565 333 240 344 447
8 449 347 243 335 567 460 345 448
8 451 348 244 337 568 462 347 449
8 451 348 461 569 337 244 346 450
8 570 463 349 452 473 360 257 365
8 453 350 245 338 570 463 349 452
8 455 352 247 340 571 464 350 453
8 460 357 252 345 572 465 351 454
8 572 465 351 454 456 353 248 341
8 456 353 248 341 573 466 352 455
8 344 251 356 459 457 354 468 575
8 458 355 469 576 344 251 356 459
8 346 253 358 461 458 355 469 576
8 462 359 254 347 578 471 357 460
8 348 255 359 462 461 358 472 579
8 591 474 360 473 475 361 256 363
8 475 361 256 363 594 477 362 479
8 363 256 364 482 479 362 480 603
8 590 473 365 484 481 363 482 605
8 482 364 257 365 606 483 366 485
8 559 452 367 486 484 365 485 607
8 542 436 487 609 422 324 369 488
8 525 422 488 611 407 311 371 491
8 488 369 489 612 371 261 370 490
8 491 371 490 613 373 263 372 492
8 495 386 276 377 614 503 385 493
8 614 503 385 493 561 457 342 442
8 615 501 383 494 495 386 276 377
8 496 384 274 378 615 501 383 494
8 618 500 382 497 496 384 274 378
8 619 499 381 498 497 382 272 379
8 511 408 297 393 619 499 381 498
8 620 505 387 499 500 388 278 382
8 527 424 312 408 620 505 387 499
8 502 390 506 621 384 280 388 500
8 622 507 389 501 504 392 282 386
8 502 390 280 384 622 507 389 501
8 504 392 282 386 624 509 391 503
8 624 509 391 503 575 468 354 457
8 513 410 299 395 630 527 408 511
8 631 528 411 514 512 409 300 396
8 513 410 528 631 395 299 409 512
8 519 416 305 401 633 530 411 514
8 634 531 412 515 516 413 302 398
8 523 420 309 405 634 531 412 515
8 635 532 413 516 517 414 303 399
8 521 417 533 636 403 306 414 517
8 520 418 307 402 637 534 415 518
8 519 416 534 637 401 305 415 518
8 522 419 308 404 639 537 418 520
8 522 419 536 640 404 308 417 521
8 524 421 310 406 642 539 420 523
8 524 421 541 644 406 310 423 526
8 646 543 422 525 526 423 311 407
8 529 426 314 410 647 544 424 527
8 528 425 545 648 411 315 427 530
8 529 426 545 648 410 314 425 528
8 535 429 317 416 649 546 427 530
8 650 548 430 531 532 432 320 413
8 539 438 325 420 650 548 430 531
8 533 433 550 651 414 321 432 532
8 536 434 551 652 417 322 433 533
8 537 431 319 418 653 547 428 534
8 535 429 547 653 416 317 428 534
8 538 435 552 654 419 323 434 536
8 538 435 323 419 655 549 431 537
8 540 440 327 421 657 556 438 539
8 540 440 557 659 421 327 439 541
8 541 439 555 660 423 326 437 543
8 661 554 436 542 543 437 324 422
8 676 570 452 559 590 473 365 484
8 560 453 338 441 676 570 452 559
8 562 455 340 443 677 571 453 560
8 447 344 459 566 561 457 575 678
8 564 456 341 445 679 573 455 562
8 567 460 345 448 680 572 454 563
8 680 572 454 563 564 456 341 445
8 565 458 576 682 447 344 459 566
8 450 346 461 569 565 458 576 682
8 568 462 347 449 684 578 460 567
8 451 348 462 568 569 461 579 685
8 686 580 463 570 591 474 360 473
8 571 464 350 453 686 580 463 570
8 573 466 352 455 687 581 464 571
8 572 465 582 688 460 357 471 578
8 574 467 582 688 456 353 465 572
8 574 467 353 456 689 583 466 573
8 459 356 470 577 575 468 585 691
8 576 469 586 692 459 356 470 577
8 461 358 472 579 576 469 586 692
8 462 359 471 578 579 472 588 694
8 704 591 473 590 593 475 363 481
8 595 476 592 705 475 361 474 591
8 593 475 363 481 707 594 479 602
8 594 477 362 479 709 598 478 600
8 595 476 361 475 711 597 477 594
8 479 362 480 603 600 478 601 720
8 481 363 482 605 602 479 603 722
8 603 480 364 482 723 604 483 606
8 605 482 365 484 724 606 485 607
8 656 553 608 726 542 436 487 609
8 645 542 609 728 525 422 488 611
8 609 487 610 729 488 369 489 612
8 611 488 612 730 491 371 490 613
8 616 504 386 495 731 624 503 614
8 731 624 503 614 678 575 457 561
8 732 622 501 615 616 504 386 495
8 617 502 384 496 732 622 501 615
8 617 502 621 735 496 384 500 618
8 736 620 499 619 618 500 382 497
8 630 527 408 511 736 620 499 619
8 621 506 626 737 500 388 505 620
8 647 544 424 527 737 626 505 620
8 623 508 627 738 502 390 506 621
8 623 508 390 502 739 628 507 622
8 625 510 628 739 504 392 507 622
8 740 629 509 624 691 585 468 575
8 625 510 392 504 740 629 509 624
8 632 529 410 513 744 647 527 630
8 631 528 648 745 514 411 530 633
8 632 529 648 745 513 410 528 631
8 638 535 416 519 746 649 530 633
8 747 650 531 634 635 532 413 516
8 642 539 420 523 747 650 531 634
8 636 533 651 748 517 414 532 635
8 640 536 652 749 521 417 533 636
8 639 537 418 520 750 653 534 637
8 638 535 653 750 519 416 534 637
8 641 538 419 522 751 655 537 639
8 641 538 654 752 522 419 536 640
8 643 540 421 524 753 657 539 642
8 643 540 659 755 524 421 541 644
8 644 541 660 757 526 423 543 646
8 758 661 542 645 646 543 422 525
8 529 426 544 647 648 545 662 759
8 530 427 545 648 649 546 663 760
8 535 429 546 649 653 547 664 761
8 762 666 548 650 651 550 432 532
8 657 556 438 539 762 666 548 650
8 652 551 668 763 533 433 550 651
8 654 552 669 764 536 434 551 652
8 655 549 431 537 765 665 547 653
8 538 435 549 655 654 552 667 766
8 661 554 671 768 542 436 553 656
8 658 558 440 540 769 674 556 657
8 658 558 675 770 540 440 557 659
8 659 557 673 771 541 439 555 660
8 660 555 672 772 543 437 554 661
8 788 686 570 676 704 591 473 590
8 677 571 453 560 788 686 570 676
8 679 573 455 562 789 687 571 677
8 566 459 577 683 678 575 691 790
8 681 574 456 564 791 689 573 679
8 680 572 688 792 567 460 578 684
8 681 574 688 792 564 456 572 680
8 682 576 692 794 566 459 577 683
8 569 461 579 685 682 576 692 794
8 568 462 578 684 685 579 694 796
8 687 581 464 571 798 696 580 686
8 798 696 580 686 705 592 474 591
8 689 583 466 573 799 697 581 687
8 688 582 698 800 578 471 588 694
8 690 584 698 800 574 467 582 688
8 690 584 467 574 801 699 583 689
8 693 587 701 803 577 470 585 691
8 693 587 470 577 804 702 586 692
8 695 589 702 804 579 472 586 692
8 695 589 472 579 805 703 588 694
8 708 595 705 813 593 475 591 704
8 710 596 706 814 595 476 592 705
8 707 594 479 602 816 709 600 719
8 708 595 475 593 817 711 594 707
8 709 598 478 600 819 715 599 717
8 711 597 477 594 820 714 598 709
8 710 596 476 595 822 713 597 711
8 600 478 601 720 717 599 718 832
8 602 479 603 722 719 600 720 834
8 720 601 480 603 835 721 604 723
8 722 603 482 605 836 723 606 724
8 767 670 725 839 656 553 608 726
8 756 656 726 841 645 542 609 728
8 726 608 727 842 609 487 610 729
8 728 609 729 843 611 488 612 730
8 844 740 624 731 790 691 575 678
8 733 625 504 616 844 740 624 731
8 734 623 502 617 845 739 622 732
8 733 625 739 845 616 504 622 732
8 734 623 738 846 617 502 621 735
8 735 621 737 847 618 500 620 736
8 744 647 527 630 847 737 620 736
8 621 506 627 738 737 626 741 848
8 647 544 626 737 759 662 741 848
8 623 508 628 739 738 627 742 849
8 740 629 585 691 850 743 700 802
8 625 510 629 740 739 628 743 850
8 632 529 647 744 745 648 759 854
8 633 530 648 745 746 649 760 855
8 638 535 649 746 750 653 761 856
8 857 762 650 747 748 651 532 635
8 753 657 539 642 857 762 650 747
8 749 652 763 858 636 533 651 748
8 752 654 764 859 640 536 652 749
8 751 655 537 639 860 765 653 750
8 641 538 655 751 752 654 766 861
8 754 658 540 643 862 769 657 753
8 754 658 770 863 643 540 659 755
8 755 659 771 864 644 541 660 757
8 758 661 768 866 645 542 656 756
8 757 660 772 867 646 543 661 758
8 759 662 773 868 648 545 663 760
8 649 546 663 760 761 664 774 871
8 765 665 547 653 872 775 664 761
8 873 777 666 762 763 668 550 651
8 769 674 556 657 873 777 666 762
8 764 669 779 874 652 551 668 763
8 654 552 667 766 764 669 778 875
8 655 549 665 765 766 667 776 876
8 768 671 782 877 656 553 670 767
8 772 672 783 878 661 554 671 768
8 658 558 674 769 770 675 786 879
8 659 557 675 770 771 673 785 881
8 882 784 672 772 771 673 555 660
8 789 687 571 677 897 798 686 788
8 897 798 686 788 813 705 591 704
8 791 689 573 679 898 799 687 789
8 795 693 803 900 683 577 691 790
8 793 690 574 681 901 801 689 791
8 792 688 800 902 684 578 694 796
8 793 690 800 902 681 574 688 792
8 795 693 577 683 903 804 692 794
8 797 695 804 903 685 579 692 794
8 797 695 579 685 904 805 694 796
8 905 806 697 799 798 696 581 687
8 814 706 806 905 705 592 696 798
8 689 583 697 799 801 699 808 907
8 800 698 809 908 694 588 703 805
8 690 584 699 801 800 698 809 908
8 803 701 810 909 691 585 700 802
8 693 587 702 804 803 701 811 910
8 695 589 703 805 804 702 812 911
8 818 710 814 919 708 595 705 813
8 821 712 815 920 710 596 706 814
8 816 709 600 719 922 819 717 831
8 817 711 594 707 923 820 709 816
8 818 710 595 708 924 822 711 817
8 819 715 599 717 926 827 716 829
8 820 714 598 709 927 826 715 819
8 929 825 713 822 820 714 597 711
8 821 712 596 710 930 824 713 822
8 717 599 718 832 829 716 830 942
8 719 600 720 834 831 717 832 944
8 832 718 601 720 945 833 721 835
8 834 720 603 722 946 835 723 836
8 869 780 838 950 767 670 725 839
8 865 767 839 952 756 656 726 841
8 839 725 840 953 726 608 727 842
8 841 726 842 954 728 609 729 843
8 844 740 691 790 955 850 802 899
8 733 625 740 844 845 739 850 955
8 734 623 739 845 846 738 849 956
8 735 621 738 846 847 737 848 957
8 744 647 737 847 854 759 848 957
8 738 627 742 849 848 741 851 958
8 848 741 851 958 759 662 773 868
8 850 743 700 802 959 852 807 906
8 849 742 628 739 959 852 743 850
8 854 759 868 965 745 648 760 855
8 746 649 760 855 856 761 871 966
8 860 765 653 750 967 872 761 856
8 968 873 762 857 858 763 651 748
8 862 769 657 753 968 873 762 857
8 859 764 874 969 749 652 763 858
8 752 654 766 861 859 764 875 970
8 751 655 765 860 861 766 876 971
8 754 658 769 862 863 770 879 972
8 755 659 770 863 864 771 881 974
8 976 882 772 867 864 771 660 757
8 866 768 877 977 756 656 767 865
8 867 772 878 978 758 661 768 866
8 760 663 773 868 871 774 883 980
8 870 781 837 948 982 890 780 869
8 982 890 780 869 877 782 670 767
8 761 664 774 871 872 775 884 984
8 876 776 665 765 985 885 775 872
8 873 777 668 763 986 887 779 874
8 769 674 777 873 879 786 887 986
8 764 669 778 875 874 779 888 987
8 766 667 776 876 875 778 886 988
8 878 783 892 989 768 671 782 877
8 878 783 672 772 990 893 784 882
8 880 787 675 770 991 896 786 879
8 880 787 895 992 770 675 785 881
8 881 785 894 993 771 673 784 882
8 1006 905 799 898 897 798 687 789
8 919 814 905 1006 813 705 798 897
8 791 689 799 898 901 801 907 1007
8 900 803 909 1009 790 691 802 899
8 795 693 804 903 900 803 910 1010
8 902 800 908 1011 796 694 805 904
8 793 690 801 901 902 800 908 1011
8 797 695 805 904 903 804 911 1012
8 799 697 806 905 907 808 912 1013
8 920 815 912 1013 814 706 806 905
8 802 700 810 909 906 807 913 1014
8 801 699 808 907 908 809 914 1015
8 805 703 809 908 911 812 915 1016
8 803 701 811 910 909 810 916 1017
8 911 812 917 1018 804 702 811 910
8 925 821 920 1030 818 710 814 919
8 928 823 921 1031 821 712 815 920
8 922 819 717 831 1033 926 829 941
8 923 820 709 816 1034 927 819 922
8 1035 929 822 924 923 820 711 817
8 925 821 710 818 1036 930 822 924
8 1038 933 825 929 927 826 714 820
8 926 827 716 829 1039 935 828 939
8 927 826 715 819 1040 934 827 926
8 928 823 712 821 1041 931 824 930
8 1042 932 824 930 929 825 713 822
8 829 716 830 942 939 828 940 1058
8 831 717 832 944 941 829 942 1060
8 942 830 718 832 1061 943 833 945
8 944 832 720 834 1062 945 835 946
8 981 889 947 1064 870 781 837 948
8 948 837 949 1067 869 780 838 950
8 975 869 950 1069 865 767 839 952
8 950 838 951 1070 839 725 840 953
8 952 839 953 1071 841 726 842 954
8 955 850 802 899 1072 959 906 1008
8 956 849 739 845 1072 959 850 955
8 846 738 849 956 957 848 958 1073
8 957 848 958 1073 854 759 868 965
8 849 742 852 959 958 851 961 1076
8 960 853 961 1076 906 807 852 959
8 958 851 961 1076 868 773 883 980
8 960 853 807 906 1077 963 913 1014
8 855 760 868 965 966 871 980 1085
8 856 761 871 966 967 872 984 1086
8 971 876 765 860 1087 985 872 967
8 968 873 763 858 1088 986 874 969
8 862 769 873 968 972 879 986 1088
8 859 764 875 970 969 874 987 1089
8 861 766 876 971 970 875 988 1090
8 973 880 770 863 1091 991 879 972
8 973 880 992 1092 863 770 881 974
8 974 881 993 1093 864 771 882 976
8 979 870 948 1066 1094 982 869 975
8 1094 982 869 975 977 877 767 865
8 978 878 772 867 1095 990 882 976
8 978 878 989 1096 866 768 877 977
8 871 774 883 980 984 884 994 1099
8 983 891 999 1100 870 781 889 981
8 1101 1000 890 982 989 892 782 877
8 983 891 781 870 1101 1000 890 982
8 872 775 884 984 985 885 995 1103
8 876 776 885 985 988 886 996 1104
8 986 887 779 874 1105 998 888 987
8 879 786 887 986 991 896 998 1105
8 875 778 886 988 987 888 997 1106
8 990 893 1002 1107 878 783 892 989
8 1108 1003 893 990 993 894 784 882
8 880 787 896 991 992 895 1005 1109
8 993 894 785 881 1110 1004 895 992
8 898 799 905 1006 1007 907 1013 1120
8 1030 920 1013 1120 919 814 905 1006
8 901 801 907 1007 1011 908 1015 1121
8 899 802 909 1009 1008 906 1014 1122
8 900 803 910 1010 1009 909 1017 1123
8 1012 911 1018 1124 903 804 910 1010
8 904 805 908 1011 1012 911 1016 1125
8 1013 912 1020 1127 907 808 914 1015
8 1031 921 1020 1127 920 815 912 1013
8 1019 918 962 1075 1128 1021 913 1014
8 1128 1021 913 1014 1017 916 810 909
8 1015 914 1022 1129 908 809 915 1016
8 1016 915 1023 1130 911 812 917 1018
8 1018 917 1024 1131 910 811 916 1017
8 1037 928 1031 1148 925 821 920 1030
8 928 823 931 1041 1031 921 1032 1149
8 1033 926 829 941 1151 1039 939 1057
8 1034 927 819 922 1152 1040 926 1033
8 1153 1038 929 1035 1034 927 820 923
8 1154 1042 930 1036 1035 929 822 924
8 1037 928 821 925 1155 1041 930 1036
8 1039 935 828 939 1156 1047 938 1055
8 1157 1043 932 1042 1038 933 825 929
8 1038 933 826 927 1158 1045 934 1040
8 1040 934 827 926 1159 1046 935 1039
8 930 824 932 1042 1041 931 1044 1160
8 1051 936 1048 1165 1175 1052 937 1053
8 1156 1047 938 1055 1053 937 1054 1178
8 939 828 940 1058 1055 938 1056 1181
8 941 829 942 1060 1057 939 1058 1183
8 942 830 943 1061 1058 940 1059 1184
8 1060 942 832 944 1185 1061 945 1062
8 1082 964 1063 1188 981 889 947 1064
8 1097 981 1064 1190 979 870 948 1066
8 1064 947 1065 1191 948 837 949 1067
8 1066 948 1067 1193 975 869 950 1069
8 1067 949 1068 1194 950 838 951 1070
8 1069 950 1070 1195 952 839 953 1071
8 956 849 959 1072 1073 958 1076 1197
8 1074 960 1076 1197 1008 906 959 1072
8 1073 958 1076 1197 965 868 980 1085
8 1074 960 906 1008 1198 1077 1014 1122
8 1133 1026 1079 1199 1019 918 962 1075
8 1077 963 913 1014 1200 1080 962 1075
8 960 853 963 1077 1076 961 1078 1201
8 980 883 961 1076 1099 994 1078 1201
8 1210 1083 964 1082 1100 999 889 981
8 966 871 980 1085 1086 984 1099 1215
8 967 872 984 1086 1087 985 1103 1216
8 971 876 985 1087 1090 988 1104 1217
8 1088 986 874 969 1218 1105 987 1089
8 972 879 986 1088 1091 991 1105 1218
8 970 875 988 1090 1089 987 1106 1219
8 973 880 991 1091 1092 992 1109 1220
8 1093 993 881 974 1221 1110 992 1092
8 1222 1108 990 1095 1093 993 882 976
8 1223 1101 982 1094 1096 989 877 977
8 1098 983 870 979 1223 1101 982 1094
8 1095 990 1107 1224 978 878 989 1096
8 1098 983 1100 1225 979 870 981 1097
8 984 884 994 1099 1103 995 1111 1227
8 1102 1001 1115 1228 983 891 999 1100
8 1101 1000 892 989 1229 1116 1002 1107
8 1102 1001 891 983 1229 1116 1000 1101
8 985 885 995 1103 1104 996 1112 1230
8 988 886 996 1104 1106 997 1113 1231
8 1105 998 888 987 1232 1114 997 1106
8 991 896 998 1105 1109 1005 1114 1232
8 1108 1003 1117 1233 990 893 1002 1107
8 1108 1003 894 993 1233 1117 1004 1110
8 992 895 1005 1109 1110 1004 1118 1234
8 1120 1013 1127 1244 1007 907 1015 1121
8 1148 1031 1127 1244 1030 920 1013 1120
8 1121 1015 1129 1245 1011 908 1016 1125
8 1126 1019 1075 1196 1246 1128 1014 1122
8 1246 1128 1014 1122 1123 1017 909 1009
8 1124 1018 1131 1247 1010 910 1017 1123
8 1125 1016 1130 1248 1012 911 1018 1124
8 1127 1020 1137 1254 1015 914 1022 1129
8 1031 921 1032 1149 1127 1020 1137 1254
8 1134 1027 918 1019 1257 1140 1021 1128
8 1257 1140 1021 1128 1131 1024 916 1017
8 1129 1022 1141 1258 1016 915 1023 1130
8 1130 1023 1142 1259 1018 917 1024 1131
8 1261 1144 1025 1132 1133 1026 1079 1199
8 1255 1138 1025 1132 1135 1028 1144 1261
8 1133 1026 918 1019 1262 1145 1027 1134
8 1136 1029 1139 1256 1263 1146 1028 1135
8 1037 928 1041 1155 1148 1031 1149 1275
8 1041 931 1044 1160 1149 1032 1150 1276
8 1151 1039 939 1057 1278 1156 1055 1180
8 1152 1040 926 1033 1279 1159 1039 1151
8 1153 1038 927 1034 1280 1158 1040 1152
8 1281 1157 1042 1154 1153 1038 929 1035
8 1036 930 1042 1154 1155 1041 1160 1282
8 1283 1164 1046 1159 1156 1047 935 1039
8 1165 1048 1164 1283 1053 937 1047 1156
8 1157 1043 933 1038 1284 1161 1045 1158
8 1157 1043 1161 1284 1042 932 1044 1160
8 1040 934 1046 1159 1158 1045 1163 1285
8 1166 1049 1167 1292 1051 936 1048 1165
8 1166 1049 936 1051 1293 1168 1050 1172
8 1051 936 1052 1175 1172 1050 1173 1306
8 1174 1051 1165 1290 1308 1175 1053 1177
8 1053 937 1054 1178 1175 1052 1176 1309
8 1278 1156 1055 1180 1177 1053 1178 1311
8 1055 938 1056 1181 1178 1054 1179 1312
8 1057 939 1058 1183 1180 1055 1181 1314
8 1058 940 1059 1184 1181 1056 1182 1315
8 1060 942 1061 1185 1183 1058 1184 1316
8 1208 1081 1187 1321 1082 964 1063 1188
8 1209 1082 1188 1322 1097 981 1064 1190
8 1188 1063 1189 1323 1064 947 1065 1191
8 1190 1064 1191 1325 1066 948 1067 1193
8 1191 1065 1192 1326 1067 949 1068 1194
8 1067 1193 1069 950 1194 1327 1195 1070
8 1250 1133 1199 1330 1126 1019 1075 1196
8 1198 1077 1014 1122 1331 1200 1075 1196
8 1074 960 1077 1198 1197 1076 1201 1332
8 1085 980 1076 1197 1215 1099 1201 1332
8 1199 1079 1203 1333 1075 962 1080 1200
8 1132 1025 1119 1243 1199 1079 1203 1333
8 1201 1078 963 1077 1334 1202 1080 1200
8 1099 994 1078 1201 1227 1111 1202 1334
8 1343 1207 1081 1208 1210 1083 964 1082
8 1214 1084 1186 1319 1343 1207 1081 1208
8 1345 1210 1082 1209 1225 1100 981 1097
8 1346 1211 1083 1210 1228 1115 999 1100
8 1086 984 1099 1215 1216 1103 1227 1352
8 1087 985 1103 1216 1217 1104 1230 1353
8 1090 988 1104 1217 1219 1106 1231 1354
8 1218 1105 987 1089 1355 1232 1106 1219
8 1091 991 1105 1218 1220 1109 1232 1355
8 1092 992 1109 1220 1221 1110 1234 1356
8 1222 1108 1233 1357 1095 990 1107 1224
8 1222 1108 993 1093 1357 1233 1110 1221
8 1223 1101 989 1096 1358 1229 1107 1224
8 1226 1102 983 1098 1358 1229 1101 1223
8 1226 1102 1228 1359 1098 983 1100 1225
8 1103 995 1111 1227 1230 1112 1235 1360
8 1107 1002 1117 1233 1229 1116 1240 1362
8 1102 1001 1116 1229 1228 1115 1240 1362
8 1104 996 1112 1230 1231 1113 1236 1363
8 1364 1237 1114 1232 1231 1113 997 1106
8 1109 1005 1114 1232 1234 1118 1238 1365
8 1110 1004 1118 1234 1233 1117 1241 1366
8 1242 1374 1255 1138 1119 1243 1132 1025
8 1244 1127 1254 1376 1121 1015 1129 1245
8 1148 1031 1149 1275 1244 1127 1254 1376
8 1245 1129 1258 1377 1125 1016 1130 1248
8 1251 1134 1019 1126 1378 1257 1128 1246
8 1378 1257 1128 1246 1247 1131 1017 1123
8 1248 1130 1259 1379 1124 1018 1131 1247
8 1261 1381 1250 1133 1132 1249 1330 1199
8 1255 1380 1252 1135 1132 1249 1381 1261
8 1250 1133 1019 1126 1382 1262 1134 1251
8 1253 1136 1256 1385 1384 1263 1135 1252
8 1254 1137 1265 1387 1129 1022 1141 1258
8 1149 1032 1150 1276 1254 1137 1265 1387
8 1028 1135 1255 1138 1139 1256 1388 1266
8 1136 1029 1147 1264 1256 1139 1267 1389
8 1390 1268 1140 1257 1259 1142 1024 1131
8 1260 1143 1027 1134 1390 1268 1140 1257
8 1258 1141 1269 1391 1130 1023 1142 1259
8 1262 1145 1027 1134 1393 1271 1143 1260
8 1261 1144 1026 1133 1394 1272 1145 1262
8 1135 1028 1144 1261 1263 1146 1272 1394
8 1136 1029 1146 1263 1264 1147 1273 1395
8 1155 1041 1160 1282 1275 1149 1276 1405
8 1276 1150 1044 1160 1406 1277 1162 1286
8 1408 1283 1159 1279 1278 1156 1039 1151
8 1290 1165 1283 1408 1177 1053 1156 1278
8 1152 1040 1159 1279 1280 1158 1285 1409
8 1281 1157 1038 1153 1410 1284 1158 1280
8 1281 1157 1284 1410 1154 1042 1160 1282
8 1159 1046 1164 1283 1285 1163 1289 1412
8 1292 1167 1289 1412 1165 1048 1164 1283
8 1158 1045 1163 1285 1284 1161 1288 1413
8 1284 1161 1288 1413 1160 1044 1162 1286
8 1291 1166 1292 1418 1174 1051 1165 1290
8 1291 1166 1051 1174 1419 1293 1172 1305
8 1294 1169 1296 1421 1166 1049 1167 1292
8 1293 1168 1050 1172 1422 1295 1171 1303
8 1294 1169 1049 1166 1423 1297 1168 1293
8 1422 1295 1171 1303 1301 1170 1302 1435
8 1172 1050 1173 1306 1303 1171 1304 1438
8 1174 1051 1175 1308 1305 1172 1306 1440
8 1175 1052 1176 1309 1306 1173 1307 1441
8 1177 1053 1178 1311 1308 1175 1309 1443
8 1178 1054 1179 1312 1309 1176 1310 1444
8 1180 1055 1181 1314 1311 1178 1312 1446
8 1056 1181 1312 1179 1182 1315 1447 1313
8 1183 1058 1184 1316 1314 1181 1315 1448
8 1319 1186 1084 1214 1451 1317 1213 1350
8 1319 1186 1318 1453 1208 1081 1187 1321
8 1321 1187 1320 1456 1188 1063 1189 1323
8 1344 1208 1321 1457 1209 1082 1188 1322
8 1322 1188 1323 1458 1190 1064 1191 1325
8 1323 1189 1324 1459 1191 1065 1192 1326
8 1191 1325 1193 1067 1326 1460 1327 1194
8 1242 1374 1243 1119 1328 1462 1335 1204
8 1330 1199 1333 1465 1196 1075 1200 1331
8 1132 1249 1330 1199 1243 1375 1465 1333
8 1332 1201 1077 1198 1466 1334 1200 1331
8 1215 1099 1201 1332 1352 1227 1334 1466
8 1119 1243 1333 1203 1204 1335 1470 1338
8 1333 1203 1338 1470 1200 1080 1202 1334
8 1227 1111 1202 1334 1360 1235 1338 1470
8 1328 1462 1335 1204 1205 1336 1471 1339
8 1337 1206 1340 1472 1464 1329 1205 1336
8 1346 1211 1342 1479 1210 1083 1207 1343
8 1346 1211 1115 1228 1479 1342 1239 1361
8 1348 1212 1084 1214 1479 1342 1207 1343
8 1480 1343 1208 1344 1345 1210 1082 1209
8 1351 1214 1319 1454 1480 1343 1208 1344
8 1481 1346 1210 1345 1359 1228 1100 1225
8 1348 1212 1347 1483 1214 1084 1213 1350
8 1216 1103 1227 1352 1353 1230 1360 1488
8 1217 1104 1230 1353 1354 1231 1363 1489
8 1490 1364 1232 1355 1354 1231 1106 1219
8 1220 1109 1232 1355 1356 1234 1365 1491
8 1221 1110 1234 1356 1357 1233 1366 1492
8 1224 1107 1233 1357 1358 1229 1362 1493
8 1226 1102 1229 1358 1359 1228 1362 1493
8 1230 1112 1235 1360 1363 1236 1367 1496
8 1361 1239 1115 1228 1497 1371 1240 1362
8 1366 1241 1372 1498 1233 1117 1240 1362
8 1364 1237 1113 1231 1499 1368 1236 1363
8 1364 1237 1368 1499 1232 1114 1238 1365
8 1234 1118 1238 1365 1366 1241 1369 1500
8 1507 1373 1242 1374 1388 1266 1138 1255
8 1508 1374 1243 1375 1380 1255 1132 1249
8 1376 1254 1387 1509 1245 1129 1258 1377
8 1275 1149 1276 1405 1376 1254 1387 1509
8 1377 1258 1391 1510 1248 1130 1259 1379
8 1511 1390 1257 1378 1379 1259 1131 1247
8 1383 1260 1134 1251 1511 1390 1257 1378
8 1252 1135 1256 1385 1380 1255 1388 1512
8 1261 1381 1513 1394 1133 1250 1382 1262
8 1135 1252 1384 1263 1261 1381 1513 1394
8 1382 1262 1134 1251 1514 1393 1260 1383
8 1253 1136 1263 1384 1386 1264 1395 1516
8 1253 1136 1264 1386 1385 1256 1389 1517
8 1387 1265 1397 1519 1258 1141 1269 1391
8 1276 1150 1277 1406 1387 1265 1397 1519
8 1256 1139 1267 1389 1388 1266 1398 1520
8 1264 1147 1274 1396 1389 1267 1399 1521
8 1392 1270 1143 1260 1522 1400 1268 1390
8 1390 1268 1142 1259 1522 1400 1269 1391
8 1392 1270 1401 1523 1260 1143 1271 1393
8 1272 1394 1524 1402 1145 1262 1393 1271
8 1395 1273 1146 1263 1524 1402 1272 1394
8 1273 1395 1264 1147 1403 1526 1396 1274
8 1405 1276 1160 1282 1534 1406 1286 1411
8 1414 1287 1407 1535 1286 1162 1277 1406
8 1279 1159 1283 1408 1409 1285 1412 1537
8 1418 1292 1412 1537 1290 1165 1283 1408
8 1280 1158 1285 1409 1410 1284 1413 1538
8 1410 1284 1413 1538 1282 1160 1286 1411
8 1285 1163 1289 1412 1413 1288 1417 1540
8 1421 1296 1417 1540 1292 1167 1289 1412
8 1414 1287 1162 1286 1541 1416 1288 1413
8 1420 1294 1421 1545 1291 1166 1292 1418
8 1419 1293 1172 1305 1546 1422 1303 1437
8 1420 1294 1166 1291 1547 1423 1293 1419
8 1294 1169 1297 1423 1421 1296 1425 1548
8 1423 1297 1168 1293 1549 1424 1295 1422
8 1301 1170 1298 1427 1422 1295 1424 1549
8 1432 1300 1428 1554 1301 1170 1298 1427
8 1431 1299 1428 1554 1560 1430 1300 1432
8 1563 1433 1300 1432 1435 1302 1170 1301
8 1546 1422 1303 1437 1434 1301 1435 1565
8 1303 1171 1304 1438 1435 1302 1436 1566
8 1305 1172 1306 1440 1437 1303 1438 1568
8 1306 1173 1307 1441 1438 1304 1439 1569
8 1308 1175 1309 1443 1440 1306 1441 1571
8 1309 1176 1310 1444 1441 1307 1442 1572
8 1311 1178 1312 1446 1443 1309 1444 1574
8 1179 1312 1444 1310 1313 1447 1575 1445
8 1314 1181 1315 1448 1446 1312 1447 1576
8 1350 1213 1349 1486 1451 1317 1449 1579
8 1451 1317 1450 1581 1319 1186 1318 1453
8 1454 1319 1214 1351 1582 1451 1350 1487
8 1453 1318 1452 1584 1321 1187 1320 1456
8 1454 1319 1453 1585 1344 1208 1321 1457
8 1456 1320 1455 1586 1323 1189 1324 1459
8 1457 1321 1456 1587 1322 1188 1323 1458
8 1458 1323 1459 1588 1325 1191 1326 1460
8 1205 1336 1464 1329 1328 1462 1590 1461
8 1507 1373 1461 1590 1374 1242 1328 1462
8 1508 1374 1462 1591 1375 1243 1335 1467
8 1337 1206 1329 1464 1473 1341 1463 1594
8 1375 1243 1335 1467 1465 1333 1470 1596
8 1465 1333 1470 1596 1331 1200 1334 1466
8 1352 1227 1334 1466 1488 1360 1470 1596
8 1591 1462 1336 1468 1467 1335 1471 1597
8 1469 1337 1472 1598 1595 1464 1336 1468
8 1471 1339 1474 1600 1335 1204 1338 1470
8 1600 1474 1367 1496 1470 1338 1235 1360
8 1336 1205 1340 1472 1471 1339 1475 1601
8 1337 1206 1341 1473 1472 1340 1476 1602
8 1495 1370 1478 1609 1361 1239 1342 1479
8 1348 1212 1342 1479 1483 1347 1478 1609
8 1481 1346 1479 1610 1345 1210 1343 1480
8 1481 1346 1228 1359 1610 1479 1361 1494
8 1484 1348 1214 1351 1610 1479 1343 1480
8 1483 1347 1482 1612 1350 1213 1349 1486
8 1484 1348 1483 1613 1351 1214 1350 1487
8 1353 1230 1360 1488 1489 1363 1496 1616
8 1490 1364 1231 1354 1617 1499 1363 1489
8 1490 1364 1499 1617 1355 1232 1365 1491
8 1356 1234 1365 1491 1492 1366 1500 1619
8 1492 1366 1498 1620 1357 1233 1362 1493
8 1494 1361 1228 1359 1621 1497 1362 1493
8 1495 1370 1239 1361 1622 1504 1371 1497
8 1363 1236 1367 1496 1499 1368 1501 1623
8 1497 1371 1240 1362 1624 1505 1372 1498
8 1625 1503 1372 1498 1500 1369 1241 1366
8 1365 1238 1368 1499 1500 1369 1502 1626
8 1520 1398 1506 1633 1388 1266 1373 1507
8 1634 1507 1374 1508 1512 1388 1255 1380
8 1509 1387 1519 1635 1377 1258 1391 1510
8 1405 1276 1406 1534 1509 1387 1519 1635
8 1515 1392 1260 1383 1636 1522 1390 1511
8 1511 1390 1259 1379 1636 1522 1391 1510
8 1385 1256 1389 1517 1512 1388 1520 1637
8 1513 1394 1262 1382 1638 1524 1393 1514
8 1395 1516 1638 1524 1263 1384 1513 1394
8 1515 1392 1523 1639 1383 1260 1393 1514
8 1516 1395 1526 1640 1386 1264 1396 1518
8 1386 1264 1396 1518 1517 1389 1521 1641
8 1519 1397 1527 1643 1391 1269 1400 1522
8 1535 1407 1527 1643 1406 1277 1397 1519
8 1389 1267 1399 1521 1520 1398 1528 1644
8 1645 1529 1399 1521 1525 1404 1274 1396
8 1392 1270 1400 1522 1523 1401 1531 1646
8 1524 1402 1271 1393 1648 1532 1401 1523
8 1403 1526 1648 1532 1273 1395 1524 1402
8 1525 1404 1274 1396 1649 1533 1403 1526
8 1539 1414 1535 1657 1411 1286 1406 1534
8 1542 1415 1536 1658 1414 1287 1407 1535
8 1409 1285 1412 1537 1538 1413 1540 1660
8 1545 1421 1540 1660 1418 1292 1412 1537
8 1539 1414 1286 1411 1661 1541 1413 1538
8 1540 1417 1544 1663 1413 1288 1416 1541
8 1421 1296 1425 1548 1540 1417 1544 1663
8 1542 1415 1287 1414 1664 1543 1416 1541
8 1420 1294 1423 1547 1545 1421 1548 1666
8 1547 1423 1293 1419 1667 1549 1422 1546
8 1434 1301 1427 1553 1546 1422 1549 1667
8 1423 1297 1424 1549 1548 1425 1550 1668
8 1551 1426 1550 1668 1427 1298 1424 1549
8 1551 1426 1298 1427 1671 1552 1428 1554
8 1562 1432 1554 1674 1434 1301 1427 1553
8 1431 1299 1429 1558 1554 1428 1555 1675
8 1431 1299 1430 1560 1558 1429 1557 1680
8 1560 1430 1300 1432 1683 1559 1433 1563
8 1561 1431 1554 1674 1684 1560 1432 1562
8 1685 1563 1432 1562 1565 1435 1301 1434
8 1435 1302 1436 1566 1563 1433 1564 1686
8 1437 1303 1438 1568 1565 1435 1566 1688
8 1438 1304 1439 1569 1566 1436 1567 1689
8 1440 1306 1441 1571 1568 1438 1569 1691
8 1441 1307 1442 1572 1569 1439 1570 1692
8 1443 1309 1444 1574 1571 1441 1572 1694
8 1310 1444 1572 1442 1445 1575 1695 1573
8 1446 1312 1447 1576 1574 1444 1575 1696
8 1486 1349 1485 1614 1579 1449 1577 1699
8 1451 1317 1449 1579 1581 1450 1578 1701
8 1487 1350 1486 1615 1582 1451 1579 1702
8 1581 1450 1580 1704 1453 1318 1452 1584
8 1582 1451 1581 1705 1454 1319 1453 1585
8 1584 1452 1583 1706 1456 1320 1455 1586
8 1585 1453 1584 1707 1457 1321 1456 1587
8 1587 1456 1586 1708 1458 1323 1459 1588
8 1633 1506 1589 1710 1507 1373 1461 1590
8 1464 1329 1461 1590 1594 1463 1589 1710
8 1468 1336 1462 1591 1595 1464 1590 1711
8 1634 1507 1590 1711 1508 1374 1462 1591
8 1473 1341 1463 1594 1603 1477 1593 1716
8 1469 1337 1464 1595 1599 1473 1594 1717
8 1471 1597 1467 1335 1600 1718 1596 1470
8 1718 1600 1496 1616 1596 1470 1360 1488
8 1336 1468 1597 1471 1472 1598 1719 1601
8 1469 1337 1473 1599 1598 1472 1602 1720
8 1722 1604 1501 1623 1600 1474 1367 1496
8 1475 1601 1471 1339 1604 1722 1600 1474
8 1602 1476 1605 1723 1472 1340 1475 1601
8 1476 1602 1724 1606 1341 1473 1603 1477
8 1483 1347 1478 1609 1612 1482 1608 1731
8 1495 1370 1504 1622 1609 1478 1608 1731
8 1618 1495 1609 1732 1494 1361 1479 1610
8 1484 1348 1479 1610 1613 1483 1609 1732
8 1486 1349 1482 1612 1614 1485 1611 1733
8 1613 1483 1612 1734 1487 1350 1486 1615
8 1489 1363 1496 1616 1617 1499 1623 1736
8 1491 1365 1499 1617 1619 1500 1626 1737
8 1618 1495 1361 1494 1738 1622 1497 1621
8 1739 1625 1498 1620 1619 1500 1366 1492
8 1621 1497 1362 1493 1740 1624 1498 1620
8 1742 1631 1504 1622 1624 1505 1371 1497
8 1743 1628 1502 1626 1623 1501 1368 1499
8 1744 1630 1505 1624 1625 1503 1372 1498
8 1745 1629 1503 1625 1626 1502 1369 1500
8 1520 1398 1528 1644 1633 1506 1632 1751
8 1637 1520 1633 1752 1512 1388 1507 1634
8 1635 1519 1643 1753 1510 1391 1522 1636
8 1657 1535 1643 1753 1534 1406 1519 1635
8 1515 1392 1522 1636 1639 1523 1646 1754
8 1517 1389 1521 1641 1637 1520 1644 1755
8 1524 1638 1756 1648 1393 1514 1639 1523
8 1640 1526 1395 1516 1756 1648 1524 1638
8 1642 1525 1396 1518 1757 1649 1526 1640
8 1758 1645 1521 1641 1642 1525 1396 1518
8 1646 1531 1400 1522 1760 1650 1527 1643
8 1535 1407 1536 1658 1643 1527 1650 1760
8 1521 1399 1529 1645 1644 1528 1651 1761
8 1647 1530 1652 1762 1525 1404 1529 1645
8 1401 1523 1648 1532 1531 1646 1763 1655
8 1525 1404 1533 1649 1647 1530 1654 1765
8 1533 1649 1766 1656 1403 1526 1648 1532
8 1662 1542 1658 1774 1539 1414 1535 1657
8 1542 1415 1543 1664 1658 1536 1659 1775
8 1660 1540 1663 1777 1538 1413 1541 1661
8 1545 1421 1548 1666 1660 1540 1663 1777
8 1662 1542 1414 1539 1778 1664 1541 1661
8 1664 1543 1416 1541 1779 1665 1544 1663
8 1548 1425 1550 1668 1663 1544 1665 1779
8 1547 1423 1549 1667 1666 1548 1668 1781
8 1670 1551 1668 1781 1553 1427 1549 1667
8 1551 1426 1552 1671 1668 1550 1669 1782
8 1670 1551 1427 1553 1784 1671 1554 1674
8 1675 1555 1672 1785 1554 1428 1552 1671
8 1678 1556 1673 1789 1558 1429 1555 1675
8 1561 1431 1558 1681 1674 1554 1675 1790
8 1794 1677 1556 1678 1680 1557 1429 1558
8 1560 1430 1559 1683 1680 1557 1679 1797
8 1561 1431 1560 1684 1681 1558 1680 1798
8 1563 1433 1564 1686 1683 1559 1682 1800
8 1684 1560 1432 1562 1801 1683 1563 1685
8 1565 1435 1566 1688 1685 1563 1686 1802
8 1566 1436 1567 1689 1686 1564 1687 1803
8 1568 1438 1569 1691 1688 1566 1689 1805
8 1569 1439 1570 1692 1689 1567 1690 1806
8 1571 1441 1572 1694 1691 1569 1692 1808
8 1442 1572 1692 1570 1573 1695 1809 1693
8 1574 1444 1575 1696 1694 1572 1695 1810
8 1614 1485 1592 1712 1699 1577 1697 1813
8 1579 1449 1577 1699 1701 1578 1698 1815
8 1615 1486 1614 1735 1702 1579 1699 1816
8 1701 1578 1700 1818 1581 1450 1580 1704
8 1582 1451 1579 1702 1705 1581 1701 1819
8 1704 1580 1703 1820 1584 1452 1583 1706
8 1705 1581 1704 1821 1585 1453 1584 1707
8 1707 1584 1706 1822 1587 1456 1586 1708
8 1710 1589 1506 1633 1824 1709 1632 1751
8 1594 1463 1589 1710 1716 1593 1709 1824
8 1752 1633 1710 1825 1634 1507 1590 1711
8 1595 1464 1590 1711 1717 1594 1710 1825
8 1830 1714 1592 1712 1733 1611 1485 1614
8 1603 1477 1593 1716 1725 1607 1715 1834
8 1599 1473 1594 1717 1721 1603 1716 1835
8 1837 1722 1623 1736 1718 1600 1496 1616
8 1719 1601 1722 1837 1597 1471 1600 1718
8 1602 1720 1598 1472 1723 1838 1719 1601
8 1720 1602 1473 1599 1839 1724 1603 1721
8 1723 1605 1726 1840 1601 1475 1604 1722
8 1840 1726 1628 1743 1722 1604 1501 1623
8 1724 1606 1727 1841 1602 1476 1605 1723
8 1725 1607 1728 1842 1603 1477 1606 1724
8 1612 1482 1608 1731 1733 1611 1730 1849
8 1741 1627 1730 1849 1622 1504 1608 1731
8 1613 1483 1609 1732 1734 1612 1731 1850
8 1618 1495 1622 1738 1732 1609 1731 1850
8 1615 1486 1612 1734 1735 1614 1733 1851
8 1852 1743 1626 1737 1736 1623 1499 1617
8 1853 1745 1625 1739 1737 1626 1500 1619
8 1855 1742 1622 1738 1740 1624 1497 1621
8 1856 1744 1624 1740 1739 1625 1498 1620
8 1741 1627 1504 1622 1857 1746 1631 1742
8 1742 1631 1505 1624 1858 1749 1630 1744
8 1859 1747 1629 1745 1743 1628 1502 1626
8 1860 1748 1630 1744 1745 1629 1503 1625
8 1644 1528 1651 1761 1751 1632 1750 1865
8 1637 1520 1644 1755 1752 1633 1751 1866
8 1754 1646 1522 1636 1867 1760 1643 1753
8 1657 1535 1658 1774 1753 1643 1760 1867
8 1639 1523 1646 1754 1756 1648 1763 1868
8 1641 1521 1645 1758 1755 1644 1761 1869
8 1757 1649 1526 1640 1870 1766 1648 1756
8 1642 1525 1649 1757 1759 1647 1765 1871
8 1759 1647 1762 1872 1642 1525 1645 1758
8 1760 1650 1767 1874 1646 1531 1655 1763
8 1658 1536 1659 1775 1760 1650 1767 1874
8 1762 1652 1768 1875 1645 1529 1651 1761
8 1764 1653 1769 1876 1647 1530 1652 1762
8 1656 1766 1877 1773 1532 1648 1763 1655
8 1771 1879 1765 1654 1653 1764 1647 1530
8 1533 1649 1765 1654 1656 1766 1880 1772
8 1662 1542 1664 1778 1774 1658 1775 1887
8 1664 1543 1665 1779 1775 1659 1776 1888
8 1778 1664 1541 1661 1890 1779 1663 1777
8 1666 1548 1668 1781 1777 1663 1779 1890
8 1782 1669 1780 1891 1668 1550 1665 1779
8 1670 1551 1671 1784 1781 1668 1782 1893
8 1671 1552 1672 1785 1782 1669 1783 1894
8 1790 1675 1785 1896 1674 1554 1671 1784
8 1675 1555 1673 1789 1785 1672 1786 1897
8 1792 1676 1788 1903 1678 1556 1673 1789
8 1795 1678 1789 1904 1681 1558 1675 1790
8 1792 1676 1556 1678 1906 1791 1677 1794
8 1680 1557 1679 1797 1794 1677 1793 1909
8 1910 1794 1678 1795 1798 1680 1558 1681
8 1683 1559 1682 1800 1797 1679 1796 1912
8 1684 1560 1683 1801 1798 1680 1797 1913
8 1686 1564 1687 1803 1800 1682 1799 1915
8 1685 1563 1686 1802 1801 1683 1800 1916
8 1688 1566 1689 1805 1802 1686 1803 1917
8 1689 1567 1690 1806 1803 1687 1804 1918
8 1691 1569 1692 1808 1805 1689 1806 1920
8 1692 1570 1693 1809 1806 1690 1807 1921
8 1694 1572 1695 1810 1808 1692 1809 1922
8 1829 1713 1811 1926 1712 1592 1697 1813
8 1813 1697 1812 1928 1699 1577 1698 1815
8 1735 1614 1712 1828 1816 1699 1813 1929
8 1815 1698 1814 1931 1701 1578 1700 1818
8 1702 1579 1699 1816 1819 1701 1815 1932
8 1818 1700 1817 1933 1704 1580 1703 1820
8 1819 1701 1818 1934 1705 1581 1704 1821
8 1821 1704 1820 1935 1707 1584 1706 1822
8 1824 1709 1632 1751 1937 1823 1750 1865
8 1716 1593 1709 1824 1834 1715 1823 1937
8 1825 1710 1633 1752 1938 1824 1751 1866
8 1717 1594 1710 1825 1835 1716 1824 1938
8 1945 1830 1712 1828 1851 1733 1614 1735
8 1830 1714 1831 1946 1712 1592 1713 1829
8 1947 1832 1714 1830 1849 1730 1611 1733
8 1843 1729 1607 1725 1950 1833 1715 1834
8 1721 1603 1716 1835 1836 1725 1834 1951
8 1836 1725 1842 1953 1721 1603 1724 1839
8 1723 1838 1719 1601 1840 1954 1837 1722
8 1954 1840 1743 1852 1837 1722 1623 1736
8 1724 1839 1720 1602 1841 1955 1838 1723
8 1841 1727 1844 1956 1723 1605 1726 1840
8 1956 1844 1747 1859 1840 1726 1628 1743
8 1728 1842 1724 1606 1845 1957 1841 1727
8 1725 1607 1729 1843 1842 1728 1846 1958
8 1741 1627 1746 1857 1849 1730 1848 1965
8 1734 1612 1731 1850 1851 1733 1849 1966
8 1854 1741 1849 1966 1738 1622 1731 1850
8 1967 1859 1745 1853 1852 1743 1626 1737
8 1968 1860 1744 1856 1853 1745 1625 1739
8 1854 1741 1622 1738 1969 1857 1742 1855
8 1855 1742 1624 1740 1970 1858 1744 1856
8 1857 1746 1631 1742 1971 1861 1749 1858
8 1858 1749 1630 1744 1972 1863 1748 1860
8 1859 1747 1862 1973 1745 1629 1748 1860
8 1875 1768 1864 1977 1761 1651 1750 1865
8 1755 1644 1761 1869 1866 1751 1865 1978
8 1867 1760 1874 1979 1754 1646 1763 1868
8 1774 1658 1775 1887 1867 1760 1874 1979
8 1870 1766 1648 1756 1980 1877 1763 1868
8 1872 1762 1875 1981 1758 1645 1761 1869
8 1757 1649 1766 1870 1871 1765 1880 1982
8 1983 1879 1764 1873 1871 1765 1647 1759
8 1873 1764 1876 1984 1759 1647 1762 1872
8 1877 1773 1655 1763 1986 1881 1767 1874
8 1775 1659 1776 1888 1874 1767 1881 1986
8 1876 1769 1882 1987 1762 1652 1768 1875
8 1878 1770 1883 1988 1764 1653 1769 1876
8 1880 1772 1656 1766 1989 1886 1773 1877
8 1878 1770 1653 1764 1990 1884 1771 1879
8 1765 1654 1772 1880 1879 1771 1885 1991
8 1778 1664 1779 1890 1887 1775 1888 1997
8 1998 1889 1776 1888 1891 1780 1665 1779
8 1893 1782 1891 2000 1781 1668 1779 1890
8 1894 1783 1892 2001 1782 1669 1780 1891
8 1784 1671 1785 1896 1893 1782 1894 2003
8 1897 1786 1895 2004 1785 1672 1783 1894
8 1790 1675 1789 1904 1896 1785 1897 2006
8 1901 1787 1898 2007 1789 1673 1786 1897
8 1903 1788 1900 2013 1789 1673 1787 1901
8 1792 1676 1791 1906 1903 1788 1902 2016
8 1907 1792 1903 2017 1795 1678 1789 1904
8 1906 1791 1677 1794 2019 1905 1793 1909
8 1907 1792 1678 1795 2020 1906 1794 1910
8 1797 1679 1796 1912 1909 1793 1908 2022
8 1798 1680 1797 1913 1910 1794 1909 2023
8 1800 1682 1799 1915 1912 1796 1911 2025
8 1801 1683 1800 1916 1913 1797 1912 2026
8 1803 1687 1804 1918 1915 1799 1914 2028
8 1802 1686 1803 1917 1916 1800 1915 2029
8 1805 1689 1806 1920 1917 1803 1918 2030
8 1806 1690 1807 1921 1918 1804 1919 2031
8 1808 1692 1809 1922 1920 1806 1921 2032
8 1939 1826 1924 2037 1829 1713 1811 1926
8 1926 1811 1925 2039 1813 1697 1812 1928
8 1944 1829 1926 2040 1828 1712 1813 1929
8 1928 1812 1927 2042 1815 1698 1814 1931
8 1929 1813 1928 2043 1816 1699 1815 1932
8 1931 1814 1930 2044 1818 1700 1817 1933
8 1932 1815 1931 2045 1819 1701 1818 1934
8 1934 1818 1933 2046 1821 1704 1820 1935
8 2048 1936 1823 1937 1977 1864 1750 1865
8 1950 1833 1715 1834 2048 1936 1823 1937
8 1938 1824 1751 1866 2049 1937 1865 1978
8 1835 1716 1824 1938 1951 1834 1937 2049
8 1939 1826 1713 1829 2053 1942 1831 1946
8 1940 1827 1923 2035 2053 1942 1826 1939
8 1945 1830 1946 2058 1828 1712 1829 1944
8 2059 1947 1830 1945 1966 1849 1733 1851
8 1947 1832 1730 1849 2060 1948 1848 1965
8 1947 1832 1948 2060 1830 1714 1831 1946
8 1959 1847 1729 1843 2063 1949 1833 1950
8 1952 1843 1725 1836 2064 1950 1834 1951
8 1836 1725 1843 1952 1953 1842 1958 2066
8 1953 1842 1957 2067 1839 1724 1841 1955
8 1841 1955 1838 1723 1956 2068 1954 1840
8 2068 1956 1859 1967 1954 1840 1743 1852
8 1956 1844 1960 2069 1859 1747 1862 1973
8 1845 1957 1841 1727 1960 2069 1956 1844
8 1728 1842 1957 1845 1846 1958 2071 1961
8 1962 2072 1959 1847 1846 1958 1843 1729
8 1971 1861 1964 2077 1857 1746 1848 1965
8 1854 1741 1857 1969 1966 1849 1965 2078
8 1967 1859 1973 2079 1853 1745 1860 1968
8 1970 1858 1744 1856 2080 1972 1860 1968
8 1969 1857 1742 1855 2081 1971 1858 1970
8 1971 1861 1749 1858 2082 1974 1863 1972
8 1973 1862 1975 2083 1860 1748 1863 1972
8 1987 1882 1976 2086 1875 1768 1864 1977
8 1981 1875 1977 2087 1869 1761 1865 1978
8 1980 1877 1763 1868 2088 1986 1874 1979
8 1887 1775 1888 1997 1979 1874 1986 2088
8 1880 1982 2089 1989 1766 1870 1980 1877
8 1984 1876 1987 2090 1872 1762 1875 1981
8 1765 1871 1983 1879 1880 1982 2091 1991
8 1985 1878 1764 1873 2092 1990 1879 1983
8 1985 1878 1988 2093 1873 1764 1876 1984
8 2094 1992 1881 1986 1998 1889 1776 1888
8 1986 1881 1992 2094 1877 1773 1886 1989
8 1988 1883 1993 2095 1876 1769 1882 1987
8 1878 1770 1884 1990 1988 1883 1994 2096
8 1991 1885 1772 1880 2097 1996 1886 1989
8 1879 1771 1885 1991 1990 1884 1995 2098
8 2103 1998 1888 1997 2000 1891 1779 1890
8 2104 1999 1889 1998 2001 1892 1780 1891
8 2003 1894 2001 2106 1893 1782 1891 2000
8 2004 1895 2002 2107 1894 1783 1892 2001
8 2006 1897 2004 2109 1896 1785 1894 2003
8 2007 1898 2005 2110 1897 1786 1895 2004
8 2014 1901 2007 2112 1904 1789 1897 2006
8 2011 1899 2008 2113 1901 1787 1898 2007
8 2119 2010 1899 2011 2013 1900 1787 1901
8 2016 1902 2012 2122 1903 1788 1900 2013
8 2017 1903 2013 2123 1904 1789 1901 2014
8 1906 1791 1905 2019 2016 1902 2015 2125
8 1907 1792 1906 2020 2017 1903 2016 2126
8 1909 1793 1908 2022 2019 1905 2018 2128
8 2020 1906 1794 1910 2129 2019 1909 2023
8 1912 1796 1911 2025 2022 1908 2021 2131
8 1913 1797 1912 2026 2023 1909 2022 2132
8 1915 1799 1914 2028 2025 1911 2024 2134
8 1916 1800 1915 2029 2026 1912 2025 2135
8 1918 1804 1919 2031 2028 1914 2027 2136
8 1917 1803 1918 2030 2029 1915 2028 2137
8 1920 1806 1921 2032 2030 1918 2031 2138
8 1940 1827 1941 2054 2035 1923 2033 2140
8 2035 1923 2034 2143 1939 1826 1924 2037
8 2037 1924 2036 2146 1926 1811 1925 2039
8 2051 1939 2037 2147 1944 1829 1926 2040
8 2039 1925 2038 2149 1928 1812 1927 2042
8 2040 1926 2039 2150 1929 1813 1928 2043
8 2042 1927 2041 2151 1931 1814 1930 2044
8 2043 1928 2042 2152 1932 1815 1931 2045
8 2045 1931 2044 2153 1934 1818 1933 2046
8 2155 2047 1936 2048 2086 1976 1864 1977
8 2063 1949 1833 1950 2155 2047 1936 2048
8 2156 2048 1937 2049 2087 1977 1865 1978
8 2064 1950 1834 1951 2156 2048 1937 2049
8 2051 1939 1829 1944 2160 2053 1946 2058
8 2052 1940 2035 2144 2160 2053 1939 2051
8 2053 1942 1831 1946 2163 2057 1948 2060
8 2055 1943 1827 1940 2163 2057 1942 2053
8 2055 1943 2056 2164 1940 1827 1941 2054
8 2059 1947 1849 1966 2167 2060 1965 2078
8 2059 1947 2060 2167 1945 1830 1946 2058
8 2077 1964 2061 2168 1965 1848 1948 2060
8 2070 1963 1847 1959 2170 2062 1949 2063
8 2065 1959 1843 1952 2171 2063 1950 2064
8 2173 2072 1958 2066 2065 1959 1843 1952
8 1953 1842 1958 2066 2067 1957 2071 2174
8 2068 1956 2069 2175 1967 1859 1973 2079
8 2067 1957 2069 2175 1955 1841 1956 2068
8 1845 1957 2069 1960 1961 2071 2176 2073
8 2069 1960 2073 2176 1973 1862 1975 2083
8 2070 1963 2075 2177 1959 1847 1962 2072
8 1846 1958 2071 1961 1962 2072 2178 2074
8 2077 1964 1861 1971 2182 2076 1974 2082
8 2081 1971 2077 2183 1969 1857 1965 2078
8 2079 1973 2083 2184 1968 1860 1972 2080
8 2081 1971 1858 1970 2185 2082 1972 2080
8 2083 1975 2084 2186 1972 1863 1974 2082
8 2086 1976 1882 1987 2189 2085 1993 2095
8 2090 1987 2086 2190 1981 1875 1977 2087
8 2191 2094 1986 2088 2103 1998 1888 1997
8 2088 1986 2094 2191 1980 1877 1989 2089
8 1991 2091 2192 2097 1880 1982 2089 1989
8 2093 1988 2095 2193 1984 1876 1987 2090
8 1879 1983 2092 1990 1991 2091 2194 2098
8 1985 1878 1990 2092 2093 1988 2096 2195
8 2097 1996 1886 1989 2196 2099 1992 2094
8 2196 2099 1992 2094 2104 1999 1889 1998
8 1994 2096 1988 1883 2100 2197 2095 1993
8 2096 1994 1884 1990 2198 2101 1995 2098
8 1995 2098 2199 2102 1885 1991 2097 1996
8 2203 2104 1998 2103 2106 2001 1891 2000
8 2107 2002 2105 2204 2001 1892 1999 2104
8 2109 2004 2107 2206 2003 1894 2001 2106
8 2110 2005 2108 2207 2004 1895 2002 2107
8 2112 2007 2110 2209 2006 1897 2004 2109
8 2113 2008 2111 2210 2007 1898 2005 2110
8 2120 2011 2113 2212 2014 1901 2007 2112
8 2117 2009 2114 2213 2011 1899 2008 2113
8 2219 2116 2009 2117 2119 2010 1899 2011
8 2222 2118 2010 2119 2122 2012 1900 2013
8 2223 2119 2011 2120 2123 2013 1901 2014
8 2016 1902 2015 2125 2122 2012 2121 2225
8 2126 2016 2122 2226 2017 1903 2013 2123
8 2019 1905 2018 2128 2125 2015 2124 2228
8 2020 1906 2019 2129 2126 2016 2125 2229
8 2022 1908 2021 2131 2128 2018 2127 2231
8 2023 1909 2022 2132 2129 2019 2128 2232
8 2025 1911 2024 2134 2131 2021 2130 2234
8 2026 1912 2025 2135 2132 2022 2131 2235
8 1914 2028 2134 2024 2027 2136 2236 2133
8 2029 1915 2028 2137 2135 2025 2134 2237
8 2030 1918 2031 2138 2137 2028 2136 2238
8 2157 2050 2139 2240 2054 1941 2033 2140
8 2052 1940 2054 2161 2144 2035 2140 2242
8 2140 2033 2141 2243 2035 1923 2034 2143
8 2143 2034 2142 2246 2037 1924 2036 2146
8 2144 2035 2143 2247 2051 1939 2037 2147
8 2146 2036 2145 2249 2039 1925 2038 2149
8 2147 2037 2146 2250 2040 1926 2039 2150
8 2149 2038 2148 2251 2042 1927 2041 2151
8 2150 2039 2149 2252 2043 1928 2042 2152
8 2152 2042 2151 2253 2045 1931 2044 2153
8 2255 2154 2047 2155 2189 2085 1976 2086
8 2170 2062 1949 2063 2255 2154 2047 2155
8 2256 2155 2048 2156 2190 2086 1977 2087
8 2171 2063 1950 2064 2256 2155 2048 2156
8 2258 2159 2050 2157 2164 2056 1941 2054
8 2160 2053 1946 2058 2262 2163 2060 2167
8 2162 2055 1940 2052 2262 2163 2053 2160
8 2162 2055 2164 2263 2052 1940 2054 2161
8 2163 2057 1948 2060 2264 2165 2061 2168
8 2055 1943 2057 2163 2164 2056 2165 2264
8 2182 2076 2166 2268 2077 1964 2061 2168
8 2183 2077 2168 2269 2078 1965 2060 2167
8 2070 1963 2062 2170 2177 2075 2169 2271
8 2172 2070 1959 2065 2272 2170 2063 2171
8 2172 2070 2177 2273 2065 1959 2072 2173
8 2066 1958 2072 2173 2174 2071 2178 2274
8 2067 1957 2071 2174 2175 2069 2176 2275
8 2175 2069 2176 2275 2079 1973 2083 2184
8 2071 1961 2074 2178 2176 2073 2179 2276
8 2176 2073 2179 2276 2083 1975 2084 2186
8 2072 1962 2075 2177 2178 2074 2180 2277
8 2182 2076 1974 2082 2280 2181 2084 2186
8 2183 2077 1971 2081 2281 2182 2082 2185
8 2184 2083 2186 2282 2080 1972 2082 2185
8 2189 2085 1993 2095 2285 2188 2100 2197
8 2190 2086 1987 2090 2286 2189 2095 2193
8 2192 2097 1989 2089 2287 2196 2094 2191
8 2287 2196 2094 2191 2203 2104 1998 2103
8 2194 2098 1991 2091 2288 2199 2097 2192
8 2195 2096 2197 2289 2093 1988 2095 2193
8 2096 2195 2290 2198 1990 2092 2194 2098
8 2097 1996 2099 2196 2199 2102 2200 2291
8 2196 2099 1999 2104 2291 2200 2105 2204
8 2100 2197 2292 2201 1994 2096 2198 2101
8 1995 2098 2198 2101 2102 2199 2293 2202
8 2206 2107 2204 2296 2106 2001 2104 2203
8 2207 2108 2205 2297 2107 2002 2105 2204
8 2209 2110 2207 2299 2109 2004 2107 2206
8 2210 2111 2208 2300 2110 2005 2108 2207
8 2212 2113 2210 2302 2112 2007 2110 2209
8 2213 2114 2211 2303 2113 2008 2111 2210
8 2220 2117 2213 2305 2120 2011 2113 2212
8 2216 2115 2214 2306 2117 2009 2114 2213
8 2216 2115 2009 2117 2311 2217 2116 2219
8 2219 2116 2010 2119 2314 2218 2118 2222
8 2315 2219 2117 2220 2223 2119 2011 2120
8 2122 2012 2121 2225 2222 2118 2221 2317
8 2318 2222 2119 2223 2226 2122 2013 2123
8 2125 2015 2124 2228 2225 2121 2224 2320
8 2126 2016 2125 2229 2226 2122 2225 2321
8 2128 2018 2127 2231 2228 2124 2227 2323
8 2129 2019 2128 2232 2229 2125 2228 2324
8 2131 2021 2130 2234 2231 2127 2230 2326
8 2132 2022 2131 2235 2232 2128 2231 2327
8 2134 2024 2133 2236 2234 2130 2233 2328
8 2135 2025 2134 2237 2235 2131 2234 2329
8 2137 2028 2136 2238 2237 2134 2236 2330
8 2157 2050 2158 2259 2240 2139 2239 2332
8 2257 2157 2240 2334 2161 2054 2140 2242
8 2240 2139 2241 2335 2140 2033 2141 2243
8 2242 2140 2243 2337 2144 2035 2143 2247
8 2243 2141 2244 2338 2143 2034 2142 2246
8 2246 2142 2245 2341 2146 2036 2145 2249
8 2247 2143 2246 2342 2147 2037 2146 2250
8 2249 2145 2248 2343 2149 2038 2148 2251
8 2250 2146 2249 2344 2150 2039 2149 2252
8 2252 2149 2251 2345 2152 2042 2151 2253
8 2169 2271 2347 2254 2062 2170 2255 2154
8 2189 2085 2188 2285 2255 2154 2254 2347
8 2348 2255 2155 2256 2286 2189 2086 2190
8 2272 2170 2063 2171 2348 2255 2155 2256
8 2349 2258 2157 2257 2263 2164 2054 2161
8 2258 2159 2261 2351 2157 2050 2158 2259
8 2258 2159 2056 2164 2351 2261 2165 2264
8 2262 2163 2060 2167 2355 2264 2168 2269
8 2162 2055 2163 2262 2263 2164 2264 2355
8 2357 2266 2165 2264 2268 2166 2061 2168
8 2268 2166 2076 2182 2361 2267 2181 2280
8 2281 2182 2268 2362 2183 2077 2168 2269
8 2271 2169 2270 2364 2177 2075 2180 2277
8 2172 2070 2170 2272 2273 2177 2271 2365
8 2072 2173 2274 2178 2177 2273 2366 2277
8 2071 2174 2275 2176 2178 2274 2367 2276
8 2275 2176 2276 2367 2184 2083 2186 2282
8 2283 2187 2084 2186 2368 2278 2179 2276
8 2178 2074 2180 2277 2276 2179 2278 2368
8 2283 2187 2279 2370 2186 2084 2181 2280
8 2281 2182 2082 2185 2371 2280 2186 2282
8 2188 2285 2374 2284 2100 2197 2292 2201
8 2286 2189 2095 2193 2375 2285 2197 2289
8 2192 2097 2196 2287 2288 2199 2291 2376
8 2287 2196 2104 2203 2376 2291 2204 2296
8 2194 2098 2199 2288 2290 2198 2293 2377
8 2289 2197 2096 2195 2378 2292 2198 2290
8 2291 2200 2105 2204 2379 2294 2205 2297
8 2199 2102 2200 2291 2293 2202 2294 2379
8 2198 2101 2202 2293 2292 2201 2295 2380
8 2299 2207 2297 2383 2206 2107 2204 2296
8 2300 2208 2298 2384 2207 2108 2205 2297
8 2302 2210 2300 2386 2209 2110 2207 2299
8 2303 2211 2301 2387 2210 2111 2208 2300
8 2305 2213 2303 2389 2212 2113 2210 2302
8 2306 2214 2304 2390 2213 2114 2211 2303
8 2310 2216 2306 2392 2220 2117 2213 2305
8 2308 2215 2307 2393 2216 2115 2214 2306
8 2308 2215 2115 2216 2396 2309 2217 2311
8 2310 2216 2117 2220 2398 2311 2219 2315
8 2311 2217 2116 2219 2399 2312 2218 2314
8 2314 2218 2118 2222 2402 2313 2221 2317
8 2315 2219 2119 2223 2403 2314 2222 2318
8 2225 2121 2224 2320 2317 2221 2316 2405
8 2226 2122 2225 2321 2318 2222 2317 2406
8 2228 2124 2227 2323 2320 2224 2319 2408
8 2229 2125 2228 2324 2321 2225 2320 2409
8 2231 2127 2230 2326 2323 2227 2322 2411
8 2232 2128 2231 2327 2324 2228 2323 2412
8 2234 2130 2233 2328 2326 2230 2325 2413
8 2235 2131 2234 2329 2327 2231 2326 2414
8 2237 2134 2236 2330 2329 2234 2328 2415
8 2259 2158 2260 2352 2332 2239 2331 2417
8 2257 2157 2259 2350 2334 2240 2332 2419
8 2240 2139 2239 2332 2335 2241 2333 2420
8 2334 2240 2335 2422 2242 2140 2243 2337
8 2335 2241 2336 2423 2243 2141 2244 2338
8 2337 2243 2338 2425 2247 2143 2246 2342
8 2338 2244 2339 2426 2246 2142 2245 2341
8 2341 2245 2340 2428 2249 2145 2248 2343
8 2342 2246 2341 2429 2250 2146 2249 2344
8 2344 2249 2343 2430 2252 2149 2251 2345
8 2188 2285 2347 2254 2284 2374 2432 2346
8 2347 2254 2346 2432 2271 2169 2270 2364
8 2365 2271 2170 2272 2433 2347 2255 2348
8 2286 2189 2285 2375 2348 2255 2347 2433
8 2349 2258 2351 2435 2257 2157 2259 2350
8 2349 2258 2164 2263 2435 2351 2264 2355
8 2259 2158 2261 2351 2352 2260 2354 2437
8 2356 2265 2354 2437 2264 2165 2261 2351
8 2441 2357 2264 2355 2362 2268 2168 2269
8 2356 2265 2165 2264 2442 2358 2266 2357
8 2443 2359 2266 2357 2361 2267 2166 2268
8 2370 2279 2360 2446 2280 2181 2267 2361
8 2362 2268 2182 2281 2447 2361 2280 2371
8 2180 2277 2368 2278 2270 2364 2449 2363
8 2271 2365 2273 2177 2364 2450 2366 2277
8 2372 2283 2186 2282 2451 2368 2276 2367
8 2178 2274 2367 2276 2277 2366 2451 2368
8 2283 2187 2278 2368 2370 2279 2369 2452
8 2372 2283 2370 2453 2282 2186 2280 2371
8 2284 2374 2455 2373 2201 2292 2380 2295
8 2375 2285 2197 2289 2456 2374 2292 2378
8 2376 2291 2204 2296 2457 2379 2297 2383
8 2288 2199 2291 2376 2377 2293 2379 2457
8 2198 2290 2378 2292 2293 2377 2458 2380
8 2293 2202 2294 2379 2380 2295 2381 2459
8 2384 2298 2381 2459 2297 2205 2294 2379
8 2386 2300 2384 2463 2299 2207 2297 2383
8 2387 2301 2385 2464 2300 2208 2298 2384
8 2389 2303 2387 2466 2302 2210 2300 2386
8 2390 2304 2388 2467 2303 2211 2301 2387
8 2392 2306 2390 2469 2305 2213 2303 2389
8 2393 2307 2391 2470 2306 2214 2304 2390
8 2395 2308 2393 2472 2310 2216 2306 2392
8 2308 2215 2309 2396 2393 2307 2394 2473
8 2395 2308 2216 2310 2475 2396 2311 2398
8 2396 2309 2217 2311 2476 2397 2312 2399
8 2398 2311 2219 2315 2478 2399 2314 2403
8 2399 2312 2218 2314 2479 2400 2313 2402
8 2317 2221 2316 2405 2402 2313 2401 2482
8 2403 2314 2222 2318 2483 2402 2317 2406
8 2320 2224 2319 2408 2405 2316 2404 2485
8 2321 2225 2320 2409 2406 2317 2405 2486
8 2323 2227 2322 2411 2408 2319 2407 2488
8 2324 2228 2323 2412 2409 2320 2408 2489
8 2326 2230 2325 2413 2411 2322 2410 2490
8 2327 2231 2326 2414 2412 2323 2411 2491
8 2329 2234 2328 2415 2414 2326 2413 2492
8 2417 2331 2260 2352 2494 2416 2353 2438
8 2350 2259 2352 2436 2419 2332 2417 2496
8 2332 2239 2331 2417 2420 2333 2418 2497
8 2334 2240 2332 2419 2422 2335 2420 2499
8 2420 2333 2421 2500 2335 2241 2336 2423
8 2422 2335 2423 2502 2337 2243 2338 2425
8 2423 2336 2424 2503 2338 2244 2339 2426
8 2425 2338 2426 2505 2342 2246 2341 2429
8 2426 2339 2427 2506 2341 2245 2340 2428
8 2429 2341 2428 2507 2344 2249 2343 2430
8 2432 2346 2284 2374 2509 2431 2373 2455
8 2432 2346 2431 2509 2364 2270 2363 2449
8 2375 2285 2374 2456 2433 2347 2432 2510
8 2347 2433 2365 2271 2432 2510 2450 2364
8 2350 2259 2351 2435 2436 2352 2437 2514
8 2440 2356 2437 2514 2355 2264 2351 2435
8 2352 2260 2354 2437 2438 2353 2439 2516
8 2356 2265 2358 2442 2437 2354 2439 2516
8 2440 2356 2264 2355 2518 2442 2357 2441
8 2519 2443 2357 2441 2447 2361 2268 2362
8 2443 2359 2444 2520 2357 2266 2358 2442
8 2443 2359 2267 2361 2520 2444 2360 2446
8 2446 2360 2279 2370 2523 2445 2369 2452
8 2453 2370 2446 2524 2371 2280 2361 2447
8 2449 2363 2448 2525 2368 2278 2369 2452
8 2366 2277 2364 2450 2451 2368 2449 2526
8 2372 2283 2368 2451 2453 2370 2452 2527
8 2455 2373 2295 2380 2529 2454 2382 2460
8 2456 2374 2292 2378 2530 2455 2380 2458
8 2377 2293 2379 2457 2458 2380 2459 2531
8 2463 2384 2459 2531 2383 2297 2379 2457
8 2533 2461 2382 2460 2459 2381 2295 2380
8 2464 2385 2461 2533 2384 2298 2381 2459
8 2466 2387 2464 2537 2386 2300 2384 2463
8 2467 2388 2465 2538 2387 2301 2385 2464
8 2469 2390 2467 2540 2389 2303 2387 2466
8 2470 2391 2468 2541 2390 2304 2388 2467
8 2472 2393 2470 2543 2392 2306 2390 2469
8 2393 2307 2394 2473 2470 2391 2471 2544
8 2395 2308 2396 2475 2472 2393 2473 2546
8 2396 2309 2397 2476 2473 2394 2474 2547
8 2475 2396 2311 2398 2549 2476 2399 2478
8 2476 2397 2312 2399 2550 2477 2400 2479
8 2478 2399 2314 2403 2552 2479 2402 2483
8 2479 2400 2313 2402 2553 2480 2401 2482
8 2405 2316 2404 2485 2482 2401 2481 2556
8 2406 2317 2405 2486 2483 2402 2482 2557
8 2408 2319 2407 2488 2485 2404 2484 2559
8 2409 2320 2408 2489 2486 2405 2485 2560
8 2411 2322 2410 2490 2488 2407 2487 2561
8 2412 2323 2411 2491 2489 2408 2488 2562
8 2414 2326 2413 2492 2491 2411 2490 2563
8 2513 2434 2493 2565 2438 2353 2416 2494
8 2496 2417 2352 2436 2567 2494 2438 2515
8 2494 2416 2495 2568 2417 2331 2418 2497
8 2419 2332 2417 2496 2499 2420 2497 2570
8 2497 2418 2498 2571 2420 2333 2421 2500
8 2499 2420 2500 2573 2422 2335 2423 2502
8 2500 2421 2501 2574 2423 2336 2424 2503
8 2502 2423 2503 2576 2425 2338 2426 2505
8 2503 2424 2504 2577 2426 2339 2427 2506
8 2505 2426 2506 2578 2429 2341 2428 2507
8 2509 2431 2373 2455 2580 2508 2454 2529
8 2509 2431 2508 2580 2449 2363 2448 2525
8 2432 2510 2581 2509 2374 2456 2530 2455
8 2432 2510 2450 2364 2509 2581 2526 2449
8 2583 2511 2434 2513 2516 2439 2353 2438
8 2436 2352 2437 2514 2515 2438 2516 2588
8 2440 2356 2442 2518 2514 2437 2516 2588
8 2442 2358 2444 2520 2516 2439 2517 2589
8 2519 2443 2520 2591 2441 2357 2442 2518
8 2519 2443 2361 2447 2591 2520 2446 2524
8 2446 2360 2445 2523 2520 2444 2521 2592
8 2525 2448 2522 2593 2452 2369 2445 2523
8 2524 2446 2370 2453 2594 2523 2452 2527
8 2526 2449 2525 2595 2451 2368 2452 2527
8 2534 2462 2528 2597 2460 2382 2454 2529
8 2530 2455 2380 2458 2598 2529 2460 2532
8 2599 2533 2460 2532 2531 2459 2380 2458
8 2537 2464 2533 2599 2463 2384 2459 2531
8 2534 2462 2382 2460 2601 2535 2461 2533
8 2538 2465 2535 2601 2464 2385 2461 2533
8 2540 2467 2538 2604 2466 2387 2464 2537
8 2541 2468 2539 2605 2467 2388 2465 2538
8 2543 2470 2541 2607 2469 2390 2467 2540
8 2470 2391 2471 2544 2541 2468 2542 2608
8 2472 2393 2473 2546 2543 2470 2544 2610
8 2473 2394 2474 2547 2544 2471 2545 2611
8 2475 2396 2476 2549 2546 2473 2547 2613
8 2476 2397 2477 2550 2547 2474 2548 2614
8 2549 2476 2399 2478 2616 2550 2479 2552
8 2479 2400 2480 2553 2550 2477 2551 2617
8 2552 2479 2402 2483 2619 2553 2482 2557
8 2482 2401 2481 2556 2553 2480 2554 2620
8 2485 2404 2484 2559 2556 2481 2555 2623
8 2486 2405 2485 2560 2557 2482 2556 2624
8 2488 2407 2487 2561 2559 2484 2558 2625
8 2489 2408 2488 2562 2560 2485 2559 2626
8 2491 2411 2490 2563 2562 2488 2561 2627
8 2513 2434 2512 2585 2565 2493 2564 2630
8 2586 2513 2565 2632 2515 2438 2494 2567
8 2565 2493 2566 2633 2494 2416 2495 2568
8 2567 2494 2568 2635 2496 2417 2497 2570
8 2568 2495 2569 2636 2497 2418 2498 2571
8 2570 2497 2571 2638 2499 2420 2500 2573
8 2571 2498 2572 2639 2500 2421 2501 2574
8 2573 2500 2574 2641 2502 2423 2503 2576
8 2574 2501 2575 2642 2503 2424 2504 2577
8 2576 2503 2577 2643 2505 2426 2506 2578
8 2597 2528 2579 2645 2529 2454 2508 2580
8 2580 2508 2579 2645 2525 2448 2522 2593
8 2581 2509 2455 2530 2646 2580 2529 2598
8 2581 2509 2580 2646 2526 2449 2525 2595
8 2583 2511 2582 2648 2513 2434 2512 2585
8 2583 2511 2439 2516 2648 2582 2517 2589
8 2649 2583 2513 2586 2588 2516 2438 2515
8 2589 2517 2444 2520 2653 2587 2521 2592
8 2518 2442 2520 2591 2588 2516 2589 2654
8 2593 2522 2590 2655 2523 2445 2521 2592
8 2524 2446 2523 2594 2591 2520 2592 2656
8 2595 2525 2593 2657 2527 2452 2523 2594
8 2602 2536 2596 2659 2534 2462 2528 2597
8 2600 2534 2597 2660 2532 2460 2529 2598
8 2600 2534 2460 2532 2661 2601 2533 2599
8 2604 2538 2601 2661 2537 2464 2533 2599
8 2602 2536 2462 2534 2663 2603 2535 2601
8 2601 2535 2465 2538 2663 2603 2539 2605
8 2607 2541 2605 2665 2540 2467 2538 2604
8 2608 2542 2606 2666 2541 2468 2539 2605
8 2543 2470 2544 2610 2607 2541 2608 2668
8 2544 2471 2545 2611 2608 2542 2609 2669
8 2546 2473 2547 2613 2610 2544 2611 2671
8 2547 2474 2548 2614 2611 2545 2612 2672
8 2549 2476 2550 2616 2613 2547 2614 2674
8 2550 2477 2551 2617 2614 2548 2615 2675
8 2552 2479 2553 2619 2616 2550 2617 2677
8 2553 2480 2554 2620 2617 2551 2618 2678
8 2557 2482 2556 2624 2619 2553 2620 2680
8 2556 2481 2555 2623 2620 2554 2621 2681
8 2559 2484 2558 2625 2623 2555 2622 2683
8 2560 2485 2559 2626 2624 2556 2623 2684
8 2562 2488 2561 2627 2626 2559 2625 2685
8 2690 2629 2564 2630 2650 2584 2512 2585
8 2586 2513 2585 2651 2632 2565 2630 2691
8 2630 2564 2631 2692 2565 2493 2566 2633
8 2632 2565 2633 2694 2567 2494 2568 2635
8 2633 2566 2634 2695 2568 2495 2569 2636
8 2635 2568 2636 2697 2570 2497 2571 2638
8 2636 2569 2637 2698 2571 2498 2572 2639
8 2638 2571 2639 2700 2573 2500 2574 2641
8 2639 2572 2640 2701 2574 2501 2575 2642
8 2641 2574 2642 2702 2576 2503 2577 2643
8 2597 2528 2596 2659 2645 2579 2644 2704
8 2645 2579 2644 2704 2593 2522 2590 2655
8 2660 2597 2645 2705 2598 2529 2580 2646
8 2646 2580 2645 2705 2595 2525 2593 2657
8 2650 2584 2512 2585 2707 2647 2582 2648
8 2648 2582 2517 2589 2707 2647 2587 2653
8 2649 2583 2648 2708 2586 2513 2585 2651
8 2649 2583 2516 2588 2708 2648 2589 2654
8 2655 2590 2652 2710 2592 2521 2587 2653
8 2654 2589 2520 2591 2711 2653 2592 2656
8 2657 2593 2655 2712 2594 2523 2592 2656
8 2602 2536 2603 2663 2659 2596 2658 2714
8 2662 2602 2659 2715 2600 2534 2597 2660
8 2662 2602 2534 2600 2717 2663 2601 2661
8 2661 2601 2538 2604 2717 2663 2605 2665
8 2666 2606 2664 2718 2605 2539 2603 2663
8 2668 2608 2666 2720 2607 2541 2605 2665
8 2608 2542 2609 2669 2666 2606 2667 2721
8 2610 2544 2611 2671 2668 2608 2669 2723
8 2611 2545 2612 2672 2669 2609 2670 2724
8 2613 2547 2614 2674 2671 2611 2672 2726
8 2614 2548 2615 2675 2672 2612 2673 2727
8 2616 2550 2617 2677 2674 2614 2675 2729
8 2617 2551 2618 2678 2675 2615 2676 2730
8 2619 2553 2620 2680 2677 2617 2678 2732
8 2620 2554 2621 2681 2678 2618 2679 2733
8 2624 2556 2623 2684 2680 2620 2681 2735
8 2681 2621 2555 2623 2736 2682 2622 2683
8 2626 2559 2625 2685 2684 2623 2683 2737
8 2688 2628 2584 2650 2740 2686 2647 2707
8 2688 2628 2687 2742 2650 2584 2629 2690
8 2690 2629 2689 2745 2630 2564 2631 2692
8 2746 2690 2630 2691 2709 2650 2585 2651
8 2691 2630 2692 2747 2632 2565 2633 2694
8 2692 2631 2693 2748 2633 2566 2634 2695
8 2694 2633 2695 2750 2635 2568 2636 2697
8 2695 2634 2696 2751 2636 2569 2637 2698
8 2697 2636 2698 2753 2638 2571 2639 2700
8 2698 2637 2699 2754 2639 2572 2640 2701
8 2700 2639 2701 2755 2641 2574 2642 2702
8 2659 2596 2658 2714 2704 2644 2703 2757
8 2704 2644 2703 2757 2655 2590 2652 2710
8 2660 2597 2659 2715 2705 2645 2704 2758
8 2705 2645 2704 2758 2657 2593 2655 2712
8 2759 2706 2647 2707 2710 2652 2587 2653
8 2709 2650 2585 2651 2760 2707 2648 2708
8 2708 2648 2589 2654 2760 2707 2653 2711
8 2712 2655 2710 2761 2656 2592 2653 2711
8 2763 2713 2658 2714 2718 2664 2603 2663
8 2662 2602 2663 2717 2715 2659 2714 2764
8 2720 2666 2718 2767 2665 2605 2663 2717
8 2768 2719 2664 2718 2721 2667 2606 2666
8 2668 2608 2669 2723 2720 2666 2721 2770
8 2669 2609 2670 2724 2721 2667 2722 2771
8 2671 2611 2672 2726 2723 2669 2724 2773
8 2672 2612 2673 2727 2724 2670 2725 2774
8 2674 2614 2675 2729 2726 2672 2727 2776
8 2675 2615 2676 2730 2727 2673 2728 2777
8 2677 2617 2678 2732 2729 2675 2730 2779
8 2678 2618 2679 2733 2730 2676 2731 2780
8 2680 2620 2681 2735 2732 2678 2733 2782
8 2733 2679 2621 2681 2783 2734 2682 2736
8 2735 2681 2623 2684 2784 2736 2683 2737
8 2740 2686 2647 2707 2787 2738 2706 2759
8 2688 2628 2686 2740 2742 2687 2739 2789
8 2743 2688 2650 2709 2790 2740 2707 2760
8 2742 2687 2741 2792 2690 2629 2689 2745
8 2743 2688 2742 2793 2709 2650 2690 2746
8 2745 2689 2744 2795 2692 2631 2693 2748
8 2746 2690 2745 2796 2691 2630 2692 2747
8 2747 2692 2748 2797 2694 2633 2695 2750
8 2748 2693 2749 2798 2695 2634 2696 2751
8 2750 2695 2751 2800 2697 2636 2698 2753
8 2751 2696 2752 2801 2698 2637 2699 2754
8 2753 2698 2754 2802 2700 2639 2701 2755
8 2763 2713 2756 2804 2714 2658 2703 2757
8 2759 2706 2652 2710 2804 2756 2703 2757
8 2715 2659 2714 2764 2758 2704 2757 2805
8 2758 2704 2757 2805 2712 2655 2710 2761
8 2806 2759 2707 2760 2761 2710 2653 2711
8 2765 2716 2762 2808 2718 2664 2713 2763
8 2809 2763 2714 2764 2767 2718 2663 2717
8 2765 2716 2664 2718 2811 2766 2719 2768
8 2813 2768 2718 2767 2770 2721 2666 2720
8 2814 2769 2719 2768 2771 2722 2667 2721
8 2723 2669 2724 2773 2770 2721 2771 2816
8 2724 2670 2725 2774 2771 2722 2772 2817
8 2726 2672 2727 2776 2773 2724 2774 2819
8 2727 2673 2728 2777 2774 2725 2775 2820
8 2729 2675 2730 2779 2776 2727 2777 2822
8 2730 2676 2731 2780 2777 2728 2778 2823
8 2732 2678 2733 2782 2779 2730 2780 2825
8 2780 2731 2679 2733 2826 2781 2734 2783
8 2782 2733 2681 2735 2827 2783 2736 2784
8 2830 2785 2738 2787 2804 2756 2706 2759
8 2789 2739 2686 2740 2832 2786 2738 2787
8 2790 2740 2707 2760 2833 2787 2759 2806
8 2742 2687 2739 2789 2792 2741 2788 2835
8 2743 2688 2740 2790 2793 2742 2789 2836
8 2792 2741 2791 2838 2745 2689 2744 2795
8 2793 2742 2792 2839 2746 2690 2745 2796
8 2795 2744 2794 2841 2748 2693 2749 2798
8 2796 2745 2795 2842 2747 2692 2748 2797
8 2797 2748 2798 2843 2750 2695 2751 2800
8 2798 2749 2799 2844 2751 2696 2752 2801
8 2800 2751 2801 2845 2753 2698 2754 2802
8 2808 2762 2803 2847 2763 2713 2756 2804
8 2809 2763 2804 2848 2764 2714 2757 2805
8 2806 2759 2710 2761 2848 2804 2757 2805
8 2765 2716 2766 2811 2808 2762 2807 2850
8 2810 2765 2808 2851 2767 2718 2763 2809
8 2810 2765 2718 2767 2852 2811 2768 2813
8 2811 2766 2719 2768 2853 2812 2769 2814
8 2855 2814 2768 2813 2816 2771 2721 2770
8 2856 2815 2769 2814 2817 2772 2722 2771
8 2773 2724 2774 2819 2816 2771 2817 2858
8 2774 2725 2775 2820 2817 2772 2818 2859
8 2776 2727 2777 2822 2819 2774 2820 2861
8 2777 2728 2778 2823 2820 2775 2821 2862
8 2779 2730 2780 2825 2822 2777 2823 2864
8 2823 2778 2731 2780 2865 2824 2781 2826
8 2825 2780 2733 2782 2866 2826 2783 2827
8 2869 2828 2785 2830 2847 2803 2756 2804
8 2871 2829 2786 2832 2830 2785 2738 2787
8 2872 2830 2787 2833 2848 2804 2759 2806
8 2789 2739 2786 2832 2835 2788 2831 2874
8 2836 2789 2740 2790 2875 2832 2787 2833
8 2792 2741 2788 2835 2838 2791 2834 2877
8 2793 2742 2789 2836 2839 2792 2835 2878
8 2838 2791 2837 2880 2795 2744 2794 2841
8 2839 2792 2838 2881 2796 2745 2795 2842
8 2841 2794 2840 2882 2798 2749 2799 2844
8 2842 2795 2841 2883 2797 2748 2798 2843
8 2843 2798 2844 2884 2800 2751 2801 2845
8 2886 2846 2803 2847 2850 2807 2762 2808
8 2851 2808 2847 2887 2809 2763 2804 2848
8 2850 2807 2766 2811 2889 2849 2812 2853
8 2810 2765 2811 2852 2851 2808 2850 2890
8 2852 2811 2768 2813 2891 2853 2814 2855
8 2853 2812 2769 2814 2892 2854 2815 2856
8 2894 2856 2814 2855 2858 2817 2771 2816
8 2817 2772 2818 2859 2856 2815 2857 2895
8 2819 2774 2820 2861 2858 2817 2859 2897
8 2820 2775 2821 2862 2859 2818 2860 2898
8 2822 2777 2823 2864 2861 2820 2862 2900
8 2823 2778 2824 2865 2862 2821 2863 2901
8 2864 2823 2780 2825 2902 2865 2826 2866
8 2904 2867 2828 2869 2886 2846 2803 2847
8 2869 2828 2868 2906 2830 2785 2829 2871
8 2907 2869 2830 2872 2887 2847 2804 2848
8 2871 2829 2870 2909 2832 2786 2831 2874
8 2910 2871 2832 2875 2872 2830 2787 2833
8 2835 2788 2831 2874 2877 2834 2873 2912
8 2836 2789 2832 2875 2878 2835 2874 2913
8 2877 2834 2876 2915 2838 2791 2837 2880
8 2839 2792 2835 2878 2881 2838 2877 2916
8 2880 2837 2879 2917 2841 2794 2840 2882
8 2881 2838 2880 2918 2842 2795 2841 2883
8 2883 2841 2882 2919 2843 2798 2844 2884
8 2921 2885 2846 2886 2889 2849 2807 2850
8 2922 2886 2847 2887 2890 2850 2808 2851
8 2889 2849 2812 2853 2924 2888 2854 2892
8 2890 2850 2811 2852 2925 2889 2853 2891
8 2891 2853 2814 2855 2926 2892 2856 2894
8 2892 2854 2815 2856 2927 2893 2857 2895
8 2858 2817 2859 2897 2894 2856 2895 2929
8 2859 2818 2860 2898 2895 2857 2896 2930
8 2861 2820 2862 2900 2897 2859 2898 2932
8 2862 2821 2863 2901 2898 2860 2899 2933
8 2864 2823 2865 2902 2900 2862 2901 2934
8 2904 2867 2846 2886 2936 2903 2885 2921
8 2904 2867 2903 2936 2869 2828 2868 2906
8 2937 2904 2869 2907 2922 2886 2847 2887
8 2906 2868 2905 2939 2871 2829 2870 2909
8 2907 2869 2906 2940 2872 2830 2871 2910
8 2909 2870 2908 2942 2874 2831 2873 2912
8 2910 2871 2909 2943 2875 2832 2874 2913
8 2912 2873 2911 2945 2877 2834 2876 2915
8 2878 2835 2874 2913 2916 2877 2912 2946
8 2915 2876 2914 2947 2880 2837 2879 2917
8 2916 2877 2915 2948 2881 2838 2880 2918
8 2918 2880 2917 2949 2883 2841 2882 2919
8 2921 2885 2849 2889 2951 2920 2888 2924
8 2952 2921 2886 2922 2925 2889 2850 2890
8 2924 2888 2854 2892 2954 2923 2893 2927
8 2925 2889 2853 2891 2955 2924 2892 2926
8 2926 2892 2856 2894 2956 2927 2895 2929
8 2895 2857 2896 2930 2927 2893 2928 2957
8 2897 2859 2898 2932 2929 2895 2930 2959
8 2898 2860 2899 2933 2930 2896 2931 2960
8 2900 2862 2901 2934 2932 2898 2933 2961
8 2936 2903 2885 2921 2963 2935 2920 2951
8 2936 2903 2935 2963 2906 2868 2905 2939
8 2937 2904 2886 2922 2964 2936 2921 2952
8 2937 2904 2936 2964 2907 2869 2906 2940
8 2939 2905 2938 2966 2909 2870 2908 2942
8 2940 2906 2939 2967 2910 2871 2909 2943
8 2942 2908 2941 2969 2912 2873 2911 2945
8 2943 2909 2942 2970 2913 2874 2912 2946
8 2945 2911 2944 2971 2915 2876 2914 2947
8 2946 2912 2945 2972 2916 2877 2915 2948
8 2948 2915 2947 2973 2918 2880 2917 2949
8 2951 2920 2888 2924 2975 2950 2923 2954
8 2952 2921 2889 2925 2976 2951 2924 2955
8 2927 2893 2928 2957 2954 2923 2953 2978
8 2955 2924 2892 2926 2979 2954 2927 2956
8 2929 2895 2930 2959 2956 2927 2957 2980
8 2930 2896 2931 2960 2957 2928 2958 2981
8 2932 2898 2933 2961 2959 2930 2960 2982
8 2951 2920 2950 2975 2963 2935 2962 2984
8 2963 2935 2962 2984 2939 2905 2938 2966
8 2964 2936 2921 2952 2985 2963 2951 2976
8 2964 2936 2963 2985 2940 2906 2939 2967
8 2966 2938 2965 2987 2942 2908 2941 2969
8 2967 2939 2966 2988 2943 2909 2942 2970
8 2969 2941 2968 2989 2945 2911 2944 2971
8 2970 2942 2969 2990 2946 2912 2945 2972
8 2972 2945 2971 2991 2948 2915 2947 2973
8 2954 2923 2953 2978 2975 2950 2974 2993
8 2976 2951 2924 2955 2994 2975 2954 2979
8 2957 2928 2958 2981 2978 2953 2977 2995
8 2956 2927 2957 2980 2979 2954 2978 2996
8 2959 2930 2960 2982 2980 2957 2981 2997
8 2984 2962 2983 2999 2966 2938 2965 2987
8 2975 2950 2974 2993 2984 2962 2983 2999
8 2976 2951 2975 2994 2985 2963 2984 3000
8 2985 2963 2984 3000 2967 2939 2966 2988
8 2987 2965 2986 3001 2969 2941 2968 2989
8 2988 2966 2987 3002 2970 2942 2969 2990
8 2990 2969 2989 3003 2972 2945 2971 2991
8 2978 2953 2977 2995 2993 2974 2992 3004
8 2979 2954 2978 2996 2994 2975 2993 3005
8 2980 2957 2981 2997 2996 2978 2995 3006
8 2974 2993 2999 2983 2992 3004 3007 2998
8 2983 2999 2987 2965 2998 3007 3001 2986
8 3000 2984 2999 3008 2988 2966 2987 3002
8 2994 2975 2993 3005 3000 2984 2999 3008
8 3002 2987 3001 3009 2990 2969 2989 3003
8 2996 2978 2995 3006 3005 2993 3004 3010
8 3005 2993 3004 3010 3008 2999 3007 3011
8 3008 2999 3007 3011 3002 2987 3001 3009

CELL_TYPES 1910
12
12
12
12
12
12
12
12
12
12
12
12
12
12
12
12
12
12
12
12
12
12
12
12
12
12
12
12
12
12
12
12
12
12
12
12
12
12
12
12
12
12
12
12
12
12
12
12
12
12
12
12
12
12
12
12
12
12
12
12
12
12
12
12
12
12
12
12
12
12
12
12
12
12
12
12
12
12
12
12
12
12
12
12
12
12
12
12
12
12
12
12
12
12
12
12
12
12
12
12
12
12
12
12
12
12
12
12
12
12
12
12
12
12
12
12
12
12
12
12
12
12
12
12
12
12
12
12
12
12
12
12
12
12
12
12
12
12
12
12
12
12
12
12
12
12
12
12
12
12
12
12
12
12
12
12
12
12
12
12
12
12
12
12
12
12
12
12
12
12
12
12
12
12
12
12
12
12
12
12
12
12
12
12
12
12
12
12
12
12
12
12
12
12
12
12
12
12
12
12
12
12
12
12
12
12
12
12
12
12
12
12
12
12
12
12
12
12
12
12
12
12
12
12
12
12
12
12
12
12
12
12
12
12
12
12
12
12
12
12
12
12
12
12
12
12
12
12
12
12
12
12
12
12
12
12
12
12
12
12
12
12
12
12
12
12
12
12
12
12
12
12
12
12
12
12
12
12
12
12
12
12
12
12
12
12
12
12
12
12
12
12
12
12
12
12
12
12
12
12
12
12
12
12
12
12
12
12
12
12
12
12
12
12
12
12
12
12
12
12
12
12
12
12
12
12
12
12
12
12
12
12
12
12
12
12
12
12
12
12
12
12
12
12
12
12
12
12
12
12
12
12
12
12
12
12
12
12
12
12
12
12
12
12
12
12
12
12
12
12
12
12
12
12
12
12
12
12
12
12
12
12
12
12
12
12
12
12
12
12
12
12
12
12
12
12
12
12
12
12
12
12
12
12
12
12
12
12
12
12
12
12
12
12
12
12
12
12
12
12
12
12
12
12
12
12
12
12
12
12
12
12
12
12
12
12
12
12
12
12
12
12
12
12
12
12
12
12
12
12
12
12
12
12
12
12
12
12
12
12
12
12
12
12
12
12
12
12
12
12
12
12
12
12
12
12
12
12
12
12
12
12
12
12
12
12
12
12
12
12
12
12
12
12
12
12
12
12
12
12
12
12
12
12
12
12
12
12
12
12
12
12
12
12
12
12
12
12
12
12
12
12
12
12
12
12
12
12
12
12
12
12
12
12
12
12
12
12
12
12
12
12
12
12
12
12
12
12
12
12
12
12
12
12
12
12
12
12
12
12
12
12
12
12
12
12
12
12
12
12
12
12
12
12
12
12
12
12
12
12
12
12
12
12
12
12
12
12
12
12
12
12
12
12
12
12
12
12
12
12
12
12
12
12
12
12
12
12
12
12
12
12
12
12
12
12
12
12
12
12
12
12
12
12
12
12
12
12
12
12
12
12
12
12
12
12
12
12
12
12
12
12
12
12
12
12
12
12
12
12
12
12
12
12
12
12
12
12
12
12
12
12
12
12
12
12
12
12
12
12
12
12
12
12
12
12
12
12
12
12
12
12
12
12
12
12
12
12
12
12
12
12
12
12
12
12
12
12
12
12
12
12
12
12
12
12
12
12
12
12
12
12
12
12
12
12
12
12
12
12
12
12
12
12
12
12
12
12
12
12
12
12
12
12
12
12
12
12
12
12
12
12
12
12
12
12
12
12
12
12
12
12
12
12
12
12
12
12
12
12
12
12
12
12
12
12
12
12
12
12
12
12
12
12
12
12
12
12
12
12
12
12
12
12
12
12
12
12
12
12
12
12
12
12
12
12
12
12
12
12
12
12
12
12
12
12
12
12
12
12
12
12
12
12
12
12
12
12
12
12
12
12
12
12
12
12
12
12
12
12
12
12
12
12
12
12
12
12
12
12
12
12
12
12
12
12
12
12
12
12
12
12
12
12
12
12
12
12
12
12
12
12
12
12
12
12
12
12
12
12
12
12
12
12
12
12
12
12
12
12
12
12
12
12
12
12
12
12
12
12
12
12
12
12
12
12
12
12
12
12
12
12
12
12
12
12
12
12
12
12
12
12
12
12
12
12
12
12
12
12
12
12
12
12
12
12
12
12
12
12
12
12
12
12
12
12
12
12
12
12
12
12
12
12
12
12
12
12
12
12
12
12
12
12
12
12
12
12
12
12
12
12
12
12
12
12
12
12
12
12
12
12
12
12
12
12
12
12
12
12
12
12
12
12
12
12
12
12
12
12
12
12
12
12
12
12
12
12
12
12
12
12
12
12
12
12
12
12
12
12
12
12
12
12
12
12
12
12
12
12
12
12
12
12
12
12
12
12
12
12
12
12
12
12
12
12
12
12
12
12
12
12
12
12
12
12
12
12
12
12
12
12
12
12
12
12
12
12
12
12
12
12
12
12
12
12
12
12
12
12
12
12
12
12
12
12
12
12
12
12
12
12
12
12
12
12
12
12
12
12
12
12
12
12
12
12
12
12
12
12
12
12
12
12
12
12
12
12
12
12
12
12
12
12
12
12
12
12
12
12
12
12
12
12
12
12
12
12
12
12
12
12
12
12
12
12
12
12
12
12
12
12
12
12
12
12
12
12
12
12
12
12
12
12
12
12
12
12
12
12
12
12
12
12
12
12
12
12
12
12
12
12
12
12
12
12
12
12
12
12
12
12
12
12
12
12
12
12
12
12
12
12
12
12
12
12
12
12
12
12
12
12
12
12
12
12
12
12
12
12
12
12
12
12
12
12
12
12
12
12
12
12
12
12
12
12
12
12
12
12
12
12
12
12
12
12
12
12
12
12
12
12
12
12
12
12
12
12
12
12
12
12
12
12
12
12
12
12
12
12
12
12
12
12
12
12
12
12
12
12
12
12
12
12
12
12
12
12
12
12
12
12
12
12
12
12
12
12
12
12
12
12
12
12
12
12
12
12
12
12
12
12
12
12
12
12
12
12
12
12
12
12
12
12
12
12
12
12
12
12
12
12
12
12
12
12
12
12
12
12
12
12
12
12
12
12
12
12
12
12
12
12
12
12
12
12
12
12
12
12
12
12
12
12
12
12
12
12
12
12
12
12
12
12
12
12
12
12
12
12
12
12
12
12
12
12
12
12
12
12
12
12
12
12
12
12
12
12
12
12
12
12
12
12
12
12
12
12
12
12
12
12
12
12
12
12
12
12
12
12
12
12
12
12
12
12
12
12
12
12
12
12
12
12
12
12
12
12
12
12
12
12
12
12
12
12
12
12
12
12
12
12
12
12
12
12
12
12
12
12
12
12
12
12
12
12
12
12
12
12
12
12
12
12
12
12
12
12
12
12
12
12
12
12
12
12
12
12
12
12
12
12
12
12
12
12
12
12
12
12
12
12
12
12
12
12
12
12
12
12
12
12
12
12
12
12
12
12
12
12
12
12
12
12
12
12
12
12
12
12
12
12
12
12
12
12
12
12
12
12
12
12
12
12
12
12
12
12
12
12
12
12
12
12
12
12
12
12
12
12
12
12
12
12
12
12
12
12
12
12
12
12
12
12
12
12
12
12
12
12
12
12
12
12
12
12
12
12
12
12
12
12
12
12
12
12
12
12
12
12
12
12
12
12
12
12
12
12
12
12
12
12
12
12
12
12
12
12
12
12
12
12
12
12
12
12
12
12
12
12
12
12
12
12
12
12
12
12
12
12
12
12
12
12
12
12
12
12
12
12
12
12
12
12
12
12
12
12
12
12
12
12
12
12
12
12
12
12
12
12
12
12
12
12
12
12
12
12
12
12
12
12
12
12
12
12
12
12
12
12
12
12
12
12
12
12
12
12
12
12
12
12
12
12
12
12
12
12
12
12
12
12
12
12
12
12
12
12
12
12
12
12
12
12
12
12
12
12
12
12
12
12
12
12
12
12
12
12
12
12
12
12
12
12
12
12
12
12
12
12
12
12
12
12
12
12
12
12
12
12
12
12
12
12
12
12
12
12
12
12
12
12
12
12
12
12
12
12
12
12
12
12
12
12
12
12
12
12
12
12
12
12
12
12
12
12
12
12
12
12
12
12
12
12
12
12
12
12
12
12
12
12
12
12
12
12
12
12
12
12
12
12
12
12
12
12
12
12
12
12
12
12
12
12
12
12
12
12
12
12
12
12
12
12
12
12
12
12
12
12
12
12
12
12
12
12
12
12
12
12
12
12
12
12
12
12
12
12
12
12
12
12
12
12
12
12
12
12
12
12
12
12
12
12
12
12
12
12
12
12
12
12
12
12
12
12
12
12
12
12
12
12
12
12
12
12
12
12
12
12
12
12
12
12
12
12
12
12
12
12

POINT_DATA 3012
SCALARS Jp_lamdaP float 4
LOOKUP_TABLE default
0.99996 1 1 0.99996
1 1 1 1
0.999963 1 1 0.999963
0.999933 1 1 0.999933
0.999955 1 1 0.999955
0.999969 1 1 0.999969
0.999675 1 1 0.999675
1 1 1 1
1 1 1 1
1 1 1 1
0.999999 1 1 0.999999
0.999834 1 1 0.999834
0.999895 1 1 0.999895
0.999927 1 1 0.999927
0.999964 1 1 0.999964
0.99994 1 1 0.99994
0.999972 1 1 0.999972
0.999959 1 1 0.999959
0.999679 1 1 0.999679
1 1 1 1
0.999923 1 1 0.999923
0.999946 1 1 0.999946
0.99956 1 1 0.99956
0.999639 1 1 0.999639
0.999986 1 1 0.999986
0.999725 1 1 0.999725
0.999209 1 1 0.999209
1 1 1 1
0.999971 1 1 0.999971
0.999985 1 1 0.999985
1 1 1 1
0.999842 1 1 0.999842
0.999939 1 1 0.999939
0.999961 1 1 0.999961
0.999717 1 1 0.999717
1 1 1 1
0.999805 1 1 0.999805
0.999887 1 1 0.999887
0.999305 1 1 0.999305
1 1 1 1
1 1 1 1
0.999962 1 1 0.999962
1 1 1 1
0.999917 1 1 0.999917
0.999509 1 1 0.999509
1 1 1 1
0.999646 1 1 0.999646
0.999945 1 1 0.999945
0.999961 1 1 0.999961
0.999974 1 1 0.999974
0.999683 1 1 0.999683
0.999948 1 1 0.999948
0.99993 1 1 0.99993
0.999989 1 1 0.999989
0.999951 1 1 0.999951
0.999562 1 1 0.999562
0.999729 1 1 0.999729
0.999642 1 1 0.999642
0.999195 1 1 0.999195
1 1 1 1
0.999908 1 1 0.999908
0.999594 1 1 0.999594
0.999535 1 1 0.999535
0.999598 1 1 0.999598
0.998934 1 1 0.998934
0.999068 1 1 0.999068
0.999999 1 1 0.999999
0.999812 1 1 0.999812
0.999322 1 1 0.999322
0.99872 1 1 0.99872
1 1 1 1
1 1 1 1
1 1 1 1
0.999849 1 1 0.999849
1 1 1 1
1 1 1 1
0.999695 1 1 0.999695
1 1 1 1
0.999798 1 1 0.999798
0.999902 1 1 0.999902
0.999304 1 1 0.999304
1 1 1 1
0.999998 1 1 0.999998
0.999648 1 1 0.999648
0.999733 1 1 0.999733
0.998953 1 1 0.998953
0.999945 1 1 0.999945
0.999226 1 1 0.999226
0.999385 1 1 0.999385
0.998967 1 1 0.998967
1 1 1 1
1 1 1 1
1 1 1 1
1 1 1 1
1 1 1 1
0.999954 1 1 0.999954
0.999551 1 1 0.999551
0.999965 1 1 0.999965
0.999631 1 1 0.999631
1 1 1 1
0.999479 1 1 0.999479
0.999614 1 1 0.999614
0.99864 1 1 0.99864
0.999669 1 1 0.999669
0.998748 1 1 0.998748
0.999907 1 1 0.999907
0.999936 1 1 0.999936
0.999992 1 1 0.999992
0.999955 1 1 0.999955
0.999564 1 1 0.999564
0.999646 1 1 0.999646
0.999733 1 1 0.999733
0.999181 1 1 0.999181
1 1 1 1
0.999917 1 1 0.999917
0.999503 1 1 0.999503
0.999536 1 1 0.999536
1 1 1 1
0.999844 1 1 0.999844
0.999601 1 1 0.999601
0.998906 1 1 0.998906
0.999303 1 1 0.999303
0.999088 1 1 0.999088
0.998723 1 1 0.998723
0.999497 1 1 0.999497
0.999511 1 1 0.999511
0.998739 1 1 0.998739
0.998843 1 1 0.998843
0.998961 1 1 0.998961
0.998494 1.00001 1 0.99848
1 1 1 1
0.998641 1 1 0.998641
0.999937 1 1 0.999937
0.999381 1 1 0.999381
0.998806 1 1 0.998806
0.998724 1.0002 1 0.998523
0.999985 1 1 0.999985
0.999635 1 1 0.999635
1 1 1 1
1 1 1 1
0.999701 1 1 0.999701
1 1 1 1
0.999916 1 1 0.999916
0.999801 1 1 0.999801
0.999302 1 1 0.999302
1 1 1 1
0.999999 1 1 0.999999
0.999672 1 1 0.999672
0.999755 1 1 0.999755
0.998956 1 1 0.998956
0.999958 1 1 0.999958
0.999228 1 1 0.999228
0.999385 1 1 0.999385
0.998954 1 1 0.998954
0.999984 1 1 0.999984
1 1 1 1
0.999714 1 1 0.999714
0.998849 1 1 0.998849
0.999097 1 1 0.999097
0.998755 1.0002 1 0.998552
0.999489 1 1 0.999489
0.998871 1 1 0.998871
0.999066 1 1.00004 0.999026
0.998833 1 1 0.998833
1 1 1 1
1 1 1 1
1 1 1 1
0.999996 1 1 0.999996
1 1 1 1
1 1 1 1
1 1 1 1
0.999613 1 1 0.999613
0.999529 1 1 0.999529
1 1 1 1
1 1 1 1
0.999482 1 1 0.999482
0.9996 1 1 0.9996
0.99864 1 1 0.99864
0.999634 1 1 0.999634
0.998748 1 1 0.998748
0.999468 1 1 0.999468
0.99858 1 1 0.99858
0.998704 1 1 0.998704
1 1.00174 1 0.99827
0.998788 1 1 0.998788
0.999034 1.00066 1 0.998379
1 1 1 1
0.999925 1 1 0.999925
0.999407 1 1 0.999407
0.999537 1 1 0.999537
1 1 1 1
0.999876 1 1 0.999876
0.999604 1 1 0.999604
0.998877 1 1 0.998877
0.999108 1 1 0.999108
0.999285 1 1 0.999285
0.998725 1 1 0.998725
0.999494 1 1 0.999494
0.999511 1 1 0.999511
0.99868 1 1 0.99868
0.998865 1 1 0.998865
1 1 1 1
0.999925 1 1 0.999925
0.999405 1 1 0.999405
0.998962 1 1 0.998962
0.998491 1.00004 1 0.998447
0.998802 1 1 0.998802
0.998659 1 1 0.998659
0.998734 1.00021 1 0.998526
0.99998 1 1 0.99998
0.999635 1 1 0.999635
0.998594 1 1 0.998594
0.998799 1 1 0.998799
0.999297 1.00095 1 0.998346
0.998489 1.00012 1 0.998366
0.998571 1 1 0.998571
1.00028 1.00196 1 0.998326
0.999965 1 1 0.999965
0.99889 1.00043 1 0.998462
0.999456 1 1 0.999456
0.998952 1 1 0.998952
0.998713 1.00011 1 0.998604
0.99989 1.00142 1 0.998469
0.999546 1 1 0.999546
0.999741 1 1 0.999741
0.99926 1 1 0.99926
0.999661 1 1 0.999661
1 1 1 1
1 1 1 1
0.999755 1 1 0.999755
0.998958 1 1 0.998958
0.99997 1 1 0.99997
0.999384 1 1 0.999384
0.99923 1 1 0.99923
0.998942 1 1 0.998942
0.999989 1 1 0.999989
1 1 1 1
0.999716 1 1 0.999716
0.99885 1 1 0.99885
0.999101 1 1 0.999101
0.99868 1.00013 1 0.998552
0.99949 1 1 0.99949
0.99888 1 1 0.99888
0.999024 1 1 0.999024
0.998822 1 1 0.998822
1 1 1 1
0.999595 1 1 0.999595
0.99983 1 1 0.99983
0.999349 1 1 0.999349
0.999112 1.00066 1 0.998456
0.998721 1 1 0.998721
1.00118 1.00282 1 0.99836
0.999142 1 1 0.999142
0.998977 1.00025 1 0.998732
0.999631 1 1.00083 0.998799
0.99872 1 1 0.99872
0.999959 1 1 0.999959
1 1 1 1
1 1 1 1
1 1 1 1
1 1 1 1
0.999999 1 1 0.999999
1 1 1 1
0.999993 1 1 0.999993
1 1 1 1
0.999636 1 1 0.999636
0.999578 1 1 0.999578
0.998748 1 1 0.998748
0.998641 1 1 0.998641
0.999484 1 1 0.999484
1 1 1 1
0.999467 1 1 0.999467
0.99858 1 1 0.99858
0.998704 1 1 0.998704
0.999818 1.00155 1 0.998269
0.998788 1 1 0.998788
0.999086 1.00071 1 0.998379
0.998566 1 1 0.998566
1.00028 1.00208 1 0.99821
0.999398 1.00107 1 0.998332
1.00559 1.00742 1 0.99819
0.999182 1.00077 1 0.998413
1.00311 1.00485 1 0.998272
0.999491 1 1 0.999491
0.999512 1 1 0.999512
0.998622 1 1 0.998622
0.998886 1 1 0.998886
1 1 1 1
0.999914 1 1 0.999914
0.999429 1 1 0.999429
0.998963 1 1 0.998963
0.998484 1.00007 1 0.998414
0.998678 1 1 0.998678
0.998798 1 1 0.998798
0.998746 1.00022 1 0.998529
0.999974 1 1 0.999974
0.999635 1 1 0.999635
0.998575 1 1 0.998575
0.998798 1 1 0.998798
0.999439 1.00111 1 0.998334
0.998591 1.00019 1 0.9984
0.999958 1 1 0.999958
0.999455 1 1 0.999455
0.99898 1 1 0.99898
0.998572 1 1 0.998572
1.00063 1.00231 1 0.99832
0.998664 1.00009 1 0.998576
0.999152 1.00069 1 0.998463
1.00016 1.0017 1 0.998469
0.999548 1 1 0.999548
0.999258 1 1 0.999258
0.999739 1 1 0.999739
0.999735 1.00145 1 0.998283
0.999393 1.00102 1 0.99837
1.00495 1.00678 1 0.998187
1.00161 1.00336 1 0.998252
0.999731 1.00134 1 0.998393
1.00524 1.00691 1 0.998338
0.9995 1 1 0.9995
1.00154 1.00311 1 0.998432
0.999141 1 1 0.999141
0.998693 1 1 0.998693
0.998721 1.00027 1 0.998448
1.00355 1.00503 1 0.998529
0.999822 1 1 0.999822
0.999242 1 1 0.999242
0.999311 1 1 0.999311
0.999124 1 1 0.999124
0.998851 1 1 0.998851
1 1 1 1
0.999994 1 1 0.999994
0.999717 1 1 0.999717
0.999105 1 1 0.999105
0.998604 1.00005 1 0.998551
0.999491 1 1 0.999491
0.999022 1 1 0.999022
0.99889 1 1 0.99889
0.998811 1 1 0.998811
1 1 1 1
0.999595 1 1 0.999595
0.999834 1 1 0.999834
0.999347 1 1 0.999347
0.998974 1.00052 1 0.998454
0.998723 1 1 0.998723
1.00076 1.0024 1 0.998359
0.999164 1 1.00002 0.999144
0.998885 1.00014 1 0.998744
0.999593 1 1.0008 0.998791
0.998775 1 1 0.998775
1 1 1 1
0.999899 1 1 0.999899
0.999253 1 1 0.999253
0.999461 1 1 0.999461
0.999143 1 1 0.999143
1.0019 1.00361 1 0.998296
0.999806 1.00127 1 0.998538
1.00302 1.00472 1 0.998306
0.999998 1 1.00111 0.998886
0.998846 1.00018 1 0.998662
0.999303 1 1.00073 0.998577
0.999948 1 1 0.999948
0.999703 1 1 0.999703
0.999966 1 1 0.999966
0.999961 1 1 0.999961
1 1 1 1
1 1 1 1
1 1 1 1
1 1 1 1
1 1 1 1
1 1 1 1
1 1 1 1
0.999999 1 1 0.999999
1 1 1 1
0.99999 1 1 0.99999
1 1 1 1
0.998787 1 1 0.998787
0.998704 1 1 0.998704
0.999134 1.00076 1 0.998379
0.999628 1.00136 1 0.998268
0.99858 1 1 0.99858
0.999467 1 1 0.999467
0.998565 1 1 0.998565
1.00023 1.00202 1 0.998211
0.999226 1.0009 1 0.998332
1.0057 1.00753 1 0.998188
0.999198 1.00079 1 0.998411
1.00265 1.00439 1 0.998272
1.0002 1.00201 1 0.998195
1.00763 1.00951 1 0.998141
1.00424 1.00602 1 0.99823
1.01135 1.01315 1 0.998215
1.00222 1.00394 1 0.99829
1.00778 1.00945 1 0.998345
0.998557 1 1 0.998557
0.998797 1 1 0.998797
0.999564 1.00124 1 0.998321
0.998695 1.00026 1 0.998435
0.999951 1 1 0.999951
0.999454 1 1 0.999454
0.999008 1 1 0.999008
0.998572 1 1 0.998572
1.00099 1.00268 1 0.998314
0.999398 1.00094 1 0.998464
0.998609 1.00006 1 0.998549
1.00046 1.002 1 0.998469
0.99955 1 1 0.99955
0.999256 1 1 0.999256
0.999737 1 1 0.999737
0.999883 1.00163 1 0.998254
0.999349 1.00098 1 0.998369
1.00503 1.00686 1 0.998179
1.00222 1.00397 1 0.998258
0.999502 1 1 0.999502
0.999137 1 1 0.999137
0.99876 1 1.00003 0.998728
0.999942 1.00154 1 0.998403
1.00491 1.00657 1 0.99835
0.998861 1.00043 1 0.998427
1.00167 1.00324 1 0.998433
1.00315 1.00461 1 0.99854
0.999244 1 1 0.999244
0.999108 1 1 0.999108
0.999818 1 1 0.999818
0.999325 1 1 0.999325
1.00597 1.00786 1 0.99813
1.00449 1.00628 1 0.998221
1.01187 1.01374 1 0.998157
1.00714 1.00888 1 0.998278
1.00372 1.00533 1 0.998398
1.00876 1.01038 1 0.998403
0.999221 1 1 0.999221
1.00486 1.00632 1 0.998547
0.998921 1 1 0.998921
0.99903 1.00036 1.00018 0.998495
1.00122 1.00286 1 0.998363
1.00541 1.00687 1 0.998548
0.999866 1 1 0.999866
0.99941 1 1 0.99941
0.999114 1 1 0.999114
0.999144 1 1 0.999144
0.999061 1 1 0.999061
1 1 1 1
0.99882 1.00037 1 0.998452
0.999838 1 1 0.999838
0.999594 1 1 0.999594
0.999345 1 1 0.999345
0.998726 1 1 0.998726
1.00035 1.002 1 0.998359
0.999147 1 1 0.999147
0.999616 1 1.00083 0.998782
0.998757 1 1 0.998757
0.998828 1 1 0.998828
1 1 1 1
0.999904 1 1 0.999904
0.999253 1 1 0.999253
0.999461 1 1 0.999461
0.999128 1 1 0.999128
1.002 1.00372 1 0.998292
0.99944 1.0009 1 0.998539
1.00312 1.00482 1 0.9983
0.999886 1 1.001 0.998889
0.998865 1.00019 1 0.998673
0.999472 1 1.00088 0.998595
0.999931 1 1 0.999931
0.999564 1 1 0.999564
0.999283 1 1.00026 0.999019
0.999233 1 1 0.999233
0.999035 1 1.00002 0.999015
1.00533 1.00706 1 0.99828
1.00061 1.00214 1 0.998469
1.00371 1.0053 1 0.998419
1.00205 1 1.00337 0.998681
0.998483 1.00001 1 0.998468
0.999951 1 1 0.999951
0.999645 1 1 0.999645
0.999687 1 1 0.999687
0.99953 1 1 0.99953
0.99971 1 1 0.99971
0.999969 1 1 0.999969
0.999967 1 1 0.999967
1 1 1 1
0.999964 1 1 0.999964
1 1 1 1
1 1 1 1
1 1 1 1
1 1 1 1
1 1 1 1
1 1 1 1
1 1 1 1
1 1 1 1
1 1 1 1
0.999998 1 1 0.999998
1 1 1 1
0.999237 1.00083 1 0.99841
0.999049 1.00072 1 0.998332
1.00221 1.00394 1 0.998272
1.0058 1.00763 1 0.998186
1.00018 1.00197 1 0.998211
0.998565 1 1 0.998565
1.00025 1.00206 1 0.998196
1.00772 1.0096 1 0.998133
1.00397 1.00575 1 0.99823
1.0113 1.0131 1 0.998222
1.0024 1.00412 1 0.998287
1.00778 1.00945 1 0.998349
1.00706 1.00897 1 0.998109
1.0135 1.01537 1 0.998158
1.00913 1.01086 1 0.998286
1.0116 1.01336 1 0.998258
1.00728 1.00896 1 0.998328
1.01026 1.01186 1 0.998424
1.00005 1.00183 1 0.998225
0.999304 1.00094 1 0.998369
1.00512 1.00696 1 0.998172
1.00283 1.00458 1 0.998264
0.999503 1 1 0.999503
0.999133 1 1 0.999133
0.998944 1 1.00018 0.998763
1.00017 1.00176 1 0.998414
1.00457 1.00622 1 0.998363
1.00178 1.00335 1 0.998434
0.999 1.0006 1 0.998406
1.00278 1.00423 1 0.998551
0.999247 1 1 0.999247
0.999092 1 1 0.999092
0.999815 1 1 0.999815
0.99934 1 1 0.99934
1.00604 1.00792 1 0.998131
1.00463 1.00642 1 0.998218
1.01155 1.01341 1 0.998162
1.00661 1.00835 1 0.998275
0.99922 1 1 0.99922
0.998981 1 1.00003 0.998951
0.999169 1.00029 1.00039 0.998491
1.00353 1.00515 1 0.998389
1.00867 1.01025 1 0.998437
1.0014 1.00305 1 0.998354
1.00476 1.00622 1 0.998548
1.00546 1.00689 1 0.998578
0.999114 1 1 0.999114
0.999057 1 1 0.999057
0.999141 1 1 0.999141
0.99984 1 1 0.99984
0.999422 1 1 0.999422
1.01322 1.01511 1 0.998132
1.01125 1.01309 1 0.998179
1.00979 1.01145 1 0.998361
1.00745 1.00898 1 0.998491
0.999088 1 1 0.999088
1.00708 1.00846 1 0.998636
0.999058 1 1.00029 0.99877
1.0001 1.00132 1.00051 0.998276
1.00413 1.00583 1 0.9983
0.999852 1 1 0.999852
0.999536 1 1 0.999536
0.999246 1 1 0.999246
0.999076 1 1 0.999076
0.999013 1 1 0.999013
0.999013 1 1 0.999013
1 1 1 1
0.999909 1 1 0.999909
1.00209 1.00381 1 0.998289
0.999461 1 1 0.999461
0.999253 1 1 0.999253
0.999112 1 1 0.999112
0.999128 1.00059 1 0.99854
1.00308 1.0048 1 0.998294
0.99983 1 1.00094 0.998892
0.999351 1 1.00074 0.998613
0.998929 1.00024 1 0.998685
0.999935 1 1 0.999935
0.999565 1 1 0.999565
0.99925 1 1.00022 0.999028
0.999231 1 1 0.999231
0.999038 1 1.00004 0.999002
1.00535 1.00709 1 0.998277
1.00038 1.00192 1 0.998463
1.00369 1.00526 1 0.998438
1.00147 1 1.0028 0.998667
0.998575 1.00008 1.00006 0.998438
0.999633 1 1 0.999633
0.999303 1 1 0.999303
1.00055 1 1.00169 0.998868
0.999076 1 1.00005 0.999026
0.998993 1 1.00008 0.998909
1.00866 1.01015 1 0.998533
1.00059 1.00221 1 0.99838
1.00407 1.00562 1 0.99846
1.00278 1 1.00424 0.998546
0.998323 1.00009 1 0.998235
0.999954 1 1 0.999954
0.999659 1 1 0.999659
0.999445 1 1 0.999445
0.999671 1 1 0.999671
0.99971 1 1 0.99971
0.999505 1 1 0.999505
0.999381 1 1 0.999381
0.999496 1 1 0.999496
0.999716 1 1 0.999716
0.999967 1 1 0.999967
0.999969 1 1 0.999969
1 1 1 1
0.999969 1 1 0.999969
1 1 1 1
1 1 1 1
1 1 1 1
1 1 1 1
1 1 1 1
1 1 1 1
1 1 1 1
1 1 1 1
1 1 1 1
1 1 1 1
1 1 1 1
1.00256 1.00428 1 0.998284
1.0037 1.00548 1 0.998231
1.00778 1.00945 1 0.998353
1.01126 1.01306 1 0.99823
1.00779 1.00969 1 0.998126
1.00029 1.0021 1 0.998196
1.0071 1.00902 1 0.998104
1.01354 1.01541 1 0.998156
1.00948 1.01122 1 0.998272
1.01184 1.01361 1 0.998259
1.00666 1.00834 1 0.998329
1.01029 1.01186 1 0.998446
1.01284 1.01474 1 0.998127
1.01346 1.01526 1 0.998226
1.01207 1.01374 1 0.998353
1.01014 1.01164 1 0.998517
1.00608 1.00797 1 0.998132
1.00475 1.00655 1 0.998215
1.01122 1.01308 1 0.998167
1.00608 1.00782 1 0.998272
0.999218 1 1 0.999218
0.99898 1 1 0.99898
0.999301 1.00023 1.00058 0.998487
1.00332 1.00495 1 0.99838
1.00861 1.01015 1 0.998471
1.0047 1.00616 1 0.99855
1.00151 1.00317 1 0.998344
1.00538 1.00678 1 0.998608
0.999115 1 1 0.999115
0.999053 1 1 0.999053
0.999138 1 1 0.999138
0.999814 1 1 0.999814
0.999434 1 1 0.999434
1.0129 1.01479 1 0.998135
1.01112 1.01296 1 0.998186
1.00961 1.01127 1 0.998364
0.999084 1 1 0.999084
0.999058 1 1.00026 0.998801
1.00034 1.00131 1.00076 0.998269
1.00765 1.00918 1 0.998481
1.00416 1.00583 1 0.998343
1.00647 1.00785 1 0.998632
0.999855 1 1 0.999855
0.999074 1 1 0.999074
0.999031 1 1 0.999031
0.999007 1 1 0.999006
0.999254 1 1 0.999254
0.999516 1 1 0.999516
1.01349 1.01536 1 0.998161
1.01172 1.01348 1 0.99826
1.00978 1.01136 1 0.998438
1.00973 1.01113 1 0.998609
0.999001 1 1 0.999001
1.00438 1.00595 1 0.998444
1.00012 1 1.00165 0.998474
1.00135 1.00217 1.00104 0.998141
0.999889 1 1 0.999889
0.999601 1 1 0.999601
0.999332 1 1 0.999332
0.999056 1 1 0.999056
0.999007 1 1 0.999007
0.998943 1 1 0.998941
0.999939 1 1 0.999939
0.999566 1 1 0.999566
1.00546 1.0072 1 0.998273
0.99923 1 1 0.99923
0.999103 1 1.00007 0.999037
0.999037 1 1.00005 0.998988
1.00015 1.00169 1 0.998457
1.00379 1.00534 1 0.998457
1.00091 1 1.00226 0.998653
0.998821 1.00015 1.00027 0.998407
0.999634 1 1 0.999634
0.999312 1 1 0.999312
1.0005 1 1.00162 0.998886
0.999084 1 1.00005 0.999031
0.998958 1 1.00003 0.998929
1.00878 1.01025 1 0.998545
1.00063 1.00226 1 0.998377
1.00419 1.00566 1 0.998536
1.00304 1 1.00452 0.998529
0.998323 1.00009 1.00003 0.998203
0.999398 1 1 0.999398
0.999089 1 1 0.999089
1.00246 1 1.00371 0.998755
0.998905 1 1.00007 0.998833
1.0155 1.01691 0.999989 0.998627
1.00939 1.01089 0.999872 0.998642
1.00214 1.00394 1 0.998206
1.00254 1.00007 1.00426 0.998225
0.999673 1 1 0.999673
0.999456 1 1 0.999456
0.999322 1 1 0.999322
0.99971 1 1 0.99971
0.999481 1 1 0.999481
0.999716 1 1 0.999716
0.999363 1 1 0.999363
0.999505 1 1 0.999505
0.99926 1 1 0.99926
0.99936 1 1 0.99936
0.999499 1 1 0.999499
0.999713 1 1 0.999713
0.999963 1 1 0.999963
0.999966 1 1 0.999966
1 1 1 1
0.999969 1 1 0.999969
1 1 1 1
1 1 1 1
1 1 1 1
1 1 1 1
1 1 1 1
1 1 1 1
1 1 1 1
1 1 1 1
1 1 1 1
1 1 1 1
1 1 1 1
1.00604 1.00772 1 0.99833
1.00982 1.01158 1 0.998258
1.01031 1.01186 1 0.998468
1.01207 1.01384 1 0.998259
1.01357 1.01545 1 0.998155
1.00716 1.00907 1 0.998098
1.01279 1.01469 1 0.998132
1.01285 1.01465 1 0.998224
1.01181 1.01348 1 0.998357
1.01107 1.01258 1 0.998512
1.01391 1.01575 1 0.99819
1.01506 1.01673 1 0.99835
1.01453 1.01613 0.999954 0.998476
1.01258 1.01446 1 0.998139
1.011 1.01283 1 0.998193
1.00939 1.01105 1 0.998366
0.999081 1 1 0.999081
0.99901 1 1.00018 0.998832
1.00043 1.00132 1.00085 0.998262
1.00775 1.00929 1 0.998472
1.00603 1.00741 1 0.998628
1.0044 1.00602 1 0.998387
0.999072 1 1 0.999072
0.99905 1 1 0.99905
0.998999 1 1 0.998999
0.999858 1 1 0.999858
0.999262 1 1 0.999262
0.999497 1 1 0.999497
1.01405 1.01592 1 0.998164
1.01165 1.01341 1 0.998262
1.00966 1.01125 1 0.998425
0.998994 1 1 0.998994
0.999927 1 1.0014 0.998531
1.0014 1.00235 1.0009 0.998151
1.00993 1.01132 1 0.998625
1.00473 1.0063 1 0.998437
0.999912 1 1 0.999912
0.999601 1 1 0.999601
0.999011 1 1 0.999011
0.99897 1 1 0.99897
0.999057 1 1 0.999057
0.999317 1 1 0.999317
1.01561 1.01737 1 0.998268
1.01097 1.01336 0.999275 0.998364
1.01172 1.01357 0.999562 0.998606
1.00833 1.00968 1 0.998669
0.999733 1 1.00088 0.99885
1.00178 1.00226 1.0014 0.998126
1.00095 1 1.00264 0.998316
0.99996 1 1 0.99996
0.999727 1 1 0.999727
0.999608 1 1 0.999608
0.999361 1 1 0.999361
0.999138 1 1 0.999138
0.998926 1 1 0.998926
0.999037 1 1 0.999037
1.00314 1 1.00411 0.999031
0.999635 1 1 0.999635
0.999321 1 1 0.999321
1.00876 1.01022 1 0.998556
0.999109 1 1.00007 0.999037
1.00065 1 1.00175 0.998903
0.998949 1 1 0.998949
1.00063 1.00226 1 0.998374
1.00417 1.00557 1 0.998611
1.00329 1 1.00479 0.998513
0.998171 1 1 0.998171
0.999388 1 1 0.999388
0.999097 1 1 0.999097
1.00286 1 1.00409 0.99877
0.998921 1 1.00007 0.998851
1.01514 1.01657 0.999971 0.998624
1.00869 1.01013 0.999949 0.998628
1.00254 1.0043 1 0.998243
1.00213 1.00017 1.00377 0.9982
0.999248 1 1 0.999248
1.01545 1.01849 0.998437 0.998585
0.999331 1 1.0004 0.998928
1.00127 1 1.00268 0.998591
1.01539 1.01706 0.999638 0.998715
1.00608 1.00783 1 0.998269
1.00325 1.00195 1.00323 0.998065
0.999467 1 1 0.999467
0.999321 1 1 0.999321
0.999204 1 1 0.999204
0.999716 1 1 0.999716
0.999514 1 1 0.999514
0.999345 1 1 0.999345
0.999713 1 1 0.999713
0.999499 1 1 0.999499
0.999244 1 1 0.999244
0.999379 1 1 0.999379
0.999167 1 1 0.999167
0.999242 1 1 0.999242
0.999386 1 1 0.999386
0.999508 1 1 0.999508
0.999702 1 1 0.999702
0.999959 1 1 0.999959
0.999962 1 1 0.999962
1 1 1 1
0.999966 1 1 0.999966
1 1 1 1
1 1 1 1
1 1 1 1
1 1 1 1
1 1 1 1
0.999976 1 1 0.999976
1 1 1 1
1 1 1 1
1 1 1 1
1 1 1 1
1 1 1 1
1 1 1 1
1.01202 1.01353 1 0.998508
1.01156 1.01322 1 0.998361
1.01223 1.01403 1 0.998222
1.01275 1.01464 1 0.998137
1.01361 1.01544 1 0.9982
1.01523 1.01692 1 0.998338
1.01495 1.01653 0.999964 0.99849
1.01633 1.01804 1 0.998315
1.01823 1.02031 0.999505 0.998459
1.00838 1.01525 0.99459 0.998634
1.01461 1.01647 1 0.998167
1.01164 1.0134 1 0.998264
1.00966 1.01126 1 0.998413
0.999043 1 1.00006 0.998987
0.999848 1 1.00126 0.998588
1.00133 1.0024 1.00078 0.998161
1.01025 1.01163 1 0.99864
1.00469 1.00627 1 0.99843
0.999015 1 1 0.999015
0.998998 1 1 0.998998
0.99906 1 1 0.999058
0.999935 1 1 0.999935
0.999601 1 1 0.999601
0.999301 1 1 0.999301
1.01534 1.01708 1 0.998283
0.999956 1 1 0.999956
0.999713 1 1 0.999713
1.01078 1.01293 0.999511 0.998363
1.01288 1.01456 0.999773 0.998576
0.999729 1 1.00084 0.99889
1.00158 1 1.0033 0.998282
1.0013 1.00233 1.00084 0.998134
1.00783 1.00918 1 0.998662
0.999649 1 1 0.999649
0.999359 1 1 0.999359
0.999 1 1 0.999
1.00116 1 1.00206 0.999101
0.998907 1 1 0.998906
0.999143 1 1 0.999143
1.01703 1.01939 0.999252 0.99843
1.01373 1.0164 0.998888 0.998484
1.01112 1.01423 0.998132 0.998803
1.00271 1.00431 0.999969 0.998432
1.00119 1 1.00234 0.998846
1.00405 1.00049 1.00547 0.998102
0.999731 1 1 0.999731
0.999686 1 1 0.999686
0.999531 1 1 0.999531
0.999362 1 1 0.999362
0.99921 1 1 0.99921
0.99897 1 1 0.99897
1.00469 1 1.00586 0.998832
0.999173 1 1.00005 0.999122
0.999378 1 1 0.999378
0.999106 1 1 0.999106
1.01489 1.01634 0.999951 0.998621
1.00829 1.00969 1 0.998614
0.998898 1 1.00003 0.998868
1.00313 1 1.00435 0.998784
1.0031 1.0048 1.00004 0.99828
1.0018 1.00028 1.00335 0.998174
0.999245 1 1 0.999245
1.01529 1.01877 0.997984 0.998603
0.999202 1 1.00027 0.998935
1.00125 1 1.00268 0.99857
1.01519 1.01685 0.999669 0.998695
1.00683 1.00855 1 0.998293
1.00331 1.00176 1.00348 0.998074
0.999187 1 1.00013 0.999059
1.01776 1.02326 0.995822 0.998797
0.999194 1 1.00041 0.998784
1.00221 1.00006 1.00379 0.998363
1.00733 1.0117 0.997225 0.998451
1.00198 1.00167 1.00221 0.9981
1.00581 1.00843 0.998499 0.998901
0.99932 1 1 0.99932
0.999203 1 1 0.999203
0.999109 1 1 0.999109
0.999712 1 1 0.999712
0.9995 1 1 0.9995
0.999397 1 1 0.999397
0.999229 1 1 0.999229
0.999702 1 1 0.999702
0.999499 1 1 0.999499
0.999159 1 1 0.999159
0.999385 1 1 0.999385
0.999257 1 1 0.999257
0.99915 1 1 0.99915
0.999292 1 1 0.999292
0.999388 1 1 0.999388
0.999467 1 1 0.999467
0.99966 1 1 0.99966
0.999533 1 1 0.999533
0.999662 1 1 0.999662
0.999957 1 1 0.999957
0.999959 1 1 0.999959
1 1 1 1
0.999962 1 1 0.999962
1 1 1 1
1 1 1 1
1 1 1 1
1 1 1 1
1 1 1 1
0.999984 1 1 0.999984
0.999973 1 1 0.999973
1 1 1 1
1 1 1 1
1 1 1 1
1 1 1 1
1 1 1 1
1 1 1 1
1.01532 1.01687 0.999973 0.998503
1.01543 1.01714 1 0.998326
1.01335 1.01516 1 0.99821
1.01653 1.01825 1 0.998314
1.01751 1.01959 0.999502 0.998458
1.00963 1.01568 0.995402 0.998636
1.01579 1.01965 0.997687 0.998525
1.00787 1.01596 0.993465 0.998562
1.01645 1.02378 0.993936 0.998893
0.999786 1 1 0.999786
1.01509 1.01682 1 0.998298
1.01044 1.01237 0.99973 0.998361
1.01376 1.01533 0.999905 0.998546
0.999749 1 1.00082 0.998929
1.00226 1 1.00402 0.998248
1.00116 1.00257 1.00045 0.998141
1.00731 1.00866 1 0.998655
0.998963 1 1 0.998963
0.999185 1 1.00001 0.999171
0.998885 1 1 0.998885
0.999953 1 1 0.999953
0.999147 1 1 0.999147
0.999689 1 1 0.999689
0.999358 1 1 0.999358
0.999699 1 1 0.999699
1.01705 1.01988 0.998782 0.998436
0.99975 1 1 0.99975
0.999685 1 1 0.999685
0.999501 1 1 0.999501
1.01403 1.01686 0.998722 0.998488
1.01045 1.01328 0.998446 0.998761
1.00047 1 1.00161 0.998861
1.00384 1.00022 1.00553 0.998103
1.00282 1.00426 1.00013 0.998436
0.999383 1 1 0.999383
0.999199 1 1 0.999199
1.0004 1 1.00132 0.999074
1.00379 1 1.00493 0.998865
0.998987 1 1 0.998987
1.01303 1.01791 0.996697 0.9985
1.01334 1.01798 0.996831 0.998605
1.0064 1.00935 0.99849 0.998587
1.0043 1.00274 1.00325 0.99831
1.00356 1 1.00478 0.99879
0.999502 1 1 0.999502
0.999423 1 1 0.999423
0.99934 1 1 0.99934
0.999211 1 1 0.999211
0.999072 1 1 0.999072
1.00221 1 1.00334 0.998872
1.00662 1 1.00786 0.998771
0.999241 1 1 0.999241
0.999063 1 1.00012 0.998942
1.01515 1.01895 0.997653 0.998622
1.01482 1.01651 0.999661 0.998676
1.00726 1.00896 1 0.998318
1.00122 1 1.00267 0.998549
1.00313 1.00145 1.0036 0.998083
0.999182 1 1.0001 0.999083
1.01755 1.02356 0.99532 0.998801
0.999213 1 1.00042 0.998797
1.00243 1.00001 1.00406 0.998374
1.00822 1.01192 0.99784 0.9985
1.00249 1.00171 1.00269 0.99809
1.00629 1.00895 0.998677 0.99868
0.999077 1 1.00013 0.998952
1.0035 1.01447 0.990398 0.998777
1.00055 1 1.0018 0.99875
1.00465 1 1.00636 0.998296
1.0026 1.00328 1.00104 0.998279
0.959401 0.973217 0.994149 0.991605
0.990454 0.990908 1.00332 0.99623
0.982956 1.00224 0.981703 0.999036
0.902663 0.9283 0.97939 0.992846
0.884776 0.936797 0.951347 0.99277
0.999202 1 1 0.999202
0.999119 1 1 0.999119
0.999117 1 1 0.999117
0.999701 1 1 0.999701
0.999489 1 1 0.999489
0.999384 1 1 0.999384
0.999273 1 1 0.999273
0.999152 1 1 0.999152
0.999372 1 1 0.999372
0.999676 1 1 0.999676
0.99948 1 1 0.99948
0.999156 1 1 0.999156
0.999289 1 1 0.999289
0.999298 1 1 0.999298
0.999225 1 1 0.999225
0.999335 1 1 0.999335
0.999446 1 1 0.999446
0.999657 1 1 0.999657
0.999494 1 1 0.999494
0.999392 1 1 0.999392
0.999505 1 1 0.999505
0.99951 1 1 0.99951
0.999697 1 1 0.999697
0.999661 1 1 0.999661
0.999955 1 1 0.999955
0.999957 1 1 0.999957
1 1 1 1
0.999958 1 1 0.999958
1 1 1 1
1 1 1 1
1 1 1 1
1 1 1 1
1 1 1 1
0.999987 1 1 0.999987
0.999982 1 1 0.999982
1 1 1 1
0.99997 1 1 0.99997
1 1 1 1
1 1 1 1
1 1 1 1
1 1 1 1
1 1 1 1
1.01688 1.01895 0.999515 0.998457
1.01666 1.01837 1 0.998312
1.01074 1.01605 0.996126 0.998639
1.00825 1.01572 0.994044 0.99859
1.01536 1.01923 0.997674 0.998524
1.01812 1.02483 0.994605 0.998843
1.02126 1.02504 0.997807 0.998505
0.973774 0.984914 0.993112 0.995547
1.0144 1.01935 0.996322 0.998813
0.999796 1 1 0.999796
0.999785 1 1 0.999785
0.999566 1 1 0.999566
0.999591 1 1 0.999591
1.01717 1.0204 0.998389 0.998442
1.01452 1.01737 0.998705 0.998491
1.01002 1.01242 0.998916 0.998718
0.999648 1 1.00077 0.998877
1.00345 1 1.00536 0.998103
1.00305 1.00449 1.00013 0.99844
1.00161 1 1.00259 0.999025
1.00285 1 1.00396 0.998897
0.999004 1 1 0.999004
0.999684 1 1 0.999684
0.999188 1 1 0.999188
0.999403 1 1 0.999403
0.999769 1 1 0.999769
0.999471 1 1 0.999471
1.01161 1.01599 0.997174 0.998516
0.999534 1 1 0.999534
0.99944 1 1 0.99944
0.99934 1 1 0.99934
1.01511 1.01933 0.997244 0.998617
1.00512 1.00838 0.998186 0.998583
1.00346 1 1.00468 0.998786
1.00408 1.00295 1.00283 0.998296
0.999215 1 1 0.999215
0.999079 1 1 0.999079
1.00606 1 1.0073 0.998771
1.0031 1 1.00425 0.998852
1.0177 1.0222 0.99707 0.998518
1.00013 1.0142 0.987504 0.998604
1.00417 1.00514 1.00073 0.998305
1.00174 1 1.00306 0.998676
0.999281 1 1 0.999281
0.999257 1 1 0.999257
0.999363 1 1.00035 0.999018
1.01082 1 1.01219 0.998645
0.949137 0.970913 0.986125 0.991326
0.99918 1 1.00007 0.999107
0.999297 1 1.00049 0.99881
1.01678 1.02369 0.994437 0.998804
1.00921 1.01213 0.99857 0.998549
1.00323 1.00185 1.0033 0.99808
1.00285 1 1.00447 0.998385
1.00632 1.00929 0.998599 0.998454
0.999253 1 1.00028 0.99897
1.00273 1.01406 0.99005 0.998764
1.0001 1 1.00135 0.998758
1.0044 1 1.00611 0.998298
1.00284 1.00432 1.00023 0.998294
0.957165 0.972877 0.992077 0.991707
0.986233 0.989755 1.00142 0.995029
0.985117 1.00149 0.98455 0.999086
0.906901 0.929238 0.983334 0.992503
0.872492 0.927234 0.948359 0.9922
0.999518 1 1.00048 0.999034
0.91679 0.937987 0.985045 0.992241
0.915739 0.941198 0.97951 0.993304
0.979976 1.00493 0.976382 0.998762
1.00457 1 1.0058 0.998781
1.00933 1.00074 1.01016 0.998447
0.984924 0.998957 0.986728 0.999214
0.964724 0.972927 1.00035 0.991221
0.982077 0.981851 1.0056 0.994664
0.888728 0.92944 0.963175 0.992755
0.920675 0.964643 0.95998 0.994209
0.999129 1 1 0.999129
0.999115 1 1 0.999115
0.999225 1 1 0.999225
0.999692 1 1 0.999692
0.999492 1 1 0.999492
0.999356 1 1 0.999356
0.999286 1 1 0.999286
0.999163 1 1 0.999163
0.999657 1 1 0.999657
0.999298 1 1 0.999298
0.999351 1 1 0.999351
0.999464 1 1 0.999464
0.999218 1 1 0.999218
0.999251 1 1 0.999251
0.999428 1 1.0002 0.999231
0.999335 1 1 0.999335
0.999478 1 1 0.999478
0.999494 1 1 0.999494
0.999377 1 1 0.999377
0.999359 1 1 0.999359
0.999368 1 1 0.999368
0.999309 1 1 0.999309
0.999269 1 1 0.999269
0.999485 1 1 0.999485
0.999505 1 1 0.999505
0.999697 1 1 0.999697
0.999487 1 1 0.999487
0.999683 1 1 0.999683
0.999955 1 1 0.999955
0.99966 1 1 0.99966
0.999955 1 1 0.999955
1 1 1 1
0.999956 1 1 0.999956
1 1 1 1
1 1 1 1
1 1 1 1
1 1 1 1
1 1 1 1
0.999788 1 1 0.999788
0.999988 1 1 0.999988
0.999986 1 1 0.999986
1 1 1 1
0.99998 1 1 0.99998
1 1 1 1
1 1 1 1
1 1 1 1
1 1 1 1
1 1 1 1
1.00947 1.01579 0.995152 0.998618
1.0149 1.01892 0.997533 0.998524
1.02042 1.02607 0.995694 0.998793
0.975669 0.984158 0.995132 0.996223
1.01368 1.01907 0.995848 0.99886
1.02212 1.02655 0.997193 0.998488
1.01834 1.02298 0.996844 0.998611
0.978879 0.986526 0.995755 0.996478
0.959407 0.974005 0.994401 0.990558
0.886727 0.92252 0.969309 0.991634
0.874752 0.921526 0.956314 0.992606
0.999557 1 1 0.999557
0.999795 1 1 0.999795
0.999785 1 1 0.999785
0.999556 1 1 0.999556
0.999417 1 1 0.999417
0.999451 1 1 0.999451
0.999568 1 1 0.999568
0.999577 1 1 0.999577
1.00994 1.014 0.997466 0.998532
1.01697 1.02112 0.997304 0.998629
1.00385 1.00741 0.997884 0.998579
1.0035 1 1.00472 0.998782
1.00388 1.00288 1.00272 0.998282
1.00556 1 1.0068 0.998772
1.00412 1 1.00529 0.998833
0.999087 1 1 0.999087
0.999458 1 1 0.999458
0.999218 1 1 0.999218
0.999565 1 1 0.999565
0.99934 1 1 0.99934
1.0181 1.02286 0.996848 0.998495
0.999298 1 1 0.999298
0.999259 1 1 0.999259
1.00149 1.01273 0.990297 0.99859
1.00396 1.00571 0.999877 0.998378
1.00337 1 1.00475 0.99863
0.999834 1 1.00083 0.999008
1.00954 1 1.0109 0.99865
1.01545 1.02154 0.995587 0.998449
0.985419 1.00411 0.982788 0.998576
0.999579 1 1.00103 0.998549
1.00694 1 1.00827 0.998681
0.999193 1 1 0.999193
0.999356 1 1.00027 0.999086
1.00425 1 1.00543 0.998823
0.906501 0.939111 0.972531 0.992538
0.95558 0.972209 0.990859 0.991964
0.999369 1 1.00038 0.998988
0.99979 1 1.00103 0.998765
1.00286 1.01406 0.990194 0.998752
1.00314 1.00549 0.999353 0.99831
1.004 1 1.00571 0.9983
0.958411 0.973531 0.993938 0.990473
0.987095 0.991497 0.999794 0.995765
0.987726 1.00098 0.987613 0.999134
0.901779 0.930707 0.976619 0.992115
0.859843 0.916671 0.945927 0.991628
0.999365 1 1.00033 0.999034
0.911355 0.940805 0.975861 0.992659
0.915001 0.938459 0.981754 0.993124
0.982734 1.00571 0.978375 0.998751
1.00404 1 1.00525 0.998795
1.00868 1.00043 1.00975 0.998511
0.978157 0.99616 0.982677 0.999238
0.965618 0.974928 0.999772 0.990677
0.982667 0.984055 1.00279 0.995814
0.890299 0.926022 0.969422 0.991748
0.919286 0.964662 0.958825 0.993884
1.00055 1 1.00143 0.999127
0.933915 0.944292 0.994713 0.994268
0.983121 0.985683 1.00106 0.996341
0.987638 1.00067 0.987873 0.999097
1.00986 1.00011 1.01066 0.999095
1.00095 0.993945 1.00749 0.999564
0.974738 0.980628 0.997102 0.996882
0.966123 0.968696 1.00666 0.990744
0.912821 0.950296 0.968506 0.991801
0.943175 0.982124 0.964825 0.995353
0.999112 1 1 0.999112
0.999203 1 1 0.999203
0.999763 1 1.00042 0.999342
0.999657 1 1 0.999657
0.999482 1 1 0.999482
0.999368 1 1 0.999368
0.999298 1 1 0.999298
0.99921 1 1 0.99921
0.999477 1 1 0.999477
0.999262 1 1 0.999262
0.999334 1 1 0.999334
0.999485 1 1.00024 0.99924
0.999876 1 1.00055 0.999322
0.999338 1 1.00009 0.999252
0.999336 1 1 0.999336
0.999493 1 1 0.999493
0.999362 1 1 0.999362
0.999359 1 1 0.999359
0.999367 1 1 0.999367
0.999308 1 1 0.999308
0.999335 1 1 0.999335
0.999289 1 1 0.999289
0.999278 1 1 0.999278
0.999123 1 1 0.999123
0.999633 1 1.00068 0.998958
0.99918 1 1 0.99918
0.999267 1 1 0.999267
0.999444 1 1 0.999444
0.999484 1 1 0.999484
0.999688 1 1 0.999688
0.999505 1 1 0.999505
0.999696 1 1 0.999696
0.999955 1 1 0.999955
0.99967 1 1 0.99967
0.999955 1 1 0.999955
1 1 1 1
0.999955 1 1 0.999955
1 1 1 1
1 1 1 1
1 1 1 1
1 1 1 1
1 1 1 1
0.999804 1 1 0.999804
0.999985 1 1 0.999985
0.999788 1 1 0.999788
1 1 1 1
0.999988 1 1 0.999988
0.999986 1 1 0.999986
1 1 1 1
1 1 1 1
1 1 1 1
1 1 1 1
1 1 1 1
0.909632 0.935114 0.979819 0.992785
0.921839 0.942308 0.9844 0.993782
0.978391 0.985009 0.996581 0.99669
1.01347 1.01871 0.995943 0.998906
1.02297 1.02793 0.996708 0.998471
0.97826 0.984777 0.995812 0.997559
1.01921 1.02285 0.997808 0.998626
0.96098 0.974768 0.994088 0.991718
0.899457 0.927153 0.977348 0.992613
0.865427 0.91828 0.950019 0.992027
0.997186 1.00004 0.998865 0.99828
0.963617 0.972523 0.999243 0.991593
0.883005 0.926035 0.96064 0.992601
0.918908 0.961187 0.962282 0.993486
0.999366 1 1 0.999366
0.999569 1 1 0.999569
0.999795 1 1 0.999795
0.999547 1 1 0.999547
0.999435 1 1 0.999435
0.999393 1 1 0.999393
0.999451 1 1 0.999451
0.999486 1 1 0.999486
0.99955 1 1 0.99955
0.999562 1 1 0.999562
1.01851 1.02336 0.996784 0.998473
1.00193 1.01049 0.992943 0.998577
1.00376 1.00632 0.999003 0.998451
1.00482 1.00002 1.00622 0.998584
1.00779 1 1.00915 0.998654
1.00023 1 1.00123 0.998999
0.999261 1 1 0.999261
0.999316 1 1 0.999316
1.01374 1.02159 0.993873 0.998434
0.999187 1 1 0.999187
0.999302 1 1.00023 0.999068
0.98713 1.00381 0.984835 0.998525
0.99995 1 1.00133 0.998618
1.0063 1 1.00768 0.998625
1.00449 1 1.00569 0.998808
1.00374 1.00846 0.996671 0.998643
0.993247 1 0.994262 0.998979
1.00801 1 1.00927 0.998754
0.999177 1 1 0.999177
0.999135 1 1.00008 0.999058
1.00025 1 1.00134 0.998908
0.934641 0.947056 0.992063 0.994786
0.912157 0.938845 0.979366 0.992043
0.952627 0.973474 0.987169 0.991304
0.999034 1 1 0.999034
1.00342 1 1.00462 0.998809
0.985467 1.0063 0.980535 0.99874
1.00799 1 1.00943 0.998574
0.908535 0.939114 0.975275 0.991964
0.96463 0.973531 0.998703 0.992144
0.980817 0.985209 1.00082 0.994722
0.975505 0.994108 0.982005 0.999268
0.89341 0.925939 0.97206 0.992602
0.916801 0.94175 0.980377 0.992994
0.914663 0.962884 0.956016 0.993624
1.00098 1 1.00185 0.999127
0.933107 0.946313 0.991677 0.99432
0.984564 0.9867 1.00151 0.996327
0.990065 1.00029 0.990631 0.999137
1.00959 0.999958 1.01055 0.999087
1.0005 0.99511 1.0062 0.999214
0.975466 0.979885 1.00014 0.995349
0.963766 0.970518 1.00221 0.990856
0.916268 0.954087 0.967181 0.99295
0.935893 0.975775 0.963852 0.9951
1.0015 0.999966 1.00204 0.999494
0.983695 0.986418 0.999953 0.997287
0.988111 0.985869 1.00451 0.997774
1.00982 0.998693 1.01143 0.999715
0.987534 0.983519 1.00579 0.9983
0.968449 0.97004 1.00795 0.990485
0.945841 0.969192 0.982515 0.993274
0.946275 0.988631 0.962042 0.994922
0.999182 1 1 0.999182
0.999704 1 1.00036 0.999349
1.00075 1 1.0013 0.999451
0.999477 1 1 0.999477
0.999334 1 1 0.999334
0.999272 1 1 0.999272
0.999531 1 1.00028 0.99925
0.999336 1 1 0.999336
0.99928 1 1.00003 0.999249
1.00027 1 1.00093 0.999342
1.00031 1 1.00086 0.999455
0.999503 1 1.00021 0.999291
0.999267 1 1 0.999267
0.999358 1 1 0.999358
0.999366 1 1 0.999366
0.999307 1 1 0.999307
0.999292 1 1 0.999292
0.999333 1 1 0.999333
0.999282 1 1 0.999282
0.999231 1 1 0.999231
0.999284 1 1 0.999284
0.999113 1 1 0.999113
0.999135 1 1 0.999135
0.99968 1 1.00068 0.998998
1.00001 1 1.00125 0.998759
0.999139 1 1 0.999139
0.999484 1 1.00048 0.999009
0.999204 1 1 0.999204
0.999353 1 1 0.999353
0.999265 1 1 0.999265
0.999443 1 1 0.999443
0.999664 1 1 0.999664
0.999483 1 1 0.999483
0.999687 1 1 0.999687
0.999953 1 1 0.999953
0.999696 1 1 0.999696
0.999954 1 1 0.999954
1 1 1 1
0.999955 1 1 0.999955
1 1 1 1
1 1 1 1
1 1 1 1
1 1 1 1
1 1 1 1
0.999731 1 1 0.999731
0.999982 1 1 0.999982
0.999771 1 1 0.999771
1 1 1 1
0.999986 1 1 0.999986
0.999788 1 1 0.999788
1 1 1 1
1 1 1 1
0.999988 1 1 0.999988
1 1 1 1
1 1 1 1
1 1 1 1
0.937908 0.947823 0.994686 0.994826
0.910215 0.937106 0.978919 0.992222
0.984367 0.988208 0.999887 0.996226
0.913823 0.93668 0.981977 0.993504
0.974156 0.983602 0.994243 0.996132
1.01928 1.02274 0.997976 0.998639
0.961007 0.975329 0.992374 0.992887
0.899665 0.930328 0.975052 0.991782
0.857126 0.91592 0.943882 0.991447
0.994392 0.998845 0.997801 0.997736
0.965583 0.972792 1.00171 0.990897
0.888821 0.930354 0.963488 0.991561
0.915954 0.95975 0.960836 0.993267
0.990622 0.994766 0.998305 0.997525
0.969085 0.969743 1.00887 0.990534
0.916207 0.955226 0.966091 0.992817
0.941231 0.982844 0.962624 0.994844
0.999261 1 1 0.999261
0.999384 1 1 0.999384
0.999582 1 1 0.999582
0.999454 1 1 0.999454
0.999288 1 1 0.999288
0.999406 1 1 0.999406
0.99945 1 1 0.99945
0.999468 1 1 0.999468
0.999505 1 1 0.999505
0.999533 1 1 0.999533
1.01239 1.02227 0.991907 0.99842
0.989865 1.00388 0.987547 0.998474
1.00028 1 1.00159 0.998687
1.00615 1 1.00759 0.998569
1.005 1 1.00622 0.998794
0.999223 1 1.00017 0.999049
0.999181 1 1 0.999181
0.999179 1 1 0.999179
0.998217 1.00746 0.992149 0.998662
0.99909 1 1.00002 0.999069
1.00032 1 1.00142 0.998903
0.991352 1 0.992419 0.998925
1.00672 1 1.00798 0.998747
0.978823 0.998561 0.981126 0.999091
1.0091 1 1.00981 0.9993
1.00112 1 1.0022 0.99892
0.999095 1 1 0.999095
1.00001 1 1.0011 0.998911
0.981068 0.983492 0.999768 0.997767
0.937581 0.947111 0.994957 0.994956
0.909534 0.937617 0.977002 0.992883
1.00151 1 1.00238 0.999127
1.00939 0.999746 1.01057 0.999077
0.990996 1 0.991814 0.999175
0.939766 0.949343 0.995151 0.994736
0.970973 0.970672 1.00991 0.99049
0.97715 0.980928 0.999691 0.996455
0.99349 0.994316 1.00033 0.998837
0.915253 0.951654 0.969711 0.991791
0.985229 0.986853 1.00205 0.996314
0.931002 0.971622 0.962854 0.99516
1.00157 0.999832 1.00225 0.999491
0.98279 0.985065 1.00009 0.997595
0.990962 0.988349 1.00487 0.997785
1.0098 0.998998 1.01123 0.999583
0.986523 0.983359 1.00537 0.997859
0.970538 0.972977 1.00739 0.990181
0.947229 0.991751 0.959589 0.995331
0.932312 0.961414 0.976889 0.992671
1.00319 0.998814 1.00467 0.999711
0.987357 0.987841 1.00033 0.999178
0.998723 0.996603 1.0041 0.99804
0.94348 0.984185 0.963598 0.994855
0.999587 0.986022 1.01426 0.999501
0.977723 0.975423 1.01156 0.990906
0.923541 0.945395 0.983621 0.99315
0.999624 1 1.00027 0.999356
1.0005 1 1.00109 0.999412
1.00312 1 1.00355 0.999566
0.999336 1 1 0.999336
0.999247 1 1 0.999247
1.00074 1 1.00138 0.999363
0.99927 1 1 0.99927
0.999619 1 1.00033 0.999294
1.00069 1 1.00126 0.999429
0.99985 1 1.00035 0.999496
0.999275 1 1 0.999275
0.999295 1 1 0.999295
0.999332 1 1 0.999332
0.999286 1 1 0.999286
0.99928 1 1 0.99928
0.999239 1 1 0.999239
0.999539 1 1.00029 0.999247
0.999159 1 1 0.999159
1.00135 1 1.00254 0.998814
0.999148 1 1 0.999148
0.99953 1 1.00055 0.998985
0.99961 1 1.00099 0.998619
0.999908 1 1.00117 0.998737
0.999151 1 1.00011 0.999045
0.999848 1 1.00108 0.998768
0.99929 1 1 0.99929
0.999119 1 1 0.999119
0.999328 1 1.00027 0.999059
0.999228 1 1 0.999228
0.999374 1 1 0.999374
0.999621 1 1 0.999621
0.999442 1 1 0.999442
0.999663 1 1 0.999663
0.999948 1 1 0.999948
0.999686 1 1 0.999686
0.999952 1 1 0.999952
1 1 1 1
0.999954 1 1 0.999954
1 1 1 1
1 1 1 1
1 1 1 1
1 1 1 1
1 1 1 1
0.999635 1 1 0.999635
0.999929 1 1 0.999929
0.99973 1 1 0.99973
1 1 1 1
0.999963 1 1 0.999963
0.999738 1 1 0.999738
1 1 1 1
1 1 1 1
0.999987 1 1 0.999987
1 1 1 1
1 1 1 1
1 1 1 1
0.981726 0.984455 0.999662 0.997565
0.929939 0.946454 0.98803 0.994455
0.911144 0.935198 0.982153 0.991984
0.99941 1 1 0.99941
0.984398 0.983125 1.00325 0.99805
0.985543 0.988104 1.0012 0.996215
0.906976 0.935598 0.975977 0.993269
0.993284 0.998792 0.997348 0.99713
0.969901 0.974642 1.00371 0.991461
0.894373 0.937116 0.961678 0.99242
0.910434 0.956318 0.958629 0.993106
0.992519 0.996531 0.999983 0.99599
0.962611 0.967008 1.00454 0.99095
0.921549 0.95626 0.971015 0.992468
0.940265 0.982069 0.962662 0.994568
0.981074 0.984604 1.00143 0.994993
0.973239 0.966938 1.0172 0.989498
0.932426 0.96281 0.975952 0.992305
0.944325 0.987515 0.961151 0.994916
0.999167 1 1 0.999167
0.99925 1 1 0.99925
0.999403 1 1 0.999403
0.999282 1 1 0.999282
0.999311 1 1 0.999311
0.999419 1 1 0.999419
0.999473 1 1 0.999473
0.999523 1 1 0.999523
0.992245 1.00609 0.987542 0.998679
0.989006 1 0.990125 0.99887
0.999182 1 1 0.999182
1.00528 1 1.00654 0.998739
1.00071 1 1.00181 0.998898
0.999098 1 1.00002 0.99908
0.999099 1 1 0.999099
0.984304 1.00069 0.984509 0.9991
1.00003 1 1.00109 0.998938
1.00194 1 1.00303 0.998918
1.00437 1 1.00506 0.999312
0.999124 1 1 0.999124
0.977573 0.991955 0.985997 0.999497
1.0122 0.999129 1.01363 0.999454
0.999843 1 1.00083 0.999017
0.999056 1 1 0.999056
0.987229 0.988517 0.99935 0.999347
0.980836 0.983248 0.999741 0.997805
0.941605 0.947576 0.99856 0.995131
1.00147 0.999796 1.00219 0.99949
1.01084 0.999474 1.01192 0.999454
0.981854 0.983924 0.999995 0.997902
0.975914 0.971202 1.01423 0.990754
0.984533 0.980657 1.00779 0.996193
0.936491 0.964201 0.97905 0.992044
0.993236 0.990211 1.00527 0.997796
0.949676 0.996273 0.957308 0.995738
1.00355 0.999021 1.00486 0.999678
0.986035 0.986886 0.999948 0.99919
0.997647 0.995248 1.00404 0.998378
1.00745 0.992391 1.01525 0.999924
0.941373 0.983257 0.962633 0.994566
0.973467 0.972327 1.01044 0.990831
0.932205 0.958554 0.980304 0.992051
1.00734 0.996074 1.01155 0.999771
0.996745 0.996522 1.00079 0.999438
0.985315 0.984853 1.00241 0.99806
0.919536 0.963089 0.961006 0.993519
0.931701 0.9648 0.973314 0.992172
0.987544 0.982074 1.00606 0.999515
0.978618 0.968885 1.02031 0.989944
1.00026 1 1.00089 0.999374
1.00205 0.999823 1.00268 0.99955
1.00616 0.994035 1.01262 0.999582
0.999273 1 1 0.999273
0.999662 1 1.00037 0.999296
1.00094 1 1.00154 0.999403
0.99927 1 1 0.99927
0.999929 1 1.00043 0.999496
1.005 0.99929 1.00637 0.999344
0.999276 1 1 0.999276
0.999248 1 1 0.999248
1.00006 1 1.00084 0.999221
1.00619 1 1.00729 0.99891
0.999206 1 1 0.999206
1.00081 1 1.00195 0.998869
1.00262 1 1.00413 0.998496
1.00027 1 1.00188 0.998394
0.99936 1 1.00039 0.998972
0.999669 1 1.00109 0.998579
0.999338 1 1.00053 0.998813
1.00003 1 1.00108 0.998949
0.999805 1 1.00104 0.99877
0.999222 1 1 0.999222
0.999213 1 1.00017 0.999041
0.999731 1 1.00095 0.998777
0.999554 1 1 0.999554
0.999283 1 1 0.999283
0.999098 1 1 0.999098
0.999394 1 1 0.999394
0.999619 1 1 0.999619
0.999936 1 1 0.999936
0.999662 1 1 0.999662
0.999945 1 1 0.999945
1 1 1 1
0.99995 1 1 0.99995
1 1 1 1
1 1 1 1
1 1 1 1
1 1 1 1
1 1 1 1
0.999597 1 1 0.999597
0.999897 1 1 0.999897
0.999654 1 1 0.999654
1 1 1 1
0.999927 1 1 0.999927
0.999728 1 1 0.999728
1 1 1 1
1 1 1 1
0.999944 1 1 0.999944
1 1 1 1
1 1 1 1
1 1 1 1
0.984381 0.985218 0.99998 0.999171
0.98138 0.984058 0.999705 0.997572
0.930117 0.947284 0.987318 0.99449
0.999419 1 1 0.999419
0.999382 1 1 0.999382
0.999303 1 1 0.999303
0.997704 0.995232 1.00445 0.998038
0.985985 0.984069 1.00389 0.998068
0.986455 0.988031 1.00221 0.996205
0.998601 0.996917 1.0045 0.997196
0.964028 0.967739 1.00562 0.990603
0.916178 0.951137 0.971168 0.991842
0.942926 0.984495 0.962964 0.994613
0.976693 0.979788 1.00052 0.996327
0.968233 0.966667 1.0112 0.990528
0.930436 0.957023 0.978749 0.993328
0.946422 0.99106 0.959443 0.995327
0.967453 0.974011 0.997414 0.995842
0.981032 0.972157 1.01863 0.990673
0.92435 0.944374 0.985515 0.993183
0.942144 0.980862 0.965045 0.995318
0.999159 1 1 0.999159
0.999165 1 1 0.999165
0.99924 1 1 0.99924
0.99928 1 1 0.99928
0.999334 1 1 0.999334
0.999478 1 1 0.999478
0.990506 1.00279 0.988632 0.999109
0.999759 1 1.00043 0.999324
0.999102 1 1 0.999102
1.00221 1 1.0033 0.998916
0.999973 1 1.00101 0.998966
0.99911 1 1 0.99911
0.999193 1 1.00013 0.999063
0.987868 0.995036 0.993301 0.999491
1.00014 1 1.00107 0.999071
1.00821 0.996432 1.01234 0.99948
0.99915 1 1 0.99915
1.0038 0.987059 1.01723 0.99974
0.993502 0.993397 1.00051 0.999594
0.999352 1 1.00017 0.999179
0.999768 1.00062 0.999502 0.999647
0.987239 0.988487 0.999306 0.99943
0.980675 0.982938 0.999855 0.997842
1.00386 0.999226 1.005 0.999644
1.00267 0.993864 1.0091 0.999763
0.984914 0.98611 0.999586 0.999201
0.97867 0.972402 1.01309 0.99344
0.936629 0.957167 0.985022 0.993422
0.996933 0.994038 1.0042 0.998717
0.943775 0.985589 0.962748 0.994626
1.0068 0.996886 1.01016 0.999788
0.996515 0.99657 1.00044 0.999506
0.987138 0.985762 1.00333 0.998078
0.986311 0.978609 1.01029 0.997601
0.916624 0.96145 0.959797 0.993312
0.927951 0.960082 0.973161 0.99319
0.988951 0.974499 1.02437 0.990685
1.01072 0.985489 1.02574 0.999863
0.985098 0.985963 0.999939 0.999183
0.985454 0.989694 0.999451 0.996263
0.873816 0.921406 0.955336 0.992688
0.917392 0.956015 0.966515 0.992846
0.981743 0.973703 1.01781 0.99061
0.961009 0.973066 0.990748 0.996832
1.00086 0.999535 1.00179 0.999534
1.00904 0.995832 1.01369 0.999586
1.01902 0.999203 1.02031 0.999529
0.999265 1 1 0.999265
1.00005 1 1.00055 0.999497
1.00447 0.999681 1.00541 0.999377
1.01544 1 1.01638 0.999072
1.00054 1 1.00135 0.999195
1.00629 1 1.00745 0.99885
1.01251 1 1.01413 0.998404
1.00037 1 1.00145 0.998924
1.00345 1 1.00497 0.998484
1.00323 1 1.00508 0.998155
1.00048 1.00045 1.00191 0.998125
0.999704 1 1.00108 0.998628
1.00026 1 1.00189 0.99837
0.999764 1 1.00123 0.99854
0.999879 1 1.00094 0.998937
0.99934 1 1.00048 0.998861
0.999805 1 1.00072 0.999089
1.00007 1 1.0011 0.998973
0.999661 1 1.00086 0.998802
0.99946 1 1 0.99946
0.999224 1 1 0.999224
0.999264 1 1.00023 0.999038
0.999907 1 1 0.999907
0.999553 1 1 0.999553
0.999276 1 1 0.999276
0.999618 1 1 0.999618
0.999932 1 1 0.999932
1 1 1 1
0.999943 1 1 0.999943
1 1 1 1
1 1 1 1
1 1 1 1
1 1 1 1
1 1 1 1
0.999595 1 1 0.999595
0.999916 1 1 0.999916
0.99961 1 1 0.99961
1 1 1 1
0.99992 1 1 0.99992
0.999673 1 1 0.999673
1 1 1 1
1 1 1 1
0.999926 1 1 0.999926
1 1 1 1
1 1 1 1
1 1 1 1
0.99741 0.996494 1.00148 0.999437
0.98633 0.986726 1.00042 0.999183
0.981374 0.983578 1.00018 0.997583
0.999364 1 1 0.999364
0.999274 1 1 0.999274
0.999427 1 1 0.999427
0.99938 1 1 0.99938
0.999288 1 1 0.999288
0.999288 1 1 0.999288
0.999216 1 1 0.999216
0.98778 0.985221 1.00485 0.997762
0.995869 0.99345 1.00406 0.998377
0.987477 0.985004 1.00443 0.998086
0.950063 0.995836 0.95812 0.995738
0.970473 0.975598 0.999638 0.995108
0.974134 0.970533 1.0122 0.991612
0.93286 0.953105 0.986572 0.992081
0.967361 0.974554 0.997361 0.995246
0.972558 0.967881 1.01458 0.990389
0.93429 0.959077 0.981728 0.992287
0.935733 0.975674 0.963829 0.995056
0.960084 0.971001 0.992156 0.996574
0.971021 0.970348 1.01062 0.99018
0.948961 0.971493 0.98341 0.993286
0.918962 0.963634 0.95928 0.994124
0.999197 1 1 0.999197
0.999158 1 1 0.999158
0.999162 1 1 0.999162
0.999278 1 1 0.999278
0.996853 0.998015 0.999349 0.999486
1.00474 0.994106 1.0112 0.999505
0.999096 1 1 0.999096
0.99924 1 1.00017 0.99907
1.00056 1 1.00144 0.999125
0.999145 1 1 0.999145
0.999251 1 1.00008 0.999166
0.999341 0.985556 1.01456 0.999438
0.99471 0.994545 1.0005 0.999669
0.999208 1 1 0.999208
1.00553 0.982425 1.02406 0.999478
1.00163 0.996857 1.00542 0.999371
0.987554 0.988428 0.999753 0.999363
0.998128 0.99896 0.999468 0.9997
0.987396 0.988538 0.999332 0.999513
1.00658 0.9979 1.0089 0.999805
0.987793 0.978605 1.0099 0.999497
0.995779 0.99646 0.999743 0.999573
0.977071 0.968665 1.01876 0.990105
0.930854 0.95544 0.982187 0.991937
0.98872 0.986697 1.00396 0.998095
0.911865 0.957798 0.958606 0.993154
1.01485 0.986746 1.02863 0.99986
0.986537 0.98715 1.00018 0.999196
0.986618 0.98964 1.0007 0.996252
0.964406 0.975053 0.990483 0.998585
0.866086 0.918927 0.94999 0.992112
0.919155 0.955247 0.969538 0.992449
0.983903 0.972689 1.02084 0.990882
1.00073 0.985199 1.01615 0.99962
0.983478 0.98581 1.00004 0.997598
0.923084 0.943316 0.984592 0.993866
0.885246 0.926394 0.962615 0.992695
0.975027 0.968215 1.01647 0.990723
0.954805 0.971044 0.98754 0.995682
1.0127 0.998263 1.01487 0.99959
1.01853 0.997737 1.02132 0.999522
1.01315 1 1.01376 0.999394
1.00404 1 1.00463 0.99941
1.01533 0.999819 1.01641 0.999118
1.00958 1 1.01104 0.998557
1.00651 1 1.00773 0.998789
1.01193 1 1.01358 0.998364
1.00621 1.00016 1.00799 0.998078
1.00422 1 1.00575 0.998471
1.00337 1 1.00526 0.998119
1.00274 1.00144 1.00331 0.997995
0.999992 1.00189 1 0.998107
0.999065 1 1.00077 0.9983
1.00057 1.00031 1.00218 0.998084
0.998929 1 1.00013 0.998803
0.999402 1 1.00074 0.99866
1.00024 1 1.0019 0.998347
0.999652 1 1.00067 0.998978
0.999943 1 1.00101 0.99893
0.999334 1 1.00043 0.998908
0.99933 1 1 0.99933
0.999635 1 1.00052 0.999112
1.00013 1 1.00113 0.998996
0.999839 1 1 0.999839
0.999461 1 1 0.999461
0.999226 1 1 0.999226
1 1 1 1
0.999902 1 1 0.999902
0.999552 1 1 0.999552
0.999928 1 1 0.999928
1 1 1 1
1 1 1 1
1 1 1 1
1 1 1 1
1 1 1 1
0.999361 1 1 0.999361
0.999563 1 1 0.999563
0.999896 1 1 0.999896
0.999595 1 1 0.999595
1 1 1 1
0.99992 1 1 0.99992
0.999623 1 1 0.999623
1 1 1 1
1 1 1 1
0.999943 1 1 0.999943
1 1 1 1
1 1 1 1
1 1 1 1
0.987864 0.98724 1.00144 0.999191
0.9968 0.996354 1.00094 0.999505
0.988239 0.988255 1.00079 0.999196
0.999372 1 1 0.999372
0.999262 1 1 0.999262
0.999208 1 1 0.999208
0.999262 1 1 0.999262
0.999198 1 1 0.999198
0.999378 1 1 0.999378
0.999273 1 1 0.999273
0.999288 1 1 0.999288
0.999211 1 1 0.999211
0.999236 1 1 0.999236
0.981543 0.984271 1.00094 0.99629
0.990164 0.987221 1.00522 0.997776
0.993973 0.991461 1.00382 0.998716
0.931905 0.972696 0.962758 0.995124
0.935397 0.954597 0.986301 0.993496
0.958985 0.968656 0.995419 0.994573
0.977635 0.974729 1.01253 0.990566
0.961738 0.971798 0.994561 0.99506
0.983528 0.977618 1.01569 0.990501
0.935104 0.963691 0.977376 0.992798
0.918487 0.964024 0.958723 0.993784
0.978287 0.977235 1.00529 0.995806
0.973719 0.973945 1.00906 0.990795
0.912137 0.950421 0.967714 0.991739
0.883317 0.936159 0.950583 0.992606
0.999406 1 1 0.999406
0.999198 1 1 0.999198
0.999157 1 1 0.999157
0.995403 0.983606 1.01287 0.999134
0.994843 0.994643 1.00045 0.999748
0.99914 1 1 0.99914
0.999239 1 1.00009 0.999153
0.99925 1 1.00003 0.999217
1.00241 0.997691 1.00537 0.999364
1.00344 0.98183 1.02253 0.999499
1.00373 1 1.00435 0.999383
1.00357 0.989574 1.01491 0.99925
0.982376 0.984612 1 0.997729
0.987723 0.988555 0.999712 0.999446
0.996449 0.997288 0.999407 0.999752
1.01803 0.987273 1.03131 0.999855
0.966241 0.977382 0.992283 0.99629
0.988076 0.988356 1.00051 0.999208
0.976632 0.972834 1.01502 0.98905
0.915696 0.950494 0.971294 0.991861
0.987531 0.989634 1.00164 0.996241
0.859369 0.917378 0.944763 0.991536
1.00005 0.984504 1.01612 0.999675
0.983387 0.985756 0.999992 0.997605
0.915007 0.937761 0.982032 0.993588
0.955125 0.972296 0.98576 0.996529
0.890484 0.930682 0.964856 0.991659
0.965016 0.965804 1.0093 0.989973
0.980735 0.985515 0.996002 0.999144
0.938894 0.948555 0.994886 0.994903
0.888853 0.923331 0.970691 0.991726
0.97318 0.97197 1.01076 0.990588
0.969089 0.976035 0.996208 0.996663
1.01739 0.996168 1.0218 0.999515
1.01525 0.999849 1.01603 0.999381
0.993271 1 0.994269 0.998996
1.01515 0.999699 1.0163 0.999165
1.00982 1.00011 1.01111 0.998618
1.00233 1.00132 1.00272 0.998307
1.01118 1 1.01288 0.998325
1.00516 1.00026 1.00683 0.998087
0.999593 1.00139 1.00003 0.998167
1.0034 1 1.00532 0.998084
1.00294 1.00238 1.00255 0.998008
1.00327 1.00508 1 0.998197
1.00291 1.00463 1 0.998293
0.999526 1.00133 1.00002 0.998178
1.00013 1.00202 1 0.998118
0.998526 1 1 0.998526
0.999335 1 1.00107 0.998262
1.00065 1.00018 1.00244 0.998044
0.998938 1 1 0.998938
0.998865 1 1.00002 0.998841
0.999009 1 1.00032 0.998691
0.999196 1 1 0.999196
0.999765 1 1.00078 0.99899
1.00002 1 1.00109 0.998922
0.999716 1 1 0.999716
0.99933 1 1 0.99933
0.999469 1 1.00033 0.999135
1 1 1 1
0.999835 1 1 0.999835
0.999461 1 1 0.999461
1 1 1 1
1 1 1 1
0.999898 1 1 0.999898
1 1 1 1
1 1 1 1
1 1 1 1
0.999299 1 1 0.999299
0.999524 1 1 0.999524
0.999351 1 1 0.999351
0.999881 1 1 0.999881
0.999563 1 1 0.999563
1 1 1 1
0.999899 1 1 0.999899
0.999594 1 1 0.999594
1 1 1 1
1 1 1 1
0.999924 1 1 0.999924
1 1 1 1
1 1 1 1
1 1 1 1
0.984573 0.986635 1 0.99791
0.986672 0.986469 1.001 0.999203
0.995753 0.996112 1.00007 0.999573
0.9992 1 1 0.9992
0.99938 1 1 0.99938
0.99925 1 1 0.99925
0.999274 1 1 0.999274
0.99922 1 1 0.99922
0.999193 1 1 0.999193
0.999138 1 1 0.999138
0.999179 1 1 0.999179
0.999289 1 1 0.999289
0.999206 1 1 0.999206
0.999231 1 1 0.999231
0.999263 1 1 0.999263
0.914914 0.940065 0.979905 0.993204
0.983006 0.985315 1.00139 0.996274
0.991829 0.98847 1.00562 0.997791
0.914071 0.962441 0.955948 0.993508
0.941613 0.968706 0.979555 0.99232
0.971398 0.970171 1.01115 0.990224
0.964158 0.97096 0.996904 0.996078
0.978659 0.976785 1.00477 0.997164
0.871863 0.926953 0.948101 0.992054
0.977391 0.972474 1.01537 0.989844
0.914282 0.953042 0.966291 0.992796
0.975062 0.979503 0.998052 0.997409
0.969425 0.967079 1.0113 0.991225
0.885804 0.927677 0.96208 0.992499
1.00005 1 1.00041 0.999648
0.999408 1 1 0.999408
0.9992 1 1 0.9992
1.00422 0.984269 1.02076 0.999514
1.00394 0.999195 1.0054 0.999357
0.999276 1 1.00005 0.999226
1.00403 1 1.00465 0.999385
1.00233 0.989771 1.01341 0.999285
1.00515 0.996344 1.00939 0.999452
0.934812 0.947105 0.992807 0.994171
0.982487 0.984351 0.999986 0.99812
0.98804 0.988766 0.999735 0.999529
0.998758 0.983329 1.01596 0.99973
0.95497 0.974253 0.983004 0.997155
0.983465 0.985653 1.00017 0.997614
0.971567 0.9685 1.01163 0.991636
0.89748 0.9385 0.963504 0.992515
0.90711 0.936047 0.975569 0.993355
0.980113 0.986251 0.994578 0.999193
0.930614 0.946976 0.988125 0.994531
0.901526 0.927272 0.979367 0.992717
0.968669 0.973169 1.00022 0.995162
0.964142 0.969383 1.00367 0.990955
0.970016 0.992083 0.97836 0.999383
0.91009 0.936036 0.979268 0.992866
0.965799 0.973392 1.00084 0.991369
0.981545 0.98671 0.999816 0.994949
1.01805 0.999637 1.01906 0.999368
0.989701 1 0.990637 0.999054
0.981916 1.00151 0.981634 0.998782
1.0103 1.00013 1.01151 0.99868
1.00259 1.0015 1.00279 0.998303
1.00059 1.00266 0.999428 0.998501
1.00423 1.00034 1.0058 0.998096
0.999516 1.00096 1.00038 0.998182
1.00634 1.00785 1 0.998501
1.00319 1.00331 1.00186 0.998021
1.00315 1.00495 1 0.998202
1.00693 1.00842 1 0.99852
1.0062 1.00768 1 0.998528
1.00167 1.00339 1 0.998286
1.00306 1.00475 1 0.998312
0.999203 1.00084 1 0.998361
0.999682 1.00148 1 0.998207
1.00024 1.00212 1 0.998128
0.998794 1 1 0.998794
0.998679 1.00001 1.00014 0.998533
0.999699 1 1.00148 0.998224
0.999111 1 1 0.999111
0.998934 1 1 0.998934
0.998879 1 1 0.998879
0.999569 1 1 0.999569
0.999199 1 1 0.999199
0.999875 1 1.00087 0.999001
1 1 1 1
0.999713 1 1 0.999713
0.99933 1 1 0.99933
1 1 1 1
1 1 1 1
0.999831 1 1 0.999831
1 1 1 1
1 1 1 1
1 1 1 1
0.999282 1 1 0.999282
0.999301 1 1 0.999301
0.99947 1 1 0.99947
0.999861 1 1 0.999861
0.999524 1 1 0.999524
0.999341 1 1 0.999341
1 1 1 1
0.999883 1 1 0.999883
0.999563 1 1 0.999563
1 1 1 1
1 1 1 1
0.999902 1 1 0.999902
1 1 1 1
1 1 1 1
1 1 1 1
0.933702 0.944533 0.9942 0.9943
0.983452 0.985498 0.999999 0.997925
0.985664 0.985899 1.00055 0.999215
0.999188 1 1 0.999188
0.999155 1 1 0.999155
0.999133 1 1 0.999133
0.999286 1 1 0.999286
0.999232 1 1 0.999232
0.999188 1 1 0.999188
0.999177 1 1 0.999177
0.999136 1 1 0.999136
0.999069 1 1 0.999069
0.999242 1 1 0.999242
0.999226 1 1 0.999226
0.999262 1 1 0.999262
0.899238 0.926187 0.978089 0.992653
0.912437 0.936558 0.981091 0.993022
0.984687 0.986513 1.00189 0.996261
0.860029 0.916977 0.945935 0.991502
0.912847 0.950127 0.968793 0.991711
0.983178 0.978503 1.01292 0.991962
0.981915 0.975201 1.01128 0.99565
0.971682 0.976258 0.999311 0.995999
0.887376 0.924913 0.967589 0.991554
0.965811 0.96568 1.00882 0.991394
0.97384 0.977506 0.999875 0.996374
0.967662 0.972423 1.00427 0.990871
1.00741 1 1.00819 0.999234
0.999887 1 1.00027 0.99962
0.99941 1 1 0.99941
0.998341 0.987274 1.0119 0.999319
1.00433 1 1.00494 0.999389
1.00595 0.997432 1.00918 0.999366
1.00011 1.00067 1.00065 0.998794
0.906608 0.94 0.971665 0.992601
0.938044 0.947335 0.99552 0.994649
0.982724 0.984273 0.999916 0.99851
0.978651 0.986896 0.992383 0.999257
0.967991 0.972623 0.999117 0.996118
0.931228 0.947747 0.987939 0.994566
0.9674 0.96933 1.00742 0.990662
0.902744 0.932153 0.976391 0.991867
0.973402 0.992586 0.981516 0.999141
0.911422 0.937915 0.979316 0.992278
0.968329 0.974345 1.00303 0.990823
0.983748 0.984181 1.00335 0.99622
0.987171 0.998843 0.989139 0.999166
0.959477 0.974952 0.993633 0.990433
0.988384 0.992123 0.999275 0.996955
0.986071 1 0.986946 0.999113
0.982498 1.00151 0.982236 0.998763
0.982766 1.00392 0.980193 0.998714
1.00261 1.00176 1.00256 0.998299
1.00025 1.00311 0.998648 0.998496
1.00655 1.01052 0.997227 0.998848
0.999432 1.00052 1.00071 0.998197
1.00644 1.00795 1 0.998497
1.01206 1.01329 1 0.998786
1.00304 1.00484 1 0.998207
1.00635 1.00784 1 0.99852
1.00826 1.00955 1 0.998718
1.00638 1.00774 1 0.998654
1.00606 1.00751 1 0.998554
1.00405 1.00558 1 0.998483
1.00043 1.00206 1 0.998375
1.00198 1.00369 1 0.998289
1.00319 1.00487 1 0.99833
0.998798 1.00022 1 0.998574
0.999249 1.00086 1 0.998391
0.999906 1.00167 1 0.998235
0.999012 1 1 0.999012
0.998788 1 1 0.998788
0.998712 1 1.00017 0.99854
0.999457 1 1 0.999457
0.999111 1 1 0.999111
0.998931 1 1 0.998931
0.999989 1 1 0.999989
0.999569 1 1 0.999569
0.999201 1 1 0.999201
1 1 1 1
0.999998 1 1 0.999998
0.99971 1 1 0.99971
1 1 1 1
1 1 1 1
1 1 1 1
0.99922 1 1 0.99922
0.999269 1 1 0.999269
0.999413 1 1 0.999413
0.999304 1 1 0.999304
0.99947 1 1 0.99947
0.999822 1 1 0.999822
1 1 1 1
0.999863 1 1 0.999863
0.999524 1 1 0.999524
1 1 1 1
1 1 1 1
0.999885 1 1 0.999885
1 1 1 1
1 1 1 1
1 1 1 1
0.916697 0.937316 0.985646 0.992244
0.933125 0.946049 0.992283 0.99401
0.98195 0.983979 1 0.997938
0.999177 1 1 0.999177
0.999115 1 1 0.999115
0.999172 1 1 0.999172
0.999075 1 1 0.999075
0.999086 1 1 0.999086
0.999176 1 1 0.999176
0.999134 1 1 0.999134
0.999079 1 1 0.999079
0.999014 1 1 0.999014
0.9991 1 1 0.9991
0.998983 1.00005 1.00026 0.998679
0.999275 1 1.00001 0.999263
0.999262 1 1 0.999262
0.96556 0.978466 0.996629 0.990148
0.903353 0.927129 0.981885 0.992332
0.913995 0.939018 0.980323 0.992889
0.887843 0.924647 0.967558 0.992392
0.97193 0.96736 1.01528 0.989604
0.973944 0.974845 1.00157 0.997509
0.976872 0.980108 0.999496 0.997201
0.968154 0.973833 1.00283 0.991365
0.986234 0.995812 0.994133 0.996227
1.00469 1.00132 1.00488 0.998494
1.00587 1 1.00666 0.999217
0.999592 1 1 0.999592
1.00629 0.998975 1.00804 0.999288
0.999677 1.00101 0.999922 0.998744
0.949906 0.97285 0.984977 0.991309
0.912223 0.939684 0.978471 0.992137
0.942288 0.947811 0.999036 0.995131
0.977105 0.993677 0.984416 0.99889
0.981219 0.98109 1.00516 0.994998
0.911916 0.936646 0.981434 0.992015
0.971677 0.975067 1.00526 0.991314
0.985789 1.00005 0.986579 0.999153
0.96105 0.975623 0.993467 0.991541
0.989911 0.994008 1.00026 0.995622
1.0012 1.00575 0.996767 0.998708
0.992899 0.996936 0.998023 0.997924
0.982789 1.00163 0.982422 0.998745
0.985198 1.00345 0.983116 0.998672
1.00355 1.01778 0.987259 0.998749
1.00013 1.00352 0.998123 0.998491
1.00517 1.00917 0.997193 0.99884
1.01266 1.01716 0.996645 0.998922
1.00648 1.008 1 0.998493
1.01235 1.01366 0.999935 0.998772
1.0112 1.01241 0.999987 0.998815
1.00581 1.0073 1 0.998519
1.00837 1.00968 1 0.998706
1.00707 1.00839 1 0.998698
1.0066 1.00793 1 0.998683
1.00471 1.00616 1 0.998564
1.00597 1.0074 1 0.998581
1.00395 1.00548 1 0.998478
1.00134 1.00289 1 0.998453
0.998747 1.00026 1 0.998487
1.00035 1.00198 1 0.998369
1.00219 1.0039 1 0.998292
0.998864 1 1 0.998864
0.998766 1.00017 1 0.998595
0.99928 1.00086 1 0.998421
0.99937 1 1 0.99937
0.999008 1 1 0.999008
0.998783 1 1 0.998783
0.999955 1 1 0.999955
0.999458 1 1 0.999458
0.999112 1 1 0.999112
1 1 1 1
0.99998 1 1 0.99998
0.999569 1 1 0.999569
1 1 1 1
0.999995 1 1 0.999995
1 1 1 1
0.999104 1 1 0.999104
0.99922 1 1 0.99922
0.999319 1 1 0.999319
0.999257 1 1 0.999257
0.999396 1 1 0.999396
0.999744 1 1 0.999744
0.99947 1 1 0.99947
0.999824 1 1 0.999824
1 1 1 1
1 1 1 1
1 1 1 1
0.999865 1 1 0.999865
1 1 1 1
1 1 1 1
1 1 1 1
0.963388 0.976778 0.99475 0.991498
0.910715 0.939634 0.976321 0.99273
0.939172 0.949095 0.995434 0.994083
0.999098 1 1 0.999098
0.999189 1 1 0.999189
0.999095 1 1 0.999095
0.99908 1 1 0.99908
0.998938 1 1 0.998938
0.999063 1 1 0.999063
0.999088 1 1 0.999088
0.998969 1 1 0.998969
0.999101 1 1.00003 0.999074
0.998886 1 1 0.998886
1.00069 1.00195 1 0.998741
0.999248 1.00093 1.00011 0.998204
0.999347 1.00056 1.00006 0.998727
0.999338 1 1.00005 0.999285
0.983996 0.992986 0.994518 0.996409
0.964967 0.976675 0.996959 0.991026
0.898106 0.928349 0.975372 0.991851
0.974202 0.975133 1.00845 0.990673
0.974371 0.981277 0.99505 0.997901
0.990542 0.996585 0.996251 0.997677
0.995991 1.00469 0.992662 0.998668
1.00194 1.00067 1.00268 0.998589
1.00482 1 1.00563 0.999199
0.997735 1.00112 0.997932 0.998684
0.979828 0.98635 0.997143 0.996234
0.957181 0.973373 0.991369 0.991926
0.908634 0.938165 0.97539 0.99296
0.986009 1.00142 0.985467 0.999136
0.995355 0.994374 1.00436 0.996642
0.961129 0.975955 0.992063 0.992687
0.99522 1.00444 0.992092 0.998718
0.991042 0.996519 0.997094 0.997403
1.01038 1.02017 0.991891 0.9985
1.00807 1.01454 0.995143 0.998468
0.987611 1.00288 0.986126 0.99863
1.00518 1.0177 0.988948 0.998743
1.01231 1.02039 0.993334 0.99874
1.00385 1.00803 0.997017 0.998832
1.01282 1.01682 0.997151 0.998912
1.01167 1.01454 0.998441 0.998726
1.01269 1.01408 0.999875 0.998759
1.01068 1.01195 0.999938 0.998802
1.0084 1.0098 1 0.998613
1.0084 1.00972 1 0.998694
1.00669 1.00799 1 0.998704
1.00583 1.00732 1 0.998528
1.00679 1.00809 1 0.998712
1.00449 1.00591 1 0.998583
1.00141 1.00294 1 0.998473
1.00387 1.00541 1 0.998473
1.00125 1.00281 1 0.998448
0.999108 1.00059 1 0.998517
0.998715 1 1 0.998715
0.9988 1.00029 1 0.998506
1.00033 1.00197 1 0.998363
0.999257 1 1 0.999257
0.998863 1 1 0.998863
0.998747 1.00013 1 0.998616
0.999902 1 1 0.999902
0.999369 1 1 0.999369
0.999004 1 1 0.999004
1 1 1 1
0.999943 1 1 0.999943
0.99946 1 1 0.99946
1 1 1 1
0.999972 1 1 0.999972
1 1 1 1
0.998978 1 1 0.998978
0.999115 1 1 0.999115
0.999227 1 1 0.999227
0.999221 1 1 0.999221
0.999307 1 1 0.999307
0.999636 1 1 0.999636
0.99938 1 1 0.99938
0.999745 1 1 0.999745
1 1 1 1
0.999825 1 1 0.999825
1 1 1 1
1 1 1 1
1 1 1 1
1 1 1 1
1 1 1 1
0.976548 0.986272 0.993574 0.996545
0.957641 0.97459 0.991356 0.991177
0.907658 0.938231 0.975235 0.99198
0.998966 1.00021 1 0.998755
0.999103 1 1 0.999103
0.999085 1 1 0.999085
0.999055 1 1 0.999055
0.998948 1 1.00002 0.998929
0.999056 1 1 0.999056
0.998924 1 1 0.998924
0.999071 1 1.00002 0.999049
0.998924 1 1 0.998924
0.999988 1.00124 1 0.998745
1.00091 1.0026 1 0.998309
1.00375 1.0058 0.999965 0.997995
0.999915 1.00161 1.00013 0.998177
0.999888 1.00111 1 0.998776
1.00045 1.00636 0.995096 0.999023
0.984977 0.99446 0.994638 0.995803
0.968455 0.977975 0.99819 0.992062
0.988894 0.995547 0.996779 0.996527
1.00082 1.0065 0.995546 0.998811
1.00091 1.0002 1.00203 0.998685
1.00384 1.00668 0.998541 0.998631
0.979247 0.985183 0.996718 0.997248
0.954617 0.973818 0.988824 0.991362
0.988639 1.00273 0.987208 0.998727
0.9905 0.996224 0.997436 0.996809
1.00989 1.02059 0.990997 0.998501
1.00768 1.01263 0.996548 0.99856
1.01724 1.02444 0.994497 0.998474
1.01389 1.01726 0.998263 0.998419
1.00688 1.01747 0.990837 0.998737
1.01372 1.02145 0.993672 0.998749
1.00844 1.01345 0.996466 0.998591
1.01288 1.01633 0.997704 0.998902
1.01287 1.0154 0.998787 0.998724
1.00894 1.01073 0.999744 0.998483
1.01021 1.01155 0.999883 0.99879
1.00832 1.0097 1 0.998632
1.00767 1.00928 1 0.998404
1.00634 1.00764 1 0.99871
1.00548 1.00697 1 0.998528
1.00295 1.00455 1 0.998411
1.00427 1.00568 1 0.998601
1.00156 1.00308 1 0.99848
0.999065 1.00059 1 0.998473
1.00114 1.0027 1 0.998443
0.999078 1.00058 1 0.998502
0.998675 1 1 0.998675
0.999143 1 1 0.999143
0.998736 1 1 0.998736
0.998841 1.00032 1 0.998525
0.999833 1 1 0.999833
0.999256 1 1 0.999256
0.998862 1 1 0.998862
1 1 1 1
0.999891 1 1 0.999891
0.999368 1 1 0.999368
1 1 1 1
0.999932 1 1 0.999932
1 1 1 1
0.998795 1 1 0.998795
0.998981 1 1 0.998981
0.999126 1 1 0.999126
0.999126 1 1 0.999126
0.999233 1 1 0.999233
0.999532 1 1 0.999532
0.999296 1 1 0.999296
0.999636 1 1 0.999636
0.999992 1 1 0.999992
0.999746 1 1 0.999746
1 1 1 1
1 1 1 1
1 1 1 1
1 1 1 1
1 1 1 1
1.00559 1.01004 0.996546 0.999048
0.976499 0.987241 0.993735 0.995355
0.961675 0.973576 0.996098 0.991647
0.999114 1.00029 1 0.998824
1.00059 1.00211 1 0.998477
0.998897 1.00009 1.00003 0.998781
0.999046 1 1 0.999046
0.998979 1 1.00006 0.998919
0.999048 1.00003 1 0.999018
1.00154 1.0031 1 0.998442
0.998962 1 1 0.998962
0.999135 1.00039 1 0.998749
1.00101 1.00267 1 0.998345
1.00489 1.00693 1 0.997972
1.011 1.01352 0.999207 0.998309
1.00277 1.00483 0.999957 0.997994
1.00046 1.00231 1 0.99815
1.00352 1.00901 0.995473 0.999084
0.983579 0.993494 0.994929 0.995066
1.00337 1.00773 0.996723 0.998956
1.01298 1.01488 0.999285 0.998843
1.00266 1.00539 0.998598 0.998689
0.976327 0.98512 0.995134 0.995921
1.00924 1.0212 0.98977 0.998504
1.0066 1.01065 0.997333 0.998654
1.01614 1.02454 0.99328 0.998513
1.01591 1.01881 0.998714 0.998438
1.01052 1.01615 0.995985 0.998471
1.0193 1.02137 0.99941 0.998569
1.01488 1.02265 0.993638 0.998758
1.00836 1.01338 0.996446 0.998596
1.01064 1.01385 0.998437 0.998394
1.01403 1.01619 0.999154 0.998722
1.00903 1.01073 0.999823 0.998486
1.00966 1.01136 1 0.998315
1.00818 1.00954 1 0.99865
1.00739 1.009 1 0.998402
1.00569 1.0074 1 0.998304
1.00513 1.00661 1 0.998529
1.00314 1.00474 1 0.998411
0.999477 1.00108 1 0.998403
1.00171 1.00323 1 0.998487
0.999175 1.0007 1 0.998474
0.99862 1 1 0.99862
0.999051 1.00056 1 0.998488
0.998666 1 1 0.998666
0.999064 1 1 0.999064
0.999769 1 1 0.999769
0.999143 1 1 0.999143
0.998757 1 1 0.998757
1 1 1 1
0.999823 1 1 0.999823
0.999255 1 1 0.999255
1 1 1 1
0.99988 1 1 0.99988
1 1 1 1
0.998723 1.00016 1 0.998558
0.998771 1 1 0.998771
0.998965 1 1 0.998965
0.998984 1 1 0.998984
0.999129 1 1 0.999129
0.999436 1 1 0.999436
0.99924 1 1 0.99924
0.999532 1 1 0.999532
0.999963 1 1 0.999963
0.999636 1 1 0.999636
0.999995 1 1 0.999995
1 1 1 1
1 1 1 1
1 1 1 1
1 1 1 1
1.01157 1.01439 0.998556 0.998669
1.00426 1.00927 0.99613 0.998898
0.97547 0.986208 0.992968 0.996117
1.00315 1.00471 1 0.998442
0.999145 1.00018 1 0.998966
1.00521 1.00692 1 0.998298
1.00049 1.00203 1 0.998462
0.998847 1 1.00004 0.998809
1.00969 1.01164 1 0.998068
0.99905 1.00007 1 0.998981
1.00156 1.00316 1 0.998399
1.01262 1.01453 1 0.998116
1.0011 1.00272 1 0.998382
1.00549 1.00756 1 0.997949
1.00935 1.01169 0.99938 0.998312
1.0013 1.00331 1 0.997993
1.00599 1.01099 0.995904 0.999147
1.01916 1.02053 0.999995 0.998665
1.01288 1.01482 0.999239 0.998841
1.00187 1.00409 0.999046 0.998744
1.0154 1.02482 0.992249 0.998552
1.01767 1.0202 0.999066 0.998456
1.01133 1.01677 0.996156 0.998481
1.01981 1.02211 0.999174 0.998578
1.01826 1.02038 0.99945 0.998474
1.00828 1.01326 0.996482 0.998601
1.01079 1.01355 0.998879 0.9984
1.01246 1.01419 0.999999 0.998292
1.00912 1.01078 0.99987 0.998489
1.00914 1.01085 1 0.998304
1.00852 1.01032 1 0.998213
1.00712 1.00873 1 0.998401
1.0056 1.00731 1 0.998302
1.00054 1.00224 1 0.998307
1.00332 1.00492 1 0.998411
0.99975 1.00135 1 0.998403
0.998536 1 1 0.998536
0.999288 1.00081 1 0.998475
0.998621 1 1 0.998621
0.998994 1 1 0.998994
0.998658 1 1 0.998658
0.999063 1 1 0.999063
0.999755 1 1 0.999755
0.999955 1 1 0.999955
0.999772 1 1 0.999772
0.999143 1 1 0.999143
1 1 1 1
0.999813 1 1 0.999813
1 1 1 1
1.00653 1.0082 1 0.998341
0.99984 1.00139 1 0.998453
0.998614 1.00008 1 0.998536
0.998811 1 1 0.998811
0.998748 1 1 0.998748
0.99897 1 1 0.99897
0.999335 1 1 0.999335
0.999132 1 1 0.999132
0.999437 1 1 0.999437
0.999915 1 1 0.999915
0.999531 1 1 0.999531
0.999973 1 1 0.999973
1 1 1 1
0.999998 1 1 0.999998
1 1 1 1
1 1 1 1
1.01765 1.01923 1 0.998448
1.01523 1.01779 0.998746 0.998742
1.00433 1.00962 0.99601 0.998746
1.01076 1.01263 1 0.99815
1.00236 1.00385 1 0.99852
0.999106 1 1 0.999106
1.00564 1.00733 1 0.998322
1.00039 1.00194 1 0.998448
1.01642 1.01837 1 0.998086
1.00925 1.01123 1 0.998037
1.00165 1.0033 1 0.998355
1.01297 1.01489 1 0.998109
1.00693 1.00902 1 0.997925
1.0098 1.01207 0.999439 0.998317
1.02075 1.02226 0.999967 0.998557
1.01967 1.02106 0.999977 0.998663
1.01333 1.01508 0.999436 0.99884
1.01221 1.0175 0.9963 0.998491
1.02059 1.02301 0.999048 0.998586
1.0183 1.02085 0.999009 0.998489
1.01729 1.01899 1 0.998336
1.01102 1.01329 0.99935 0.998406
1.01203 1.01377 1 0.998287
1.0115 1.01333 1 0.998189
1.00862 1.01035 1 0.998293
1.00846 1.01027 1 0.998213
1.00257 1.00436 1 0.998223
1.00552 1.00723 1 0.998301
1.00091 1.00261 1 0.998306
0.998476 1.00003 1 0.998443
1.00002 1.00162 1 0.998403
0.998536 1 1 0.998536
0.998909 1 1 0.998909
0.998623 1 1 0.998623
0.998992 1 1 0.998992
0.999741 1 1 0.999741
0.999062 1 1 0.999062
0.99975 1 1 0.99975
0.999952 1 1 0.999952
0.999977 1 1 0.999977
0.999776 1 1 0.999776
1 1 1 1
1.00936 1.01121 1 0.998171
1.00046 1.00201 1 0.998451
1.00603 1.00761 1 0.998429
0.998673 1 1 0.998673
1.00003 1.00158 1 0.99845
0.998514 1 1 0.998514
0.998811 1 1 0.998811
0.999213 1 1 0.999213
0.998974 1 1 0.998974
0.999336 1 1 0.999336
0.999856 1 1 0.999856
0.999439 1 1 0.999439
0.999928 1 1 0.999928
1 1 1 1
0.999982 1 1 0.999982
1 1 1 1
1 1 1 1
1.01882 1.02053 1 0.998325
1.01686 1.01844 1 0.998446
1.01698 1.01935 0.998861 0.998811
1.01514 1.01709 1 0.998089
1.01033 1.0122 1 0.998154
1.00159 1.003 1 0.998598
1.00604 1.0077 1 0.998347
1.01607 1.01802 1 0.998078
1.00863 1.01065 1 0.998006
1.01149 1.01341 1 0.998101
1.01842 1.02006 1 0.998397
1.02037 1.02191 0.99997 0.998524
1.01989 1.02135 0.99991 0.99866
1.01699 1.01874 1 0.998276
1.01827 1.02128 0.998546 0.998503
1.01725 1.01895 1 0.998335
1.01415 1.01595 1 0.99823
1.01162 1.01336 1 0.998282
1.01163 1.01346 1 0.998192
1.00537 1.00722 1 0.998172
1.00839 1.01019 1 0.998213
1.00286 1.00464 1 0.998223
0.998744 1.00038 1 0.998363
1.00127 1.00297 1 0.998305
0.998544 1.0001 1 0.998443
0.998823 1 1 0.998823
0.998536 1 1 0.998536
0.998907 1 1 0.998907
0.999723 1 1 0.999723
0.99899 1 1 0.99899
0.999736 1 1 0.999736
0.999952 1 1 0.999952
0.999746 1 1 0.999746
0.999953 1 1 0.999953
1 1 1 1
1.01055 1.0125 1 0.998073
1.00257 1.00431 1 0.99826
1.00954 1.01136 1 0.9982
0.998616 1 1 0.998616
1.00045 1.00201 1 0.998448
1.00555 1.00705 1 0.998516
0.999068 1 1 0.999068
0.998685 1.00002 1 0.99867
1.00025 1.00181 1 0.998447
0.998812 1 1 0.998812
0.999215 1 1 0.999215
0.999789 1 1 0.999789
0.999338 1 1 0.999338
0.999867 1 1 0.999867
1 1 1 1
0.999941 1 1 0.999941
1 1 1 1
1 1 1 1
1.01707 1.01886 1 0.998238
1.01892 1.02065 1 0.998307
1.01739 1.01897 1 0.998444
1.01481 1.01675 1 0.998091
1.00993 1.0118 1 0.998158
1.01606 1.01803 1 0.998069
1.01617 1.01793 1 0.998277
1.01846 1.0201 1 0.998391
1.01988 1.02145 0.999972 0.998491
1.0173 1.01905 1 0.998285
1.01426 1.01608 1 0.998202
1.01715 1.01885 1 0.998335
1.01413 1.01594 1 0.998218
1.00755 1.0094 1 0.998173
1.01175 1.01358 1 0.998194
1.00534 1.00718 1 0.998174
0.999643 1.00135 1 0.998294
1.00317 1.00496 1 0.998224
0.999003 1.00064 1 0.998363
0.998757 1 1 0.998757
0.998613 1.00017 1 0.998443
0.998822 1 1 0.998822
0.999694 1 1 0.999694
0.998905 1 1 0.998905
0.999716 1 1 0.999716
0.999945 1 1 0.999945
0.999732 1 1 0.999732
0.999955 1 1 0.999955
0.999953 1 1 0.999953
1.01268 1.01452 1 0.998182
1.00427 1.00615 1 0.998129
1.01079 1.01275 1 0.998072
0.998779 1.00032 1 0.998458
1.00231 1.00405 1 0.998272
1.00965 1.01144 1 0.99823
0.998946 1 1 0.998946
0.99859 1.00001 1 0.998579
1.00043 1.00199 1 0.998445
0.999724 1 1 0.999724
0.99907 1 1 0.99907
0.998689 1.00002 1 0.998667
0.999216 1 1 0.999216
0.999798 1 1 0.999798
1 1 1 1
0.999878 1 1 0.999878
1 1 1 1
1 1 1 1
1.01492 1.01673 1 0.998213
1.01682 1.01862 1 0.998236
1.01876 1.02051 1 0.99829
1.01446 1.01639 1 0.998093
1.01452 1.01637 1 0.998175
1.01669 1.01844 1 0.998284
1.01856 1.0202 1 0.998386
1.01759 1.01933 1 0.998293
1.01416 1.01599 1 0.998207
1.00786 1.0097 1 0.998175
1.01414 1.01596 1 0.998207
1.00738 1.00922 1 0.998174
1.00082 1.00259 1 0.998243
1.00529 1.00712 1 0.998177
1.00002 1.00173 1 0.998295
0.998695 1 1 0.998695
0.999255 1.00089 1 0.998362
0.998756 1 1 0.998756
0.999631 1 1 0.999631
0.998821 1 1 0.998821
0.999674 1 1 0.999674
1 1 1 1
0.999709 1 1 0.999709
0.99995 1 1 0.99995
0.999956 1 1 0.999956
1.01233 1.01414 1 0.998209
1.00532 1.00717 1 0.998162
1.01251 1.01435 1 0.998183
0.999699 1.00141 1 0.998292
1.00419 1.00605 1 0.998147
1.01109 1.01304 1 0.998071
0.998781 1 1 0.998781
0.998764 1.00031 1 0.998457
1.00209 1.00381 1 0.998283
0.999678 1 1 0.999678
0.998914 1 1 0.998914
0.998573 1.00003 1 0.998543
1 1 1 1
0.999734 1 1 0.999734
0.999072 1 1 0.999072
0.999807 1 1 0.999807
1 1 1 1
1 1 1 1
1.01384 1.01568 1 0.99818
1.01535 1.01716 1 0.998222
1.01658 1.01838 1 0.998234
1.00842 1.01031 1 0.99813
1.01389 1.01575 1 0.998175
1.0172 1.01894 1 0.99829
1.01408 1.01589 1 0.998211
1.0079 1.00975 1 0.998175
1.00139 1.00313 1 0.998265
1.0072 1.00904 1 0.998174
1.00105 1.00278 1 0.998273
0.998576 1 1 0.998576
1.00041 1.00212 1 0.998297
0.998695 1 1 0.998695
0.999587 1 1 0.999587
0.998755 1 1 0.998755
0.999628 1 1 0.999628
1 1 1 1
0.999651 1 1 0.999651
0.99997 1 1 0.99997
0.999954 1 1 0.999954
1.01067 1.01249 1 0.998201
1.00562 1.00743 1 0.998198
1.01227 1.01408 1 0.99821
1.00016 1.00186 1 0.998299
1.0056 1.00745 1 0.998162
1.01234 1.01418 1 0.998184
0.998685 1 1 0.998685
0.999635 1.00131 1 0.998332
1.00408 1.00593 1 0.998166
0.999649 1 1 0.999649
0.998769 1 1 0.998769
0.998746 1.00029 1 0.998455
1 1 1 1
0.999687 1 1 0.999687
0.998883 1 1 0.998883
1 1 1 1
0.999744 1 1 0.999744
1 1 1 1
1.00831 1.01017 1 0.998156
1.01345 1.0153 1 0.998178
1.01583 1.01763 1 0.998231
1.00094 1.0027 1 0.998237
1.00842 1.0103 1 0.998137
1.01333 1.01518 1 0.998176
1.00796 1.0098 1 0.998175
1.00139 1.00313 1 0.998265
0.998525 1 1 0.998525
1.00127 1.00297 1 0.998303
0.998606 1 1 0.998606
0.999524 1 1 0.999524
0.998695 1 1 0.998695
0.999584 1 1 0.999584
1 1 1 1
0.999626 1 1 0.999626
1 1 1 1
0.999946 1 1 0.999946
1.00566 1.00746 1 0.998213
1.01079 1.01261 1 0.998202
0.999823 1.00153 1 0.9983
1.00553 1.00734 1 0.998198
1.01219 1.01401 1 0.998211
0.998693 1 1 0.998693
1.00011 1.00182 1 0.998296
1.00586 1.00771 1 0.998162
0.99962 1 1 0.99962
0.998707 1 1 0.998707
0.999557 1.00119 1 0.998371
1 1 1 1
0.999654 1 1 0.999654
0.998756 1 1 0.998756
1 1 1 1
0.999695 1 1 0.999695
1 1 1 1
1.00054 1.00227 1 0.998268
1.00819 1.01005 1 0.998156
1.01298 1.01483 1 0.998176
0.99851 1 1 0.99851
1.00094 1.00271 1 0.998236
1.00838 1.01026 1 0.998145
1.0014 1.00314 1 0.998265
0.99853 1 1 0.99853
0.999471 1 1 0.999471
0.998636 1 1 0.998636
0.999521 1 1 0.999521
1 1 1 1
0.999581 1 1 0.999581
1 1 1 1
1 1 1 1
0.999657 1.00137 1 0.998287
1.00542 1.00723 1 0.998209
1.01091 1.01273 1 0.998203
0.998667 1 1 0.998667
0.99999 1.00169 1 0.998298
1.00542 1.00723 1 0.998198
0.999585 1 1 0.999585
0.998692 1 1 0.998692
1.00009 1.0018 1 0.998294
1 1 1 1
0.999623 1 1 0.999623
0.99873 1 1 0.99873
1 1 1 1
0.999659 1 1 0.999659
1 1 1 1
0.998578 1 1 0.998578
1.00052 1.00229 1 0.998237
1.0081 1.00997 1 0.998156
0.999455 1 1 0.999455
0.998511 1 1 0.998511
1.00096 1.00272 1 0.998236
0.998535 1 1 0.998535
0.999469 1 1 0.999469
1 1 1 1
0.999518 1 1 0.999518
1 1 1 1
1 1 1 1
0.998626 1 1 0.998626
0.999696 1.00142 1 0.998276
1.00521 1.00701 1 0.998206
0.999602 1 1 0.999602
0.998665 1 1 0.998665
1.00016 1.00187 1 0.998296
1 1 1 1
0.999586 1 1 0.999586
0.998691 1 1 0.998691
1 1 1 1
0.999626 1 1 0.999626
1 1 1 1
0.999455 1 1 0.999455
0.998555 1 1 0.998555
1.0005 1.0023 1 0.998207
1 1 1 1
0.999454 1 1 0.999454
0.998511 1 1 0.998511
0.999467 1 1 0.999467
1 1 1 1
1 1 1 1
0.999555 1 1 0.999555
0.998626 1 1 0.998626
0.999725 1.00146 1 0.998266
1 1 1 1
0.999548 1 1 0.999548
0.998664 1 1 0.998664
1 1 1 1
0.999588 1 1 0.999588
1 1 1 1
0.999868 1 1 0.999868
0.999501 1 1 0.999501
0.998531 1 1 0.998531
1 1 1 1
0.999454 1 1 0.999454
1 1 1 1
0.999886 1 1 0.999886
0.999533 1 1 0.999533
0.998626 1 1 0.998626
0.999948 1 1 0.999948
0.999546 1 1 0.999546
1 1 1 1
1 1 1 1
0.999469 1 1 0.999469
1 1 1 1
0.999939 1 1 0.999939
0.999505 1 1 0.999505
1 1 1 1
1 1 1 1
1 1 1 1

VECTORS lamdaE float
0.999662 1.00021 0.995721
0.999583 1.00003 0.998131
0.999448 1.00041 0.995838
0.999924 0.999919 0.995647
0.999726 1.00004 0.99583
0.999592 1.00023 0.995696
1.00079 1.00057 0.993121
0.999553 0.999897 0.998191
0.999555 1.00026 0.998211
0.999263 1.00046 0.998282
0.999579 0.999629 0.996407
1.00045 1.00104 0.992851
0.999974 1.00001 0.995403
0.999699 0.999948 0.99572
0.999252 1.00065 0.995932
0.999763 0.999897 0.995806
0.999404 1.00047 0.995814
0.99954 1.00013 0.995955
1.00091 1.00045 0.99307
0.999941 1 0.997887
0.999976 0.999969 0.995497
0.999843 0.999921 0.995779
1.00119 0.999938 0.993047
1.00096 1.00017 0.99323
0.999523 0.999869 0.996073
1.00048 1.00107 0.993102
1.00309 1.00048 0.989253
0.999507 0.999788 0.998265
0.999667 1.00013 0.996928
0.999414 1.00035 0.99701
0.999528 0.999446 0.998384
1.00034 1.00115 0.992864
0.999901 0.999865 0.995617
0.999663 1.00041 0.995654
1.00128 1.00018 0.993353
0.999358 0.99884 0.998792
1.00084 1.00082 0.993539
1.00016 1.00095 0.993431
1.00174 1.00216 0.989413
0.999441 0.998114 0.999035
0.999975 1.00001 0.997852
0.999821 0.999982 0.996809
0.999981 1 0.997839
0.999696 1.00002 0.995703
1.00146 1.00006 0.991925
0.999725 0.999958 0.998157
1.00149 1.00005 0.993118
0.9996 0.999845 0.995966
0.999368 1.00023 0.996067
0.999193 1.00077 0.995929
1.00102 1.00031 0.993031
0.999861 1.00001 0.996759
0.999806 0.999959 0.995669
0.999376 1.00004 0.996186
0.999677 0.999931 0.995923
1.00126 0.999898 0.992988
1.00058 1.00098 0.993074
1.00106 1.00008 0.99318
1.00307 1.00051 0.989255
0.999946 1 0.997869
0.999995 1.00001 0.995423
1.00133 1.00001 0.993331
1.00125 0.999983 0.992891
1.00111 0.999964 0.993167
1.00353 0.999871 0.989021
1.00329 0.999996 0.98906
0.999577 0.999143 0.996658
0.999826 1.00132 0.993818
1.00245 1.0014 0.98944
1.00423 1.00009 0.98695
0.999791 1.00015 0.997998
0.999482 0.999236 0.998522
0.999539 1.00016 0.998105
1.00025 1.00123 0.99288
0.999918 0.999985 0.997978
0.999699 1.0003 0.998015
1.00119 1.00014 0.99226
0.999419 0.998917 0.997886
1.00065 1.00091 0.9925
1.00005 1.00098 0.994034
1.00175 1.00212 0.98941
0.999488 0.998459 0.998847
0.999597 0.99949 0.995899
1.00139 0.999924 0.992183
1.00106 1.00046 0.992277
1.00352 1.00015 0.988127
0.999839 1.00053 0.995281
1.00252 1.0013 0.988847
1.00099 1.00282 0.990169
1.00256 1.00243 0.987561
0.999451 0.99779 0.999154
0.999404 0.998051 0.999084
0.999949 0.999967 0.997924
0.999968 1 0.997866
0.999988 1 0.997843
0.999827 0.999999 0.996788
1.00148 1.00004 0.99253
0.999824 0.999953 0.996854
1.00144 1.00007 0.992584
0.999994 1 0.997838
1.00143 0.999995 0.991992
1.0015 1.00009 0.993085
1.0038 0.999847 0.987946
1.00145 0.999958 0.993249
1.00375 0.999944 0.987957
0.999947 1.00001 0.995464
0.999631 0.999935 0.995844
0.999212 1.00022 0.996326
0.999513 0.999929 0.996062
1.00133 0.999888 0.992928
1.00115 0.999977 0.993137
1.0007 1.00084 0.993047
1.00306 1.00054 0.989256
0.999979 1 0.997851
0.999818 1 0.995599
1.00142 0.999995 0.99235
1.00132 0.999962 0.992826
0.999468 0.999262 0.997579
1.00005 1.0012 0.993959
1.00119 0.999911 0.993115
1.00354 0.999855 0.988886
1.00247 1.00147 0.989379
1.00328 1.00006 0.989169
1.00419 1.00012 0.986965
1.00142 1.00002 0.992021
1.00129 0.999994 0.992795
1.00373 0.999772 0.988478
1.00359 0.999846 0.988657
1.00346 0.999826 0.988912
1.00466 0.999553 0.986985
0.999522 0.998691 0.998731
1.00437 0.999761 0.987025
0.999749 1.00099 0.994013
1.00124 1.0024 0.989925
1.00368 1.00133 0.986813
1.00485 0.999616 0.986211
0.999756 1.00012 0.994906
1.00019 1.0023 0.992022
0.999896 1.00002 0.997985
0.999639 1.00026 0.998034
1.00119 1.00012 0.992266
0.99945 0.998722 0.998778
0.999888 1.00114 0.993605
1.00058 1.00098 0.99251
1.00175 1.00208 0.989408
0.999438 0.998395 0.998919
0.999602 0.999413 0.99594
1.00139 0.999957 0.992753
1.00103 1.00047 0.992858
1.00352 1.00016 0.98813
0.999752 1.00054 0.99456
1.00251 1.00128 0.988858
1.00095 1.00282 0.990175
1.00257 1.00243 0.98749
0.999631 1.00006 0.995272
0.999678 0.998937 0.99632
1.00006 1.00161 0.992953
1.00368 0.999993 0.988012
1.00312 1.00063 0.988393
1.00462 0.999952 0.986349
1.00054 1.00272 0.991083
1.00353 1.00123 0.986878
1.00163 1.00362 0.988252
1.00282 1.00252 0.987114
0.999522 0.997506 0.999205
0.99944 0.997739 0.999173
0.999375 0.99799 0.999123
0.999759 0.999723 0.99531
0.999539 0.998394 0.998857
0.999941 0.999964 0.997957
0.999947 0.999987 0.997892
1.00138 1.00007 0.992036
1.00142 1.00005 0.991983
0.999965 1 0.997853
0.99998 1 0.997841
1.00143 1 0.991991
1.00144 1.00008 0.992544
1.0038 0.999847 0.987944
1.00137 0.999973 0.992129
1.00375 0.999946 0.987953
1.00143 0.999992 0.99199
1.00382 0.999787 0.987958
1.00377 0.999907 0.987954
1.00485 0.999353 0.986568
1.00373 0.999958 0.987963
1.00482 0.999585 0.986403
0.999979 1 0.997841
0.999645 1 0.995778
1.00142 0.999992 0.991449
1.00139 0.999955 0.992758
0.999279 0.9993 0.99863
1.0003 1.00105 0.994086
1.00126 0.999874 0.993065
1.00355 0.999825 0.98875
1.00328 1.00012 0.989277
1.00249 1.00157 0.989317
1.00416 1.00015 0.98698
1.00141 1 0.992019
1.00137 0.999994 0.992721
1.00374 0.999761 0.988192
1.00361 0.999882 0.988746
0.999523 0.998764 0.998682
0.999877 1.00088 0.994416
1.00134 1.00246 0.990059
1.00345 0.999861 0.988904
1.00466 0.999466 0.986863
1.00358 1.0013 0.986799
1.00438 0.999803 0.987129
1.00486 0.999642 0.986223
0.99975 1.00016 0.994899
1.00022 1.00222 0.992028
1.00381 0.999776 0.987996
1.00368 0.999829 0.988516
1.00479 0.999409 0.986876
1.00471 0.999395 0.986682
1.00455 0.999585 0.987073
1.00509 0.998964 0.986618
0.999752 1.00053 0.99447
1.00492 0.999285 0.986451
1.0006 1.00271 0.990792
1.00232 1.00276 0.987396
1.00449 1.00093 0.985992
1.00509 0.999275 0.986219
1.00034 1.00246 0.991614
1.00015 1.0018 0.992578
1.00053 1.00321 0.990573
1.00133 0.999938 0.992221
0.999393 0.998326 0.998987
0.999606 0.999329 0.995978
1.00091 1.00054 0.992337
1.00352 1.00017 0.988132
0.999711 1.00057 0.994507
1.0009 1.00282 0.990183
1.0025 1.00128 0.98887
1.00258 1.00241 0.98742
0.999628 0.999984 0.995301
0.999675 0.998893 0.996344
1.00001 1.00167 0.992967
1.00367 1.00001 0.988011
1.00312 1.00061 0.988402
1.00463 0.999945 0.986337
1.00047 1.00276 0.991095
1.00359 1.00126 0.986888
1.00161 1.00363 0.988238
1.00284 1.00243 0.987111
0.999778 0.99855 0.996521
1.00025 1.00225 0.991983
0.999993 1.00085 0.993825
1.00024 1.00298 0.991342
1.00475 0.999774 0.986314
1.00423 1.00047 0.986522
1.00507 0.999719 0.985784
1.00094 1.00381 0.989379
1.00416 1.00087 0.986233
1.00182 1.00411 0.987258
1.00338 1.00188 0.986579
1.00026 0.999725 0.994498
0.999949 0.99811 0.996639
0.99962 0.99725 0.99923
0.999528 0.997452 0.999214
0.999435 0.997676 0.99919
0.999793 0.999349 0.995639
0.999539 0.998143 0.998959
0.999753 0.999775 0.99529
0.999555 0.998438 0.998814
1.00137 0.999993 0.992124
1.0014 1.00007 0.991993
1.00375 0.999949 0.987949
1.0038 0.999846 0.987942
1.00143 1.00001 0.99199
0.999996 1 0.997834
1.00144 0.999994 0.99199
1.00382 0.999793 0.987957
1.00377 0.999913 0.987951
1.00485 0.999355 0.986562
1.00373 0.999972 0.987957
1.00482 0.999587 0.986396
1.00382 0.999779 0.987974
1.00486 0.999263 0.986629
1.00483 0.999478 0.986487
1.00515 0.9986 0.986778
1.00481 0.999673 0.986327
1.00516 0.998932 0.98642
1.00142 0.999989 0.992016
1.00144 0.99998 0.992645
1.00374 0.999738 0.987907
1.00363 0.999912 0.988835
0.999528 0.99884 0.998628
1.00001 1.00084 0.99476
1.00149 1.00249 0.990192
1.00344 0.999887 0.988896
1.00466 0.999377 0.98674
1.00438 0.999847 0.987233
1.00347 1.00127 0.986784
1.00485 0.999666 0.986235
0.999748 1.00019 0.994891
1.00026 1.00215 0.992034
1.0038 0.999741 0.987918
1.0037 0.999818 0.988504
1.0048 0.999354 0.986888
1.00472 0.999472 0.986793
0.999782 1.00053 0.99447
1.0007 1.00269 0.990767
1.00229 1.00281 0.987546
1.00456 0.999629 0.987076
1.00508 0.998859 0.986669
1.00447 1.00082 0.985891
1.00491 0.999291 0.986467
1.00509 0.999264 0.986213
1.00036 1.0024 0.991625
1.00046 1.00323 0.99059
1.00017 1.00179 0.992568
1.00484 0.999351 0.986835
1.00478 0.999392 0.986854
1.00513 0.998692 0.986811
1.00512 0.998837 0.986591
1.00501 0.998944 0.986596
1.00517 0.998013 0.987329
1.00042 1.00254 0.991354
1.00511 0.998734 0.986639
1.00133 1.00321 0.989096
1.00319 1.003 0.985665
1.00491 1.00044 0.985565
1.00514 0.998737 0.986681
1.00017 1.00131 0.993056
1.00074 1.00284 0.990542
1.00028 1.00328 0.990842
1.00077 1.0033 0.990162
1.00367 1.00001 0.988011
0.999668 0.99886 0.996369
0.999626 0.99992 0.99533
0.99998 1.00171 0.992982
1.00313 1.0006 0.988411
1.00464 0.999938 0.986326
1.0004 1.00281 0.991106
1.00158 1.00363 0.988222
1.00366 1.0013 0.986898
1.00284 1.00236 0.987108
0.999774 0.998534 0.996529
1.00023 1.00229 0.991984
0.999993 1.00083 0.993847
1.00018 1.00307 0.991334
1.00475 0.999771 0.986306
1.00425 1.00047 0.986517
1.00507 0.999723 0.985769
1.0009 1.00377 0.989393
1.00421 1.00094 0.986263
1.00187 1.00417 0.987201
1.00326 1.00161 0.987049
0.999874 0.998287 0.996602
1.00008 1.00025 0.994294
1.00055 1.00341 0.990427
1.00015 1.0022 0.992267
1.00018 1.00398 0.990478
1.00509 0.999459 0.985993
1.00484 1.0001 0.985806
1.00513 0.999382 0.98599
1.00115 1.00472 0.98805
1.00444 1.00049 0.98609
1.00251 1.00341 0.986141
1.00022 0.999788 0.994496
1.00023 1.00088 0.99342
1.00028 0.999701 0.994487
1.00025 0.99974 0.994495
0.999994 0.997932 0.997168
0.999937 0.998099 0.996893
0.999778 0.997064 0.998236
0.999632 0.997207 0.999234
0.999537 0.9974 0.999222
0.999848 0.999027 0.995865
0.99956 0.997912 0.999032
0.999788 0.999393 0.995618
0.99956 0.99818 0.998926
0.999747 0.999824 0.995269
0.999571 0.998488 0.99877
1.00373 0.999982 0.987951
1.00377 0.999918 0.987948
1.00481 0.999598 0.986389
1.00485 0.999357 0.986556
1.00382 0.999798 0.987955
1.00143 0.999997 0.991989
1.00382 0.999776 0.987974
1.00486 0.999265 0.986628
1.00482 0.999489 0.98648
1.00516 0.99853 0.986863
1.0048 0.999677 0.98632
1.00515 0.998954 0.986414
1.00486 0.999248 0.986647
1.00513 0.998423 0.987025
1.00516 0.998724 0.986621
1.00516 0.997741 0.987629
1.00513 0.999201 0.986206
1.00516 0.99777 0.987556
1.00379 0.999707 0.98784
1.00371 0.999816 0.988492
1.0048 0.999305 0.986899
1.00472 0.999549 0.986905
0.999817 1.00053 0.994469
1.00074 1.0027 0.990743
1.00228 1.00286 0.987695
1.00456 0.999672 0.98708
1.00508 0.998752 0.986721
1.00491 0.999297 0.986484
1.00445 1.0007 0.985789
1.00509 0.999265 0.986207
1.00039 1.00233 0.991637
1.00044 1.00321 0.990608
1.00019 1.00178 0.992557
1.00485 0.999315 0.986742
1.00478 0.999389 0.986845
1.00513 0.99858 0.986897
1.00511 0.998873 0.986609
1.00047 1.00251 0.991348
1.0014 1.00319 0.989056
1.00302 1.00312 0.985924
1.00502 0.999055 0.98658
1.00516 0.997867 0.987492
1.00493 1.00033 0.985483
1.0051 0.99873 0.986665
1.00513 0.998695 0.986763
1.00077 1.00284 0.990547
1.00076 1.00333 0.990113
1.00017 1.00131 0.993046
1.00023 1.00325 0.990924
1.00513 0.998586 0.986864
1.00514 0.998745 0.986834
1.00515 0.997943 0.987423
1.00517 0.99751 0.987835
1.00514 0.998198 0.987203
1.00514 0.997038 0.988333
1.00097 1.00277 0.990202
1.00512 0.997728 0.987565
1.0015 1.00407 0.987546
1.00411 1.00271 0.984881
1.00513 0.99988 0.985508
1.00512 0.998395 0.986986
1.00017 1.00098 0.993385
1.00017 1.00285 0.991437
1.00094 1.00293 0.990116
1.00042 1.00381 0.99019
1.00095 1.00306 0.990064
0.999768 0.998521 0.996537
1.00475 0.99977 0.986298
0.999997 1.00079 0.993868
1.00019 1.00236 0.991986
1.00012 1.00316 0.991326
1.00426 1.00047 0.986512
1.00506 0.999727 0.985753
1.00091 1.00369 0.989408
1.00194 1.00423 0.987144
1.00427 1.00099 0.986293
1.00315 1.00135 0.987514
0.999869 0.998284 0.996605
1.00008 1.00023 0.994305
1.00054 1.00337 0.990437
1.00009 1.00227 0.992275
1.00013 1.00408 0.99036
1.0051 0.999467 0.985971
1.00483 1.00011 0.9858
1.00513 0.999391 0.98596
1.00108 1.00476 0.988071
1.00442 1.00054 0.986188
1.00273 1.00328 0.986199
1.00017 0.999934 0.994455
1.00017 1.00145 0.992979
1.00066 1.00432 0.989323
0.999998 1.00346 0.991301
1.0003 1.00444 0.989915
1.00514 0.998787 0.986564
1.00498 0.99979 0.985758
1.00512 0.998317 0.986821
1.0013 1.00493 0.987363
1.00417 1.00154 0.985463
1.00022 0.999803 0.994493
1.00023 1.00088 0.993356
1.00022 1.00089 0.993382
1.00016 1.00159 0.99295
1.00023 1.00092 0.993398
1.00028 0.999727 0.994458
1.00027 0.999712 0.994486
1.00006 0.997812 0.997169
1.00025 0.999757 0.994492
1 0.997932 0.997167
0.999883 0.996838 0.998257
0.999927 0.998093 0.997144
0.99975 0.997019 0.998743
0.999645 0.997163 0.999239
0.999907 0.998759 0.996039
0.999844 0.999065 0.99585
0.999606 0.997698 0.99908
0.999574 0.99795 0.99901
0.999782 0.999442 0.995598
0.999581 0.998215 0.998889
1.0048 0.99968 0.986314
1.00482 0.999492 0.986472
1.00515 0.998973 0.986409
1.00516 0.99846 0.986948
1.00486 0.999266 0.986628
1.00382 0.999774 0.987974
1.00486 0.999247 0.986649
1.00513 0.998431 0.987027
1.00516 0.998735 0.986621
1.00516 0.997623 0.98778
1.00513 0.999213 0.986187
1.00517 0.997654 0.987661
1.00513 0.998471 0.987
1.00512 0.997756 0.987687
1.00517 0.997452 0.987926
1.00512 0.996974 0.988491
1.00514 0.998164 0.987159
1.00513 0.996882 0.988576
1.00485 0.999277 0.986649
1.00479 0.999393 0.986835
1.00512 0.998464 0.986982
1.00511 0.998906 0.986627
1.00052 1.00247 0.991342
1.00148 1.00317 0.989015
1.00285 1.00321 0.986183
1.00502 0.999167 0.986564
1.00516 0.99772 0.987656
1.00509 0.998726 0.986692
1.00494 1.00021 0.9854
1.00512 0.998638 0.986845
1.00075 1.00288 0.990553
1.00069 1.00342 0.990063
1.00018 1.00132 0.993035
1.0002 1.0032 0.991005
1.00513 0.99859 0.986864
1.00513 0.998783 0.986755
1.00515 0.997896 0.987495
1.00516 0.99761 0.987721
1.00098 1.00285 0.99017
1.00149 1.00401 0.987791
1.004 1.00265 0.984847
1.00513 0.998314 0.987065
1.00515 0.996876 0.988448
1.00513 0.999869 0.985493
1.00511 0.997746 0.98758
1.00513 0.998227 0.987063
1.00098 1.00294 0.990108
1.00096 1.00303 0.990083
1.00036 1.00391 0.990176
1.00017 1.00097 0.993309
1.00015 1.0028 0.991513
1.00512 0.997805 0.987703
1.00514 0.997561 0.987846
1.00513 0.996395 0.989016
1.00511 0.996938 0.988347
1.00104 1.00338 0.989459
1.00511 0.997316 0.988126
1.00162 1.00422 0.986824
1.00478 1.00199 0.984531
1.00516 0.999382 0.985749
1.00014 1.0007 0.993526
1.00016 1.00239 0.992105
1.00018 1.00351 0.990953
1.00107 1.00283 0.99003
1.00052 1.00411 0.989698
1.00118 1.00261 0.989888
0.999864 0.998283 0.996607
1.00009 1.0002 0.994316
1.00511 0.999474 0.985949
1.00004 1.00234 0.992284
1.00049 1.00338 0.990447
1.00008 1.00421 0.990242
1.00481 1.00013 0.985795
1.00513 0.999401 0.98593
1.00101 1.00478 0.988091
1.00293 1.00321 0.986257
1.0044 1.00059 0.986291
1.00017 0.999935 0.994455
1.00015 1.00146 0.992995
1.00063 1.00437 0.9893
0.999943 1.00352 0.991303
1.00026 1.00436 0.989917
1.00514 0.998821 0.986542
1.00501 0.999802 0.985718
1.00512 0.998314 0.986884
1.0013 1.00491 0.987231
1.00418 1.00166 0.985522
1.00021 1.00104 0.993324
0.999931 1.0027 0.992013
1.0008 1.00431 0.988945
0.999932 1.00443 0.990278
1.00059 1.00407 0.989656
1.00514 0.997102 0.988111
1.00508 0.999355 0.986045
1.00508 0.998015 0.987141
1.00228 1.0043 0.986649
1.00444 1.00087 0.985397
1.00021 0.999816 0.99449
1.00024 1.00087 0.993392
1.00007 1.00164 0.992894
1.00021 1.00089 0.993345
1.00022 1.00093 0.993397
1.00012 1.00162 0.992896
1.00004 1.00203 0.992665
1.00012 1.00168 0.992772
1.00022 1.001 0.993348
1.00025 0.999812 0.994422
1.00028 0.99974 0.994458
1.00011 0.997754 0.99714
1.00027 0.999722 0.994486
1.00006 0.997823 0.997164
0.999959 0.996703 0.998256
1.00001 0.997931 0.997167
0.999871 0.996812 0.998263
0.999719 0.996964 0.99926
0.999963 0.998477 0.996228
0.999907 0.998778 0.996026
0.99967 0.997459 0.999121
0.999839 0.999102 0.995835
0.999612 0.997733 0.999066
0.999591 0.997981 0.998985
1.00513 0.999225 0.986168
1.00517 0.998749 0.986621
1.00517 0.997535 0.987765
1.00515 0.997507 0.98793
1.00513 0.99844 0.987029
1.00486 0.999247 0.98665
1.00513 0.998519 0.986937
1.00513 0.997823 0.987634
1.00516 0.997517 0.987839
1.00512 0.996835 0.988593
1.00514 0.998186 0.987155
1.00513 0.996685 0.98869
1.00511 0.9979 0.987634
1.00509 0.996966 0.988484
1.00512 0.996356 0.989049
1.00512 0.996626 0.988817
1.00512 0.998594 0.986864
1.00513 0.998821 0.986676
1.00515 0.997852 0.987566
1.00516 0.997711 0.987606
1.00102 1.00289 0.990138
1.00148 1.00394 0.988037
1.00388 1.00261 0.984814
1.00513 0.998431 0.986927
1.00515 0.996719 0.988562
1.00511 0.997764 0.987595
1.00513 0.999874 0.985478
1.00514 0.998075 0.98714
1.00101 1.00295 0.990101
1.00101 1.00294 0.990102
1.00031 1.004 0.990162
1.00016 1.00097 0.993232
1.00014 1.00274 0.99159
1.00512 0.997822 0.987695
1.00514 0.997583 0.98785
1.00513 0.996503 0.988872
1.00111 1.00338 0.98942
1.00179 1.0043 0.986959
1.00464 1.00177 0.984504
1.00511 0.996986 0.988331
1.00515 0.999247 0.985937
1.00512 0.997274 0.987978
1.00014 1.00066 0.993574
1.00113 1.00278 0.990007
1.00111 1.00252 0.990138
1.00054 1.00423 0.989607
1.00019 1.0035 0.990973
1.00014 1.00238 0.992041
1.00507 0.997274 0.988182
1.00514 0.996233 0.989117
1.0051 0.995932 0.989324
1.00512 0.996242 0.989087
1.00122 1.00365 0.988912
1.00511 0.997951 0.987306
1.00259 1.00391 0.985644
1.00493 1.00129 0.984727
1.00016 1.00026 0.993932
1.00014 1.00208 0.992448
1.00018 1.00305 0.99148
1.00014 1.00419 0.990276
1.00126 1.00259 0.989824
1.00123 1.00324 0.989282
1.00016 0.999936 0.994456
1.00012 1.00144 0.99301
1.00513 0.998854 0.98652
0.999893 1.00357 0.991306
1.00058 1.00442 0.989277
1.00015 1.00434 0.989919
1.00505 0.999813 0.985679
1.00512 0.998313 0.986946
1.00131 1.00491 0.987098
1.00418 1.00176 0.98558
1.0002 1.00102 0.993333
0.999977 1.00266 0.992047
1.00081 1.00438 0.988961
0.999847 1.00463 0.990253
1.00044 1.00387 0.990011
1.00514 0.997068 0.988294
1.00508 0.999371 0.986062
1.00508 0.998097 0.987104
1.00215 1.00442 0.986547
1.00446 1.00078 0.985483
1 1.0019 0.992688
0.999811 1.00374 0.991025
1.00123 1.00396 0.988611
1.00002 1.00484 0.989211
1.00512 0.995649 0.989603
1.00505 0.996994 0.9885
1.00506 0.999262 0.986062
1.00291 1.00274 0.985601
1.00025 1.00085 0.993429
1.00007 1.00166 0.99291
0.9999 1.00229 0.992652
1.00021 1.00094 0.993396
1.00008 1.00164 0.992843
1.00022 1.00099 0.993344
1.00003 1.00202 0.992641
1.00013 1.00167 0.992797
0.999983 1.00229 0.992489
1.00009 1.00207 0.992492
1.00015 1.00175 0.992627
1.00022 1.00109 0.993238
1.00022 0.999896 0.994394
1.00025 0.999811 0.99442
1.00014 0.997737 0.997102
1.00027 0.999742 0.994457
1.00011 0.997777 0.997133
1.00002 0.996623 0.998232
1.00007 0.997835 0.997161
0.999951 0.996673 0.998263
0.999861 0.996789 0.998266
1.00002 0.998181 0.996419
0.999967 0.998489 0.996215
0.999744 0.997187 0.999168
0.999906 0.998803 0.996013
0.999669 0.997511 0.999108
0.99962 0.997769 0.999051
1.00514 0.998207 0.987151
1.00516 0.997584 0.987751
1.00513 0.996492 0.988803
1.00512 0.996697 0.988695
1.00513 0.99789 0.98758
1.00514 0.998568 0.986875
1.00511 0.99789 0.987638
1.00509 0.997005 0.988453
1.00512 0.996379 0.988996
1.00513 0.996583 0.988854
1.00504 0.997256 0.98833
1.00516 0.995922 0.989533
1.00514 0.995599 0.98955
1.00512 0.997838 0.987686
1.00514 0.997606 0.987854
1.00513 0.996614 0.988728
1.00118 1.00339 0.989381
1.00197 1.00438 0.987093
1.00449 1.00157 0.984477
1.00511 0.997033 0.988314
1.00513 0.997232 0.98783
1.00515 0.999112 0.986125
1.00118 1.00273 0.989985
1.00102 1.00245 0.990388
1.00056 1.00434 0.989516
1.00015 1.00061 0.993623
1.00019 1.0035 0.990992
1.00014 1.00237 0.991978
1.00506 0.997325 0.988214
1.00515 0.99618 0.989181
1.00509 0.995941 0.989358
1.00125 1.00367 0.988871
1.00243 1.00407 0.985945
1.00489 1.00103 0.984837
1.00511 0.996294 0.989021
1.00511 0.997917 0.987275
1.00015 1.00024 0.99406
1.00015 1.00207 0.992441
1.00113 1.0025 0.989902
1.00117 1.00322 0.989622
1.00018 1.00415 0.990272
1.00015 1.00309 0.991424
1.00514 0.995994 0.989396
1.00513 0.995302 0.989952
1.00509 0.995598 0.989714
1.0051 0.996448 0.988996
1.00128 1.00365 0.988257
1.00497 0.999733 0.985771
1.00358 1.00342 0.985288
1.00018 0.999948 0.994419
1.00014 1.00123 0.993245
1.00011 1.00173 0.992641
1.00008 1.00293 0.991687
1.00007 1.00371 0.990882
1.00007 1.00421 0.990134
1.00178 1.00121 0.989973
1.00107 1.00277 0.990619
1.00019 1.00102 0.993341
1.00001 1.00264 0.992081
1.00514 0.997039 0.988476
0.999877 1.0047 0.990228
1.0008 1.00446 0.988977
1.00029 1.00367 0.990365
1.00509 0.999369 0.986079
1.00509 0.998174 0.987068
1.002 1.00451 0.986449
1.00453 1.00066 0.985569
1.00002 1.00193 0.992634
0.999871 1.00378 0.99102
1.00114 1.00404 0.988672
1.00025 1.00479 0.989336
1.00513 0.995578 0.989706
1.00506 0.997072 0.98829
1.00502 0.999259 0.986098
1.00325 1.00286 0.985478
0.999843 1.00283 0.992164
1.00511 0.995014 0.990174
1.00009 1.00471 0.990145
1.00133 1.00472 0.987618
1.00503 0.995857 0.989827
1.00492 0.998347 0.986816
1.0044 1.00149 0.985404
1.00007 1.00169 0.992926
0.999897 1.00228 0.992637
0.999758 1.00282 0.992387
1.00022 1.00097 0.993339
1.00013 1.00167 0.992823
0.999988 1.00203 0.992616
1.00022 1.00108 0.993228
1.00014 1.00175 0.992648
0.99995 1.00232 0.99245
1.00011 1.00203 0.992529
1.00005 1.00236 0.992283
1.00007 1.00225 0.992332
1.00015 1.00221 0.992282
1.00027 1.00179 0.992435
1.00024 1.00119 0.993108
1.00019 0.999967 0.994369
1.00022 0.999902 0.994393
1.00016 0.997761 0.997049
1.00025 0.999823 0.994418
1.00014 0.997768 0.997095
1.00006 0.996564 0.998208
1.00011 0.9978 0.997128
1.00001 0.996588 0.998238
0.999943 0.996645 0.998267
1.00016 0.999804 0.994598
1.00007 0.997943 0.996572
1.00003 0.998192 0.996407
0.999824 0.996932 0.99921
0.99997 0.998506 0.996202
0.99974 0.997248 0.999153
0.999671 0.997556 0.999095
1.00513 0.996538 0.98889
1.00512 0.996403 0.988943
1.00509 0.997044 0.988422
1.00511 0.99788 0.987641
1.00505 0.997199 0.988402
1.00515 0.995921 0.989504
1.00514 0.995633 0.989543
1.00516 0.995871 0.989463
1.0052 0.995116 0.990173
1.00506 0.994909 0.990543
1.00506 0.997377 0.988245
1.00516 0.996122 0.989244
1.00509 0.995938 0.989392
1.00128 1.00368 0.988832
1.00228 1.00424 0.986247
1.00484 1.00075 0.984947
1.00511 0.996351 0.988956
1.00511 0.997863 0.987245
1.001 1.00245 0.98998
1.00112 1.00319 0.989957
1.00013 1.00423 0.990268
1.00016 1.00022 0.994187
1.00016 1.00207 0.992433
1.00012 1.00315 0.991369
1.00515 0.995945 0.989429
1.00018 0.999957 0.994417
1.00013 1.00124 0.993189
1.00512 0.995367 0.989955
1.00509 0.995555 0.989675
1.00111 1.0038 0.988595
1.00344 1.0034 0.98521
1.0049 0.99967 0.985768
1.00503 0.996438 0.988883
1.00013 1.00171 0.99281
1.0001 1.0029 0.991672
1.00194 1.00148 0.989732
1.00068 1.00281 0.990871
1.00007 1.00428 0.990152
1.00006 1.00367 0.99094
1.00522 0.995196 0.990003
1.00506 0.995034 0.990317
1.00509 0.995133 0.989906
1.00505 0.996714 0.988271
1.00156 1.00298 0.988783
1.00406 1.00273 0.985143
1.00012 1.00108 0.993277
1.00014 1.0014 0.993079
1.00008 1.00229 0.992425
1.00004 1.00291 0.991581
1.00002 1.00352 0.99133
1.00019 1.00388 0.990356
0.999586 1.00462 0.990524
1.00114 1.00132 0.991118
1.00005 1.00194 0.992581
0.999929 1.00381 0.991015
1.00514 0.995499 0.989808
1.00506 0.997169 0.988079
1.00044 1.00482 0.98946
1.00106 1.0041 0.988729
1.00496 0.999261 0.986134
1.0036 1.00301 0.985351
0.999854 1.00283 0.99213
1.00512 0.994992 0.990203
0.999938 1.00467 0.990235
1.00132 1.00457 0.987589
1.00501 0.99575 0.989706
1.00486 0.998352 0.987042
1.00429 1.00168 0.985434
0.999819 1.00407 0.99123
1.00482 0.995126 0.991371
1.00079 1.00474 0.989415
1.00236 1.00431 0.987012
1.00482 0.99671 0.988805
1.00396 1.00061 0.986475
0.999645 0.998336 0.992023
0.999892 1.00228 0.992621
0.999734 1.00285 0.992375
0.999939 1.00299 0.992005
1.00023 1.00108 0.993219
1.00013 1.00176 0.992669
1.00013 1.00199 0.992566
0.999932 1.00233 0.992411
1.00024 1.00118 0.993104
1.00024 1.00181 0.992435
1.00006 1.00241 0.992202
1.00014 1.00222 0.992283
1.0001 1.00222 0.992354
1.00019 1.0022 0.992208
1.00023 1.00234 0.992005
1.00021 1.00222 0.992171
1.00035 1.00188 0.992205
1.00027 1.00124 0.992907
1.00027 1.00172 0.992609
1.00026 1.00123 0.992921
1.00019 1 0.99434
1.00019 0.999969 0.994368
1.00018 0.997827 0.996484
1.00021 0.999902 0.994392
1.00017 0.997796 0.996782
1.00003 0.996509 0.999228
1.00014 0.997799 0.99709
1.00006 0.996524 0.998214
1.00001 0.996553 0.998243
1.00014 0.999677 0.994751
1.00017 0.999791 0.994598
1.0001 0.997775 0.996694
1.00006 0.997946 0.996822
0.999895 0.996722 0.999245
1.00003 0.998201 0.996395
0.999816 0.996989 0.999198
0.999736 0.997313 0.999138
1.00514 0.995667 0.989536
1.00513 0.995917 0.989474
1.00505 0.997141 0.988474
1.00514 0.995879 0.989463
1.0052 0.995118 0.990092
1.00506 0.994914 0.990389
1.0052 0.99491 0.99027
1.00083 0.997705 0.988457
1.00459 0.995001 0.992262
1.00009 1.00098 0.993581
1.00516 0.995895 0.989462
1.00512 0.995442 0.989958
1.00509 0.995514 0.989634
1.00093 1.00392 0.988932
1.00333 1.00339 0.985133
1.00484 0.999622 0.985765
1.00496 0.996436 0.988768
1.00214 1.00165 0.989498
1.00029 1.00284 0.99113
1.00013 1.00428 0.99017
1.00017 0.99997 0.994415
1.00007 1.00362 0.990999
1.00014 1.00168 0.992979
1.0001 1.00288 0.991657
1.00012 1.00124 0.993134
1.00523 0.99508 0.990067
1.00011 1.00106 0.993376
1.00014 1.0014 0.993077
1.0001 1.00227 0.992316
1.00505 0.995071 0.990314
1.00509 0.995257 0.989771
1.00164 1.00283 0.988845
1.00371 1.00242 0.985356
1.00498 0.99698 0.988229
1.00005 1.00289 0.991665
1.00004 1.00347 0.991232
1.00107 1.00168 0.990859
0.999702 1.00461 0.990602
1.00024 1.00379 0.990409
1.00511 0.994976 0.990407
1.0051 0.995019 0.990246
1.00508 0.995753 0.98929
1.00423 0.999412 0.987913
1.0011 1.00309 0.989577
1.00007 1.00214 0.9923
1.0001 1.00249 0.991883
0.999928 1.00329 0.991562
0.999949 1.00393 0.991022
0.99998 1.00387 0.99079
0.999801 1.00453 0.990309
0.999845 1.00458 0.99038
0.999878 1.00282 0.992095
0.999793 1.00462 0.990326
1.00513 0.994969 0.990232
1.00499 0.995625 0.989586
1.00483 0.998342 0.987268
1.00131 1.00438 0.987563
1.00421 1.00187 0.985466
0.999775 1.00395 0.991372
1.00473 0.995061 0.991388
1.00048 1.00455 0.989608
1.00198 1.00443 0.987046
1.00482 0.996526 0.989072
1.00406 1.00052 0.986403
0.999616 0.998267 0.990253
0.999956 1.00418 0.990833
1.0043 0.995756 0.991626
1.00044 1.00461 0.98956
1.00227 1.00299 0.987355
1.0042 0.997977 0.987786
1.00085 0.995531 0.957727
0.996102 0.997689 0.976378
0.998302 1.00114 0.99187
0.999881 0.99647 0.923857
0.994917 0.998127 0.910117
0.999723 1.00285 0.992363
0.999814 1.00307 0.992071
1.00006 1.00241 0.992292
1.00024 1.00118 0.9931
1.00026 1.00176 0.992434
1.00013 1.00223 0.992284
1.00012 1.00219 0.992376
1.00008 1.00247 0.992121
1.00022 1.00219 0.99213
1.00026 1.00123 0.992971
1.00035 1.00187 0.992224
1.00019 1.00221 0.992191
1.00021 1.00235 0.992033
1.00025 1.00234 0.991986
1.00017 1.00211 0.992212
1.00033 1.00224 0.99193
1.0004 1.00189 0.992064
1.00028 1.00126 0.992869
1.00035 1.0018 0.992341
1.00029 1.00193 0.992325
1.00016 1.00177 0.992649
1.00027 1.00174 0.992547
1.00025 1.00114 0.993124
1.00026 1.00124 0.992911
1.00021 0.99999 0.994312
1.00019 1 0.99434
1.00017 0.997886 0.996464
1.00019 0.99997 0.994368
1.00018 0.997832 0.996483
1.00004 0.99651 0.999221
1.00018 0.997831 0.996514
1.00006 0.99651 0.998703
1.00006 0.996484 0.998219
1.00012 0.999602 0.994862
1.00014 0.999682 0.994749
1.00013 0.997645 0.996778
1.00017 0.99978 0.994599
1.0001 0.997748 0.996946
0.999951 0.996544 0.999273
1.00007 0.997984 0.996538
0.999885 0.996804 0.999228
0.999809 0.997037 0.999186
1.0052 0.995122 0.990012
1.00512 0.995887 0.989463
1.00506 0.994921 0.990234
1.0008 0.997289 0.988564
1.00519 0.994912 0.990232
1.00454 0.995304 0.992034
1.00492 0.99603 0.990928
0.997135 0.997747 0.974164
1.00174 0.996205 0.990075
1.00009 1.00093 0.993629
1.00011 1.00096 0.993576
0.999989 1.00208 0.992626
1.00006 1.00182 0.99278
1.00524 0.994964 0.99013
1.00503 0.995077 0.990311
1.0051 0.995373 0.989635
1.00183 1.00263 0.988907
1.00332 1.00204 0.985566
1.00491 0.997295 0.988187
1.00096 1.00216 0.99059
0.999837 1.00461 0.990679
1.00028 1.0037 0.990461
1.00013 1.00143 0.993076
1.00007 1.0034 0.991134
1.00006 1.00288 0.99175
1.00011 1.00105 0.993475
1.00011 1.00227 0.992205
1.00512 0.994946 0.990386
1.00005 1.0022 0.992429
1.0001 1.00249 0.991992
0.999888 1.00312 0.99175
1.00511 0.994966 0.99025
1.00508 0.995613 0.989278
1.00135 1.00276 0.989543
1.00417 0.999365 0.98797
0.999956 1.00393 0.991004
1.00005 1.00386 0.990679
0.99987 1.0046 0.990389
1.00004 1.00446 0.990301
1.00504 0.995413 0.990346
1.00509 0.994921 0.990339
1.00433 0.997525 0.989188
1.00137 1.0021 0.990259
0.999949 1.00341 0.99133
0.999975 1.00368 0.991015
0.999659 1.00455 0.990707
0.999801 1.00513 0.989794
1.00023 0.994917 0.952908
0.999712 1.00387 0.991514
1.00013 1.00442 0.989799
1.00467 0.995017 0.991399
1.00481 0.996356 0.989338
1.00417 1.00039 0.986329
1.00155 1.00451 0.987078
0.999667 0.998133 0.988445
0.99981 1.00423 0.990962
1.00439 0.995592 0.991585
1.00034 1.00457 0.989613
1.00237 1.00283 0.987344
1.00441 0.99798 0.987937
1.00146 0.995775 0.952291
0.995833 0.997849 0.972537
0.998243 1.0011 0.991811
0.999841 0.997012 0.926112
0.994682 0.998138 0.902981
0.999813 1.00367 0.991664
0.999897 0.995321 0.929912
0.995053 0.998845 0.911546
1.00335 0.998412 0.990885
1.00009 1.00449 0.990145
1.0027 1.00142 0.98767
0.997505 1.0023 0.992549
0.999669 0.996771 0.956818
0.994863 0.998201 0.97084
0.998438 0.998101 0.928883
0.994746 0.999759 0.9116
0.999698 1.00314 0.992137
0.999975 1.00261 0.992232
0.999955 1.00143 0.993667
1.00026 1.0012 0.993034
1.00034 1.00188 0.992243
1.00017 1.00224 0.992091
1.00019 1.00235 0.992061
1.00019 1.00222 0.992174
1.00028 1.00125 0.99287
1.00024 1.00237 0.991954
1.00032 1.00224 0.991956
1.0004 1.00188 0.992128
1.00019 1.00204 0.992272
1.00027 1.00238 0.991955
1.00022 1.00169 0.992511
1.00044 1.00225 0.991709
1.00041 1.00187 0.99217
1.00037 1.00178 0.992331
1.0003 1.00192 0.992324
1.00043 1.00191 0.992073
1.00016 1.00208 0.992369
1.00022 1.00188 0.992366
0.999855 1.00281 0.992106
1.00006 1.00192 0.992679
1.00016 1.00179 0.992649
1.00022 1.00112 0.993195
1.00027 1.00176 0.992486
1.00026 1.00116 0.993075
1.00024 0.999956 0.994304
1.00027 1.00125 0.992902
1.00021 0.999989 0.994314
1.00013 0.997914 0.997003
1.00019 1 0.99434
1.00016 0.997875 0.996734
1.00009 0.99654 0.998142
1.00018 0.997837 0.996482
1.00004 0.996518 0.999219
1.00009 0.996512 0.998177
1.00011 1.00099 0.993541
1.00012 0.999585 0.994885
1.00012 0.999604 0.99486
1.00015 0.997577 0.996817
1.00014 0.999686 0.994746
1.00014 0.997627 0.996776
0.999996 0.996424 0.999288
1.00009 0.997756 0.997179
0.999965 0.996616 0.998763
0.999927 0.99685 0.998193
1.00067 0.996905 0.988693
1.00519 0.994913 0.990195
1.00451 0.995604 0.991806
0.996517 0.997293 0.975778
1.0015 0.996456 0.990308
1.00497 0.995532 0.99077
1.00395 0.99607 0.990126
0.997739 0.996364 0.978489
1.00006 0.995512 0.956049
0.999245 0.997717 0.930192
0.994644 0.998158 0.908666
0.999995 1.00192 0.992631
1.00009 1.00093 0.993625
1.00012 1.00094 0.99357
1.00001 1.00208 0.992585
0.999973 1.00286 0.991943
1.00019 1.00234 0.992128
1.0001 1.00197 0.992601
1.00003 1.00191 0.992705
1.00514 0.994913 0.990364
1.00513 0.994937 0.990248
1.00508 0.995421 0.989269
1.00151 1.00249 0.989511
1.00415 0.999289 0.988026
0.999894 1.00455 0.990399
1.00026 1.00439 0.990295
1.00014 1.00386 0.990569
1.00009 1.00249 0.992101
0.999953 1.00395 0.990984
1.00005 1.00225 0.992558
0.999895 1.00293 0.991938
1.00502 0.995273 0.99038
0.999951 1.00337 0.991411
0.999956 1.00368 0.991137
1.00506 0.994921 0.990223
1.00393 0.997298 0.989549
1.00154 1.00194 0.990103
0.999778 1.00463 0.990544
0.999974 1.00503 0.98981
1.00296 0.999408 0.99062
1.0044 0.995973 0.991144
1.00257 0.998268 0.990662
1.00073 1.0026 0.990547
0.999963 1.00382 0.990872
0.999764 1.00455 0.990561
0.999721 1.00515 0.990059
0.999942 0.994848 0.929618
1.0008 0.994968 0.960166
0.999684 1.00427 0.991091
1.00025 1.00446 0.989667
1.00442 0.995412 0.991549
1.00459 0.998024 0.988088
1.00245 1.00277 0.987337
1.00032 0.995262 0.955932
0.996232 0.99807 0.972168
0.998156 1.0009 0.99174
0.998632 0.99681 0.931937
0.994626 0.998147 0.895791
0.999717 1.00365 0.99169
0.999913 0.995759 0.928658
0.995182 0.998727 0.908122
1.00334 0.998277 0.990855
1 1.0044 0.990264
1.00229 1.00139 0.988392
0.997857 1.00198 0.993201
1.00102 0.996779 0.952647
0.995056 0.997637 0.974214
0.998544 0.9988 0.929175
0.994894 0.999728 0.909581
0.999342 1.00312 0.993179
0.99524 0.998469 0.913322
0.994972 1.00108 0.928177
1.00031 1.0006 0.993108
0.999252 1.00421 0.99233
0.996637 1.00276 0.993924
0.994841 0.999592 0.97543
0.997579 0.998546 0.950868
0.995239 0.999903 0.933665
0.994739 0.99874 0.919057
0.999937 1.00277 0.992173
0.999985 1.0014 0.993588
0.999719 1.00009 0.994933
1.00028 1.00124 0.992871
1.00039 1.00188 0.992192
1.00031 1.00222 0.991982
1.00024 1.0024 0.991922
1.00019 1.002 0.992333
1.00041 1.00189 0.992162
1.00027 1.00235 0.991947
1.00044 1.00227 0.991707
1.00008 1.00168 0.992676
0.999435 1.00165 0.993882
1.00034 1.00234 0.991855
1.00053 1.00211 0.991773
1.00039 1.00177 0.992321
1.00031 1.0019 0.992323
1.00043 1.00191 0.992069
1.00016 1.00208 0.99236
1.00023 1.00187 0.992408
1.00001 1.00235 0.992319
1.00031 1.00182 0.992235
1.00004 1.00197 0.992634
1.00009 1.00275 0.991816
0.999704 1.00473 0.99018
0.999653 1.00345 0.991643
0.999862 1.00286 0.992089
0.99997 1.00213 0.992612
1.00006 1.00193 0.992675
1.00017 1.00115 0.993237
1.00015 1.00182 0.992648
1.00022 1.00112 0.993198
1.00025 0.99991 0.99432
1.00026 1.00116 0.993026
1.00024 0.999943 0.994307
1.0001 0.997945 0.997016
1.00021 0.999983 0.994315
1.00014 0.997903 0.996738
1.00006 0.99656 0.998151
1.00018 0.997857 0.996464
1.00003 0.996543 0.999215
1.00004 0.996521 0.999217
1.00015 1.00108 0.99358
1.00014 0.999631 0.994815
1.0001 1.00099 0.993541
1.00016 0.997549 0.996827
1.00012 0.99958 0.994885
1.00012 0.999608 0.994859
1.00015 0.997576 0.996814
1.00002 0.996362 0.999295
1.00011 0.99762 0.997257
1.00002 0.996447 0.998796
0.999997 0.996607 0.99828
0.999875 0.995866 0.92471
0.995185 0.99818 0.911522
0.997746 0.996755 0.976536
1.00127 0.996589 0.990547
1.00501 0.995008 0.990614
0.996949 0.996043 0.980453
1.00395 0.995864 0.990282
1.00129 0.995629 0.955915
0.999835 0.996739 0.924566
0.99464 0.998146 0.901502
0.998427 0.997224 0.983418
0.999433 0.997298 0.957115
0.998456 0.998603 0.927236
0.994732 0.999464 0.91013
1.00011 1.00275 0.991754
1.00001 1.00191 0.992704
1.0001 1.00092 0.993622
1.00002 1.00207 0.992545
0.999975 1.00274 0.99203
1.00023 1.0025 0.991888
1.00019 1.00231 0.992116
1.00017 1.0021 0.992286
1.00011 1.00197 0.992531
1.00002 1.00197 0.992632
1.00499 0.994998 0.99042
1.00508 0.994927 0.990122
1.00352 0.99705 0.989913
1.00165 1.00184 0.989949
1.00016 1.00494 0.989825
0.999902 1.00469 0.990381
0.999922 1.00368 0.99126
0.999933 1.00332 0.991492
1.00317 0.998351 0.990836
0.999958 1.00383 0.990861
0.99977 1.00464 0.990433
1.00427 0.995893 0.990852
1.00224 0.998306 0.991346
1.00096 1.00276 0.990044
0.999921 1.00511 0.989962
0.999943 0.999817 0.993406
1.00161 0.997949 0.994111
0.999748 1.00404 0.990674
0.99997 1.00371 0.990966
0.999883 1.00448 0.990328
0.999787 1.00513 0.989964
0.994751 0.998409 0.924505
0.999935 0.995011 0.93233
1.00031 0.994945 0.95277
0.999587 1.00377 0.991717
0.999947 1.00427 0.990385
1.00337 0.998122 0.990828
1.00194 1.00153 0.989111
0.999886 0.995459 0.932827
0.999223 0.996714 0.952746
0.994897 0.997051 0.970893
0.998237 1.00105 0.99379
0.998422 0.998134 0.92289
0.995164 0.99857 0.90892
0.995006 0.99972 0.912776
0.999158 1.0031 0.993185
0.995161 0.998073 0.917364
0.995174 1.00124 0.927592
1.00064 1.00059 0.993114
0.998878 1.00435 0.992322
0.996384 1.00071 0.996521
0.994925 0.998847 0.973291
0.997672 0.998785 0.957353
0.997235 0.999893 0.927456
0.994731 0.998685 0.922606
0.998018 1.00236 0.995893
0.995006 0.999121 0.938238
0.994569 0.999244 0.941696
0.99618 1.00242 0.998957
0.994875 1.00001 0.981945
0.995561 1.00004 0.956951
0.994811 0.999917 0.926673
0.994809 0.997332 0.919763
0.999992 1.00136 0.993513
0.999764 1.00018 0.995089
0.999033 1.00046 0.996451
1.0004 1.0019 0.992154
1.00045 1.00229 0.991706
1.00029 1.0023 0.991939
0.999954 1.00169 0.992842
1.00049 1.00214 0.991765
1.00033 1.00233 0.991855
0.999434 1.00146 0.994107
0.997982 1.00189 0.996117
0.999626 1.00241 0.993134
1.00043 1.00212 0.991892
1.00044 1.00191 0.992065
1.00017 1.00207 0.99235
1.00024 1.00187 0.992449
1.00031 1.00185 0.992251
1.00001 1.00238 0.992311
1.00008 1.00197 0.992627
1.00008 1.00218 0.992487
0.999734 1.00175 0.993341
1.00041 1.00165 0.992212
1.00012 1.00264 0.99193
0.999768 1.00407 0.99089
1.00065 1.00494 0.988637
0.99982 1.00422 0.99107
0.999606 1.00477 0.990442
0.999711 1.00345 0.991735
0.999861 1.00253 0.992245
0.999873 1.00291 0.992071
0.999998 1.00213 0.992603
1.00013 1.00123 0.993226
1.00009 1.00192 0.992671
1.00019 1.00114 0.993235
1.00023 0.999929 0.994335
1.00023 1.00113 0.993201
1.00025 0.999914 0.99432
1.00007 0.997979 0.997041
1.00024 0.999942 0.994309
1.00011 0.997936 0.996755
1.00001 0.996643 0.998165
1.00016 0.997881 0.996469
1.00003 0.996575 0.998681
1.00003 0.996558 0.999215
1.00017 1.00122 0.993237
1.00016 0.999702 0.994706
1.00012 1.00111 0.993434
1.00016 0.997565 0.996805
1.00014 0.999621 0.99482
1.00008 1.00102 0.993541
1.00003 0.996341 0.999297
1.00016 0.997549 0.996828
1.00012 0.999571 0.994886
1.00015 0.997575 0.996812
1.00002 0.996372 0.999293
0.999994 0.996442 0.999284
0.994786 0.997259 0.919583
0.999906 0.995433 0.928032
0.995185 1.0011 0.927688
0.995214 0.998602 0.909301
0.99773 0.995844 0.9771
1.0039 0.996026 0.990439
1.00077 0.996068 0.95555
0.999855 0.996819 0.930977
0.994651 0.998141 0.894335
0.998367 0.997298 0.982267
1.00119 0.997024 0.949299
0.998564 0.998907 0.927715
0.994734 0.999612 0.906247
0.994961 1.00007 0.978223
0.998333 0.999761 0.949967
0.995898 0.999812 0.924086
0.994724 0.998367 0.913564
1.00012 1.00312 0.991415
1.00008 1.00275 0.991847
0.999993 1.00197 0.992777
0.999992 1.00263 0.992117
1.00032 1.0026 0.991513
1.00023 1.00247 0.991935
1.00017 1.0023 0.992105
1.00029 1.00205 0.992239
1.00021 1.00205 0.992364
1.00012 1.00198 0.992461
1.00341 0.997503 0.991051
1.00413 0.995878 0.990563
1.002 0.998425 0.992023
1.00123 1.00282 0.989549
1.00004 1.00509 0.989866
0.999799 1.0047 0.990306
0.999997 1.00379 0.99085
0.999985 1.00369 0.991
1.00031 0.999607 0.993669
0.999929 1.00453 0.990347
0.999882 1.00513 0.989984
1.00167 0.997932 0.993738
1.00021 1.00375 0.990549
0.998707 0.997226 0.995788
0.9987 0.999196 0.998456
0.999644 1.00393 0.991084
1.00001 1.00405 0.990624
0.999924 1.00502 0.989746
0.994666 0.998726 0.943734
0.994752 0.99847 0.923291
0.999902 0.995247 0.926571
0.998964 1.0031 0.993185
0.998566 1.00425 0.992299
1.0009 1.00059 0.993128
0.995099 0.997577 0.918849
0.997971 0.998725 0.951119
0.994858 0.998265 0.974091
0.996325 0.999826 0.999324
0.996187 0.999507 0.933443
0.995483 1.0014 0.927014
0.994737 0.998647 0.922652
0.998063 1.00231 0.996096
0.995029 0.998336 0.940812
0.994587 0.999402 0.941505
0.996364 1.00293 0.998347
0.994858 0.99993 0.982644
0.996327 1.00002 0.950851
0.994796 0.997728 0.921402
0.994911 0.999962 0.931166
0.996826 1.0029 0.998156
0.99436 0.996659 0.961709
0.994668 0.997742 0.945015
0.994748 0.998377 0.913699
0.994926 1.00165 0.994751
0.995896 0.999762 0.959128
0.994838 1 0.929957
0.999879 1.00026 0.995243
0.999152 1.0004 0.996204
0.997354 1.00155 0.998308
1.00045 1.00218 0.991757
1.0003 1.00232 0.991853
0.999383 1.00133 0.994337
1.00037 1.00209 0.991954
0.99962 1.00235 0.993149
0.998192 1.00187 0.995823
0.997639 1.00227 0.996619
0.999567 1.00226 0.993287
1.0003 1.00188 0.992266
1.00001 1.00241 0.992304
1.00012 1.00197 0.992621
0.999834 1.00176 0.993274
1.00008 1.0021 0.992512
0.999574 1.00218 0.993281
1.00003 1.00193 0.99263
1.0003 1.00345 0.990473
1.00015 1.00253 0.992045
1.00005 1.00399 0.99075
1.00075 1.00454 0.988375
1.00083 1.00474 0.988258
0.999929 1.0047 0.990255
1.00052 1.00488 0.988745
0.999892 1.00322 0.991742
0.999785 1.00426 0.990972
0.999503 1.00479 0.990704
0.999768 1.00345 0.991828
0.999886 1.0025 0.992333
1.0001 1.0014 0.993116
1.00002 1.00213 0.992595
1.00015 1.00122 0.993223
1.00019 1.00001 0.994335
1.0002 1.00114 0.993234
1.00024 0.999923 0.994336
1.00001 0.998038 0.997072
1.00026 0.999907 0.994321
1.00008 0.997972 0.996785
0.999938 0.996741 0.998188
1.00013 0.997906 0.99649
0.999985 0.996655 0.998689
0.999994 0.996621 0.999218
1.00024 1.00133 0.992825
1.00019 0.999852 0.994318
1.00017 1.00123 0.993237
1.00016 0.997639 0.996732
1.00016 0.999709 0.994596
1.0001 1.00112 0.993288
1.00003 0.996371 0.99929
1.00016 0.997565 0.996809
1.00014 0.999608 0.994824
1.00003 0.996345 0.999296
1.00016 0.997549 0.996829
1.00002 0.996383 0.999292
0.994779 0.997633 0.942201
0.994836 0.997391 0.921878
0.999887 0.995862 0.928964
1.00036 1.00203 0.992052
0.994548 0.99949 0.944617
0.995276 1.0012 0.927176
0.99531 0.998786 0.911638
0.998475 0.997516 0.980745
0.999681 0.997777 0.956675
0.998463 0.99868 0.921072
0.99472 0.99978 0.90775
0.995646 0.99932 0.974531
0.997632 0.999193 0.956139
0.997336 0.999902 0.927264
0.994723 0.998645 0.914542
0.995114 0.999234 0.970731
0.995466 1.00087 0.955514
0.994837 0.999942 0.930888
0.994772 0.997533 0.919746
1.00023 1.00323 0.991079
1.00012 1.00316 0.99136
1.0001 1.00271 0.991941
1.00032 1.00251 0.991608
1.00033 1.00258 0.991603
1.00021 1.00245 0.991983
1.00031 1.00205 0.992254
1.00024 1.00201 0.992442
1.00063 0.999651 0.993905
1.0017 0.99793 0.993349
1.00001 1.00368 0.991034
1.00067 1.0036 0.990416
1.00004 1.00503 0.990002
0.999862 1.00468 0.990366
1.00005 1.00403 0.990636
0.998623 0.998223 0.996208
0.999949 1.00496 0.98987
1.00005 1.00346 0.991132
0.998804 0.998678 0.998453
1.00008 1.00355 0.990949
0.997197 0.998859 0.996255
0.997316 1.00008 1.00042
0.999779 1.00431 0.990715
1.00002 1.00447 0.990365
0.994288 0.997335 0.965266
0.99464 0.99908 0.944409
0.994759 0.998376 0.9221
0.997998 1.00234 0.996321
0.99638 1.00311 0.997712
0.995026 0.997808 0.94334
0.995657 1.00016 0.957712
0.994866 0.999122 0.978972
0.995017 0.999972 0.930257
0.994582 0.999556 0.941327
0.994775 0.99803 0.923031
0.996909 1.00271 0.998004
0.99439 0.996781 0.961646
0.994625 0.997631 0.949465
0.99499 1.00259 0.99774
0.994751 0.998664 0.914654
0.995301 0.999484 0.955476
0.99517 0.999996 0.932798
0.996099 1.00322 0.99867
0.994452 0.995378 0.968036
0.994574 0.99949 0.944815
0.994747 0.999503 0.910374
0.995589 0.999947 0.930025
0.995306 0.999427 0.988514
0.995971 1.00109 0.948651
0.999199 1.00019 0.995943
0.997361 1.002 0.99786
0.995801 1.00246 1.0006
1.00031 1.00204 0.992015
0.999601 1.00224 0.993163
0.9985 1.00169 0.995513
0.999598 1.00219 0.993258
0.997708 1.00207 0.996618
0.997914 1.00354 0.994997
0.999936 1.00176 0.993206
1.00006 1.00203 0.992538
0.999751 1.00228 0.993186
0.999297 1.00421 0.991398
0.999624 1.0022 0.993043
1.0001 1.00334 0.990828
1.00093 1.00466 0.988353
1.00244 1.00388 0.98635
1.00034 1.00392 0.990607
1.00093 1.00461 0.988158
1.00151 1.00398 0.98845
0.999994 1.00497 0.989412
1.00087 1.00466 0.988456
0.999821 1.00398 0.991045
0.99997 1.00467 0.990236
1.0004 1.00485 0.988854
1.00005 1.00184 0.992763
0.99987 1.0032 0.991714
0.99975 1.00431 0.990873
0.999912 1.00246 0.992421
1.00012 1.00141 0.993106
1.00013 1.00015 0.994293
1.00017 1.00122 0.993221
1.0002 0.999997 0.994335
0.999956 0.998161 0.996567
1.00025 0.999919 0.994336
1.00003 0.998034 0.99656
0.999811 0.996848 0.999242
1.00009 0.997948 0.996523
0.999923 0.996747 0.998702
0.999947 0.996697 0.999223
1.00028 1.0014 0.992686
1.00023 1.00003 0.994056
1.00025 1.00134 0.992907
1.00015 0.997771 0.996614
1.00019 0.999861 0.994286
1.00018 1.00123 0.993237
1.00001 0.996461 0.99927
1.00015 0.997639 0.996738
1.00016 0.99972 0.994486
1.00003 0.996361 0.999293
1.00016 0.997564 0.996812
1.00003 0.996348 0.999296
0.994326 0.996412 0.962647
0.994704 0.998683 0.941993
0.994865 0.998044 0.92202
1.00034 1.00204 0.992112
1.00033 1.00197 0.992121
1.00036 1.00233 0.991819
0.994639 0.997565 0.944867
0.994586 0.999162 0.944445
0.99533 1.00167 0.926666
0.995156 0.999278 0.976788
0.998447 0.999947 0.949175
0.995227 0.999896 0.933475
0.994741 0.99899 0.911961
0.995331 0.998602 0.973835
0.99637 1.00002 0.95389
0.994792 0.999995 0.932507
0.994743 0.997748 0.921326
0.994895 0.998909 0.970207
0.995764 1.00005 0.957098
0.994826 1.00002 0.930371
0.994729 0.998732 0.918892
1.00035 1.00288 0.991205
1.00024 1.00319 0.991081
1.00013 1.00319 0.991304
1.00034 1.00252 0.991591
1.00033 1.00256 0.991693
1.00033 1.00204 0.992268
0.998503 0.998798 0.996615
0.99865 0.998332 0.998461
1.0001 1.00399 0.990648
1.00042 1.00298 0.99118
0.999894 1.00498 0.989995
1.00014 1.00355 0.990864
0.999898 1.00451 0.990385
0.997173 0.998451 0.996617
0.999665 1.00414 0.991307
0.997032 1.00041 1.00021
1.00004 1.00345 0.991297
0.995745 0.998246 0.997064
0.997039 1.00281 0.997867
0.999189 1.00443 0.992005
0.99433 0.996543 0.972896
0.994308 0.996972 0.967153
0.994594 0.999331 0.945053
0.997125 1.00271 0.997851
0.995536 1.00244 0.995344
0.994412 0.996877 0.961581
0.995131 0.999488 0.959983
0.994826 0.999987 0.927552
0.994595 0.997448 0.95391
0.994763 0.999022 0.912172
0.995897 1.0037 0.998973
0.994388 0.995173 0.969644
0.994597 0.999137 0.944648
0.994923 0.999649 0.98427
0.994734 0.99962 0.906658
0.994798 0.999959 0.931785
0.995569 1.00092 0.955887
0.99492 1.0032 0.999281
0.994364 0.996052 0.963153
0.995164 1.00096 0.928267
0.994627 0.99813 0.909654
0.995977 0.998911 0.924294
0.996188 1.00013 0.955904
0.995765 1.0004 0.97838
0.997462 1.00248 0.997471
0.9961 1.00175 1.00056
0.99649 1.00297 0.998563
0.999641 1.00215 0.99323
0.997709 1.002 0.996604
0.997497 1.00388 0.99526
0.999024 1.00334 0.993472
0.999935 1.00239 0.993092
0.999998 1.00406 0.991017
1.00086 1.00498 0.988111
0.999892 1.00323 0.991188
1.00103 1.00461 0.988225
1.00276 1.00457 0.985684
1.00412 1.00268 0.984494
1.00199 1.00362 0.987088
1.00243 1.00411 0.986225
1.00111 1.00468 0.987941
1.00109 1.00392 0.98916
1.00125 1.00371 0.988894
0.999866 1.00472 0.989982
1.00008 1.00498 0.989521
1.0009 1.00456 0.988657
0.999976 1.00268 0.992048
0.999908 1.00389 0.991051
0.999998 1.00462 0.990216
1.00006 1.00043 0.994129
1.00007 1.00184 0.99275
0.999847 1.00317 0.991687
1.00013 1.00141 0.993095
1.00014 1.00015 0.994291
0.999869 0.998338 0.996542
1.00021 0.999988 0.994336
0.999959 0.998158 0.996566
0.999744 0.997006 0.999235
1.00004 0.998024 0.996557
0.99984 0.996872 0.998719
0.999885 0.99679 0.99923
1.00034 1.00142 0.992692
1.00028 1.00016 0.994015
1.0003 1.00139 0.992727
1.00013 0.997937 0.996477
1.00024 1.00003 0.994131
1.00026 1.00134 0.992989
0.99997 0.996599 0.999242
1.00015 0.997767 0.996622
1.0002 0.999868 0.994254
1.00001 0.99644 0.999277
1.00015 0.997639 0.996744
1.00003 0.996354 0.999295
0.994429 0.995174 0.967991
0.994391 0.996141 0.962583
0.994648 0.999069 0.941881
1.00025 1.00208 0.992119
1.00016 1.00262 0.99187
1.0003 1.00206 0.992172
1.00031 1.00199 0.992127
1.00032 1.00236 0.991791
1.00025 1.00228 0.992004
1.00041 1.00239 0.991667
0.994571 0.998532 0.941904
0.994604 0.9976 0.949369
0.994624 0.998757 0.944278
0.994747 0.997885 0.922902
0.99487 0.999143 0.971036
0.995347 1.00003 0.95322
0.994884 0.999978 0.934863
0.995043 0.999074 0.969565
0.995067 1.00005 0.951782
0.995005 0.99999 0.93401
0.994721 0.998612 0.922629
0.995942 0.997388 0.973443
0.995128 1.0003 0.950805
0.994775 0.999936 0.927258
0.994768 0.999591 0.911182
1.00004 1.00287 0.991787
1.00033 1.00288 0.991226
1.00025 1.00317 0.991082
1.00036 1.00252 0.991575
0.997286 0.998442 0.996974
0.996954 1.00069 1
1.00013 1.00362 0.99078
0.999967 1.0044 0.990404
0.999734 1.00392 0.991904
0.999988 1.00343 0.991295
0.99913 1.00444 0.991961
0.995656 0.9992 0.994657
0.996688 1.00348 0.998204
0.998979 1.00362 0.992783
0.995462 0.999279 0.99341
0.997611 1.00445 0.996496
0.994295 0.996545 0.966259
0.994183 0.995787 0.975154
0.994362 0.996578 0.969037
0.995585 1.00414 0.999205
0.995216 0.998485 0.989493
0.994327 0.995072 0.971272
0.996548 1.00106 0.949224
0.995224 0.999929 0.933888
0.994619 0.99881 0.944481
0.994715 0.999746 0.908106
0.995161 1.00199 0.999644
0.994405 0.9959 0.963102
0.995316 1.00098 0.927745
0.99489 1.00095 0.98054
0.994632 0.998114 0.902394
0.997355 0.999889 0.926953
0.99496 1.00006 0.951288
0.995503 1.00356 0.994633
0.994892 0.99697 0.943109
0.995141 0.998092 0.912407
0.998539 0.997288 0.92893
0.995676 1.00001 0.956716
0.994902 0.999465 0.973429
0.996502 1.0008 1.00043
0.996174 1.00371 0.998537
0.998541 0.999654 0.998395
0.997119 1.0041 0.995524
0.998233 1.00353 0.993853
1.00221 1.0009 0.989969
1.00071 1.00389 0.990633
1.00115 1.00495 0.987967
1.00267 1.00315 0.986023
1.00113 1.00458 0.988099
1.00271 1.00465 0.985492
1.0041 1.00251 0.984621
1.005 1.00064 0.984755
1.00413 1.00309 0.984746
1.00429 1.00267 0.984253
1.00158 1.00351 0.987901
1.00199 1.00363 0.987363
1.00243 1.00438 0.9861
1.00072 1.00453 0.989039
1.001 1.0039 0.989157
1.00099 1.00346 0.989336
1.00001 1.00367 0.99097
0.999918 1.00467 0.9901
1.00018 1.00498 0.989631
0.999979 1.00104 0.993649
1.00003 1.00261 0.992043
0.999986 1.00379 0.991057
0.99978 0.998551 0.996488
1.00006 1.00045 0.994118
1.0001 1.00183 0.992737
1.00014 1.00015 0.994289
0.999872 0.998343 0.99654
0.999649 0.997193 0.999228
0.999963 0.998154 0.996566
0.999733 0.997039 0.999233
0.999809 0.996907 0.999235
1.00025 1.00219 0.992092
1.00037 1.00149 0.992591
1.00031 1.00031 0.993822
1.00034 1.00143 0.992684
1.0001 0.998138 0.996331
1.00027 1.00018 0.994012
1.00029 1.00142 0.992769
0.999922 0.99677 0.999209
1.00013 0.997935 0.996485
1.00024 1.00003 0.994205
0.999976 0.996568 0.999251
1.00014 0.997764 0.99663
1.00001 0.996415 0.999284
0.994394 0.995529 0.962547
0.994372 0.995063 0.969612
0.994453 0.995898 0.962511
1.0003 1.00204 0.992142
1.00012 1.00266 0.991831
1.00005 1.003 0.991588
1.00012 1.00253 0.991876
1.00014 1.00302 0.991558
1.0003 1.00201 0.992135
1.00029 1.00239 0.991763
1.00025 1.00228 0.992001
1.00039 1.00241 0.991674
1.00014 1.00252 0.992048
0.995029 1.0006 0.928061
0.994595 0.998778 0.94175
0.994558 0.997583 0.953865
0.994729 0.998491 0.922695
0.994844 1 0.928057
0.994898 0.999162 0.968252
0.99502 1.00012 0.956618
0.995217 0.997574 0.970066
0.995541 1.00017 0.956618
0.994936 0.999959 0.932365
0.994944 0.999533 0.909025
0.995669 0.995517 0.974685
0.995083 1.00022 0.957337
0.995437 0.999874 0.933116
0.99499 0.998167 0.908618
0.999218 1.00208 0.993918
1.00001 1.00295 0.99184
1.00032 1.00288 0.991246
0.995484 0.999862 0.992234
0.996281 1.00395 0.998501
0.999957 1.00343 0.991294
0.998834 1.00458 0.991919
0.99899 1.00364 0.992809
0.997158 1.00394 0.996406
0.995086 0.999628 0.993649
0.997293 1.00283 0.996522
0.995886 1.00099 0.993049
0.994718 0.998337 0.94393
0.994315 0.996183 0.968078
0.994026 0.995115 0.977412
0.995337 1.00093 1.00007
0.994909 1.00076 0.97597
0.994445 0.995699 0.96304
0.996986 1.00035 0.953505
0.995176 0.999916 0.933095
0.99539 1.00142 0.92724
0.99465 0.998137 0.895118
0.995534 1.0035 0.994939
0.994806 0.998027 0.942885
0.995219 0.998452 0.910192
0.994932 0.999485 0.974614
0.998566 0.998558 0.928974
0.996293 0.999999 0.953069
0.996564 1.00029 0.992806
0.994844 0.996988 0.92053
0.999103 0.997132 0.93114
0.997873 0.99849 0.951398
0.994862 0.998539 0.975536
0.995909 1.00435 0.998493
0.998403 0.999634 0.998361
1.00284 0.99796 0.993211
0.9975 1.00356 0.994203
1.0014 1.00127 0.990466
1.0037 0.998599 0.988373
1.00145 1.00488 0.987821
1.00275 1.00324 0.986074
1.00441 0.999954 0.986331
1.00268 1.0047 0.985301
1.00403 1.00245 0.984693
1.00506 0.999395 0.98589
1.00508 0.999281 0.986017
1.00489 1.00145 0.984328
1.005 1.00061 0.984808
1.00331 1.00333 0.985527
1.00387 1.00307 0.984609
1.00445 1.00264 0.984013
1.0014 1.00391 0.988292
1.0015 1.00347 0.988232
1.00198 1.00366 0.987638
1.00051 1.00387 0.989876
1.0006 1.0045 0.989134
1.00091 1.00386 0.989153
0.99995 1.00203 0.992689
1.00007 1.00362 0.990976
0.999972 1.00461 0.990217
0.99968 0.998896 0.996829
0.999991 1.00105 0.993629
1.00009 1.00254 0.992037
0.999566 0.997438 0.998151
0.999778 0.998593 0.996725
1.00006 1.00047 0.994107
0.999874 0.99835 0.996537
0.999639 0.997233 0.999224
0.999722 0.99707 0.999231
1.00018 1.00254 0.991802
1.00035 1.00168 0.992441
1.00022 1.00224 0.992059
1.0003 1.00046 0.993686
1.00034 1.00153 0.992588
1.00005 0.998341 0.996206
1.0003 1.00032 0.99382
1.00035 1.00143 0.992675
0.999864 0.996971 0.999174
1.00009 0.998135 0.996339
1.00027 1.00019 0.994009
0.999929 0.996736 0.999219
1.00012 0.997934 0.996494
0.999982 0.996539 0.999259
0.995109 0.996916 0.944896
0.994387 0.995663 0.962493
0.994295 0.99507 0.971245
1.00011 1.00301 0.991542
1.0003 1.00206 0.992166
1.0001 1.0027 0.991791
1.00016 1.00254 0.991908
1.00011 1.00293 0.991631
1.00009 1.00303 0.991542
1.00008 1.00337 0.991225
0.999979 1.00307 0.991517
1.00027 1.00226 0.991998
1.00034 1.00241 0.99168
1.0001 1.00257 0.991999
0.999599 1.00295 0.992864
0.995045 0.999076 0.910727
0.99529 1.00073 0.927449
0.994607 0.999001 0.941602
0.995145 0.999469 0.912154
0.994871 0.999941 0.931962
0.995086 1.00032 0.951008
0.995944 0.997623 0.967901
0.99577 0.995291 0.976527
0.994796 0.998145 0.901683
0.995521 1.00003 0.953496
0.99732 0.999896 0.926673
0.99531 0.996883 0.977293
0.995706 1.00002 0.958433
0.998933 0.997593 0.926593
0.999113 1.00075 0.995483
0.999396 1.00201 0.993892
0.999953 1.00305 0.991892
0.994912 0.999643 0.993865
0.997087 1.00336 0.996314
0.999082 1.00356 0.992832
0.998231 1.00249 0.9963
0.995573 1.00131 0.993207
0.99757 1.00088 0.993832
0.994769 0.999369 0.918669
0.99467 0.997598 0.948232
0.994332 0.995808 0.969899
0.995449 1.00418 0.995284
0.994909 0.999369 0.975408
0.994708 0.998555 0.942739
0.995256 1.00004 0.952468
0.99852 0.997371 0.922456
0.995401 0.998458 0.912472
0.996665 1.00056 0.992842
0.994901 0.997044 0.922769
0.999845 0.996338 0.925489
0.994873 0.998637 0.971584
0.997577 0.998637 0.95742
0.998324 0.998742 0.994413
0.999856 0.99571 0.925274
0.999225 0.997721 0.957029
0.994898 0.998187 0.971018
0.998215 0.999798 0.998382
1.00213 0.997435 0.993879
1.00386 0.997617 0.990665
1.00064 1.00164 0.990964
1.00357 0.999182 0.988285
1.00483 0.997232 0.988136
1.00279 1.00342 0.986126
1.00425 1.00017 0.98634
1.00497 0.997721 0.987728
1.00395 1.00242 0.984763
1.00506 0.999335 0.985879
1.0051 0.997634 0.987603
1.00514 0.998104 0.987088
1.00512 1.00009 0.985251
1.00508 0.999221 0.986037
1.00454 1.00156 0.984688
1.0048 1.00137 0.984448
1.005 1.00058 0.984861
1.00243 1.00359 0.986751
1.00307 1.00331 0.985692
1.00363 1.00302 0.984471
1.00127 1.0034 0.989037
1.00147 1.00386 0.988261
1.00143 1.00341 0.988564
1.0002 1.00275 0.991557
1.00056 1.00387 0.989887
1.00049 1.00446 0.98923
0.999629 0.999405 0.995852
1.00003 1.00195 0.992668
1.00014 1.00356 0.990982
0.999442 0.99769 0.999193
0.999683 0.998962 0.996264
1.00001 1.00106 0.993608
0.999551 0.997435 0.999208
0.999776 0.998616 0.996456
0.99963 0.997277 0.999219
1.00025 1.00271 0.991603
1.00021 1.00254 0.99179
1.00031 1.00198 0.992191
1.00025 1.00066 0.993571
1.00032 1.0017 0.992443
1.00022 1.00226 0.992026
0.99999 0.99853 0.996127
1.00029 1.00047 0.993687
1.00033 1.00154 0.992585
0.999798 0.997169 0.999144
1.00005 0.998336 0.996212
1.00029 1.00034 0.993819
0.999871 0.99693 0.999185
1.00009 0.998131 0.996348
0.999936 0.996697 0.999229
0.995057 0.998678 0.913644
0.99503 0.997033 0.94471
0.994421 0.995811 0.962437
1.00002 1.00314 0.991501
1.00033 1.00334 0.99105
0.999993 1.00349 0.991224
1.00018 1.00254 0.991939
1.00017 1.00286 0.991673
1.00001 1.00308 0.991526
1.00006 1.00305 0.991495
1.00005 1.00341 0.991209
0.999967 1.0039 0.990957
1.00015 1.00148 0.992773
1.00015 1.00251 0.99195
0.999636 1.00271 0.992759
0.999834 0.996484 0.923069
0.995052 0.999077 0.907095
0.995522 1.00089 0.926869
0.994645 0.998137 0.894718
0.996382 0.99884 0.932516
0.995275 1 0.954281
0.995768 0.995115 0.974094
0.995088 0.997147 0.975602
0.998534 0.998427 0.928114
0.996369 0.999992 0.952706
0.995548 0.998135 0.976726
0.998985 0.998064 0.950995
1.00179 0.998986 0.992986
0.999348 1.00069 0.995251
0.999527 1.00191 0.993878
0.994945 1.00181 0.993335
0.998893 1.00222 0.996074
0.997919 1.00111 0.993276
1.00075 0.998608 0.990185
0.999925 0.994845 0.929733
0.994786 0.998871 0.920442
0.994623 0.996989 0.95246
0.996783 1.00065 0.992967
0.994867 0.998682 0.970602
0.99497 0.997568 0.922897
0.997906 0.99793 0.950809
0.999879 0.997094 0.931993
0.998167 0.998883 0.99263
0.9999 0.995433 0.928585
1.00122 0.996681 0.949848
0.99502 0.99781 0.973965
0.999237 0.996476 0.994116
1.00012 0.996419 0.955783
0.99573 0.998713 0.976555
1.00145 0.996862 0.994526
1.00381 0.997006 0.990642
1.00501 0.99622 0.989591
1.00335 0.99976 0.988197
1.00467 0.997298 0.988124
1.00485 0.99638 0.989055
1.00414 1.00029 0.986351
1.00488 0.99779 0.987691
1.00509 0.996098 0.989031
1.00506 0.999282 0.985869
1.0051 0.997596 0.987605
1.00514 0.99652 0.988664
1.00514 0.9974 0.98793
1.00514 0.997969 0.987228
1.00514 0.998944 0.986422
1.00512 1.00022 0.985256
1.00512 1.00012 0.985229
1.00508 0.999164 0.986057
1.0039 1.00201 0.985475
1.00454 1.00157 0.984763
1.0047 1.00127 0.984568
1.00196 1.0032 0.987963
1.00249 1.00353 0.986718
1.00284 1.00333 0.985855
1.00064 1.00278 0.990732
1.00134 1.00335 0.989017
1.00154 1.00381 0.98823
0.999665 1.00011 0.99507
1.00027 1.00264 0.991554
1.00063 1.00384 0.989897
0.999434 0.997948 0.999105
0.999625 0.9995 0.995811
1.00009 1.0019 0.992648
0.999474 0.997717 0.998631
0.999681 0.999004 0.996246
0.999547 0.997509 0.999196
1.00035 1.00289 0.991256
1.00016 1.00279 0.991603
1.00021 1.00243 0.991879
1.00025 1.00255 0.991777
1.00027 1.00203 0.992192
1.00018 1.00096 0.993384
0.999909 0.998726 0.996082
1.00024 1.00066 0.993576
1.00027 1.00175 0.992445
0.999724 0.997352 0.999124
0.999988 0.998525 0.996131
1.00029 1.00047 0.993687
0.999805 0.997136 0.999153
1.00005 0.998336 0.996219
0.999878 0.99689 0.999195
0.999908 0.99518 0.930079
0.995021 0.998878 0.914257
0.994925 0.99714 0.944508
0.999937 1.00328 0.99146
0.999943 1.0037 0.991088
1.00018 1.00332 0.991216
1.0009 1.00348 0.989825
0.999938 1.00415 0.990759
1.00011 1.00307 0.991475
1.00004 1.00342 0.991192
0.999906 1.00375 0.991066
1.00005 1.00375 0.99013
1.00059 1.00167 0.991991
1.00391 0.999793 0.987921
0.99989 1.00168 0.993109
0.99977 1.00243 0.992652
1.0005 0.996797 0.955197
0.999821 0.996576 0.925552
0.99506 0.998891 0.908129
0.998818 0.998201 0.921212
0.995699 0.999986 0.955388
0.995294 0.997172 0.977776
0.995276 0.998033 0.978798
0.997523 0.99843 0.958534
0.996634 0.998708 0.97694
1.00383 0.996558 0.991272
1.00142 0.999003 0.993017
0.999574 1.00067 0.995009
0.998322 1.00116 0.992768
1.00156 0.999416 0.988867
1.00029 0.995041 0.952823
0.999929 0.99494 0.932538
0.994803 0.998011 0.922294
0.99792 0.999087 0.990828
0.994875 0.997608 0.971285
0.999879 0.995712 0.929467
0.999693 0.997627 0.957053
0.998946 0.997745 0.994449
1.00146 0.995848 0.955345
0.995871 0.998469 0.973351
1.00074 0.999052 0.992013
0.999439 0.996747 0.981277
1.00369 0.996362 0.990644
1.005 0.995821 0.989438
1.00505 0.995244 0.990119
1.00454 0.997412 0.98811
1.00478 0.996359 0.989044
1.00507 0.995114 0.989979
1.00477 0.997846 0.987654
1.00509 0.996091 0.98901
1.00514 0.995452 0.989665
1.0051 0.997556 0.987608
1.00514 0.99654 0.988627
1.00513 0.996533 0.988869
1.00515 0.997223 0.988038
1.00516 0.998119 0.987227
1.00514 0.997832 0.987369
1.00514 0.998942 0.986409
1.00512 0.999476 0.985948
1.00481 1.00029 0.985609
1.00512 1.00022 0.985239
1.00513 1.00014 0.985207
1.00303 1.00243 0.986861
1.00389 1.00206 0.985488
1.00454 1.00159 0.98484
1.00111 1.00265 0.989964
1.00202 1.00318 0.987934
1.00256 1.00348 0.986685
0.999842 1.00064 0.994201
1.00069 1.00273 0.990735
1.00139 1.00334 0.988997
0.999465 0.998306 0.998945
0.999685 1.00015 0.99504
1.00035 1.00253 0.991553
0.999464 0.998008 0.999061
0.999624 0.999587 0.995768
0.999496 0.997756 0.999142
1.00095 1.0031 0.989941
1.00037 1.00282 0.991246
1.00026 1.00279 0.991374
1.00009 1.00284 0.991602
1.00019 1.0025 0.991818
1.00013 1.00143 0.992985
1.00024 1.00205 0.992193
1.00018 1.00095 0.993392
0.999813 0.998963 0.996022
0.999647 0.997529 0.999112
0.999909 0.998714 0.996086
1.00024 1.00066 0.99358
0.999732 0.997329 0.99913
0.999986 0.998523 0.996135
0.999812 0.997098 0.999161
1.00107 0.995006 0.958363
0.999919 0.995752 0.928584
0.994984 0.999285 0.912308
0.999886 1.0039 0.990952
1.00005 1.00325 0.991383
0.999983 1.00412 0.990807
1.00081 1.00345 0.989917
1.00144 1.00392 0.988288
1.0002 1.00386 0.99019
0.999839 1.00363 0.991175
1.00039 1.00384 0.989808
1.00048 1.00206 0.991747
1.00182 1.00145 0.989252
1.00385 0.999554 0.988815
1.00452 0.99793 0.988114
1.00337 0.999719 0.988587
0.999517 1.00204 0.993447
0.995747 0.998441 0.975955
1.00066 0.996081 0.953987
0.999261 0.996876 0.931712
0.998885 0.998794 0.950958
0.994985 0.998122 0.980006
0.996918 0.998574 0.981415
1.00084 0.998279 0.992258
1.00377 0.996407 0.991535
1.00134 0.998942 0.993051
1.00278 1.00028 0.987498
0.997876 0.996419 0.977411
1.00071 0.994989 0.960091
0.999881 0.995167 0.926721
0.99873 0.998517 0.9947
0.995732 0.997968 0.975532
1.0009 0.996154 0.954731
1.00073 0.998862 0.992155
0.998734 0.997011 0.980225
1.0034 0.998859 0.990416
1.00394 0.996476 0.989488
1.00499 0.995458 0.989268
1.00504 0.995196 0.990057
1.00507 0.994847 0.990525
1.00472 0.996355 0.989035
1.00507 0.995177 0.989941
1.00509 0.995083 0.990209
1.00509 0.996097 0.988988
1.00514 0.995506 0.989638
1.00512 0.996021 0.989416
1.00514 0.99656 0.98859
1.00513 0.996529 0.988775
1.00516 0.997434 0.987829
1.00515 0.997055 0.988145
1.00516 0.998 0.987367
1.00514 0.999031 0.986431
1.00514 0.998943 0.986395
1.00512 0.999543 0.98592
1.00491 0.999719 0.986143
1.00406 1.00076 0.986487
1.0048 1.00034 0.985617
1.00511 1.00024 0.985223
1.00191 1.00218 0.989042
1.00301 1.00239 0.986875
1.00387 1.00211 0.985502
1.00001 1.00111 0.993413
1.00116 1.00267 0.989947
1.00207 1.00316 0.987906
0.999546 0.998745 0.998704
0.99989 1.00063 0.994191
1.00074 1.00268 0.990736
0.999516 0.998399 0.998864
0.999701 1.0002 0.995011
0.999505 0.998072 0.999007
1.00147 1.00362 0.988528
1.00101 1.00308 0.989983
1.00069 1.00294 0.990515
1.00037 1.00278 0.991236
1.0003 1.0028 0.991289
1.00022 1.0019 0.992378
1.00017 1.00257 0.991759
1.00013 1.00142 0.992994
0.99972 0.999301 0.995849
1.00017 1.00095 0.9934
0.999819 0.998929 0.996031
0.999578 0.997705 0.999095
0.999654 0.997508 0.999116
0.999909 0.998702 0.996091
0.999738 0.997301 0.999136
0.996946 0.997108 0.977696
1.00081 0.995372 0.951847
0.999866 0.994941 0.932964
1.0031 1.00258 0.986797
1.00004 1.00409 0.990855
1.00072 1.00343 0.99001
1.00035 1.00392 0.99008
1.00135 1.00407 0.988223
1.0017 1.00186 0.98949
1.00072 1.00391 0.989486
1.00043 1.0024 0.991504
1.00204 1.00141 0.989439
1.00387 0.999474 0.988462
1.00468 0.998505 0.987326
1.00433 0.99669 0.989901
1.00451 0.997994 0.987787
1.00286 0.999565 0.989253
0.999981 0.998719 0.99387
0.996257 0.998606 0.974331
1.00032 0.996327 0.953203
0.997012 0.998226 0.979236
1.00088 0.997292 0.994284
1.00326 0.996361 0.991779
1.00192 0.995956 0.989527
0.997132 0.995708 0.979558
1.00029 0.994932 0.952974
1.00056 0.999075 0.992317
0.998875 0.997052 0.978932
1.00328 0.997784 0.990638
1.00389 0.996062 0.989576
1.00494 0.995287 0.990635
1.00484 0.996406 0.990757
1.00507 0.995134 0.989999
1.00504 0.994869 0.990487
1.00507 0.994885 0.990455
1.00506 0.995222 0.989902
1.00509 0.99507 0.990208
1.00511 0.995566 0.989804
1.00515 0.99556 0.989611
1.00513 0.995994 0.989347
1.00514 0.997094 0.988215
1.00512 0.996524 0.988682
1.00515 0.99745 0.987835
1.00517 0.998572 0.986743
1.00516 0.99788 0.987508
1.00514 0.998942 0.986511
1.00495 0.999512 0.986208
1.00511 0.999605 0.985892
1.00492 0.999735 0.986064
1.00435 0.999965 0.986854
1.00279 1.00109 0.988547
1.00401 1.00083 0.986538
1.00478 1.00038 0.985626
1.00034 1.00126 0.992676
1.00191 1.00219 0.989039
1.003 1.00236 0.98689
0.999569 0.999227 0.998463
1.00014 1.00098 0.993395
1.0012 1.00267 0.989931
0.999583 0.998836 0.998617
0.999945 1.0006 0.99418
0.99957 0.998477 0.998775
1.00255 1.00315 0.986872
1.00144 1.00361 0.988554
1.00128 1.00313 0.989411
1.00107 1.00306 0.990025
1.00072 1.00291 0.990531
1.00038 1.00234 0.991707
1.00034 1.00281 0.991203
1.00015 1.002 0.992377
0.99967 0.999775 0.995456
1.00011 1.00144 0.993003
0.999733 0.999237 0.995871
0.999536 0.9979 0.999047
0.999824 0.998899 0.996041
0.999581 0.997683 0.999102
0.999659 0.997488 0.99912
1.00108 0.997363 0.992081
0.997318 0.996515 0.974075
1.00012 0.99522 0.95914
1.00334 1.00055 0.98783
1.00485 0.999108 0.986739
1.00285 1.00241 0.987029
1.00048 1.00399 0.989968
1.00127 1.00422 0.988148
1.00205 1.00173 0.989287
1.00472 0.998726 0.987594
1.00221 1.00137 0.989623
1.00378 0.999398 0.988107
1.00461 0.998514 0.987546
1.00504 0.997392 0.987952
1.00458 0.995749 0.990323
1.00441 0.996775 0.989627
1.00456 0.998046 0.987463
1.00023 0.998718 0.994001
0.996191 0.998734 0.972228
1.00104 0.996537 0.996337
1.00465 0.995023 0.991794
1.00166 0.996339 0.989673
0.997605 0.995315 0.976788
1.00335 0.996926 0.990847
1.00385 0.996101 0.989681
1.00494 0.995145 0.990822
1.0049 0.995802 0.990587
1.0051 0.994947 0.990249
1.00515 0.995041 0.990144
1.005 0.994909 0.990446
1.00503 0.994904 0.990446
1.00514 0.995357 0.989842
1.00509 0.995055 0.990207
1.00512 0.995639 0.989673
1.00514 0.996625 0.98865
1.00514 0.995969 0.989277
1.00514 0.997109 0.988224
1.00519 0.998304 0.98699
1.00515 0.997466 0.987841
1.00516 0.998575 0.986758
1.00501 0.999356 0.986243
1.00513 0.998851 0.98659
1.00495 0.999485 0.986218
1.00445 0.999852 0.986807
1.00492 0.999759 0.985985
1.00434 0.999972 0.986772
1.00322 1.0003 0.988566
1.00074 1.00092 0.992236
1.00276 1.00112 0.988556
1.00396 1.0009 0.986589
0.999566 0.999757 0.99824
1.00043 1.00119 0.992652
1.0019 1.00224 0.989036
0.999601 0.999348 0.998383
1.00024 1.0009 0.993374
0.99962 0.998931 0.998535
1.00399 1.00081 0.986279
1.00255 1.00302 0.986813
1.00214 1.00295 0.987945
1.00141 1.00358 0.98858
1.00121 1.00314 0.989444
1.00068 1.00265 0.990909
1.00074 1.00288 0.990547
1.00031 1.00242 0.991708
0.999746 1.00029 0.994823
1.0001 1.00208 0.992377
0.999681 0.999705 0.995481
0.999528 0.998181 0.998924
0.999745 0.999174 0.995892
0.999528 0.997869 0.999066
0.999584 0.997664 0.999108
1.00473 0.995114 0.991016
1.00118 0.996949 0.990876
0.996656 0.995978 0.97478
1.0051 0.998278 0.987196
1.00301 1.00012 0.988771
1.00516 0.998547 0.986799
1.00484 0.999321 0.986673
1.00255 1.00226 0.987276
1.00508 0.997867 0.987375
1.00238 1.00156 0.989095
1.00482 0.998738 0.987269
1.00513 0.996532 0.988538
1.00458 0.998547 0.987767
1.00499 0.997422 0.987933
1.0046 0.995849 0.99043
1.00433 0.99693 0.989342
1.00029 0.998735 0.994144
1.00514 0.995265 0.989744
1.00465 0.995511 0.991871
1.00143 0.996474 0.989796
1.00494 0.994885 0.991017
1.0049 0.995185 0.990421
1.0051 0.994933 0.990326
1.00516 0.995028 0.99012
1.00516 0.995274 0.98995
1.00499 0.994927 0.990437
1.00514 0.995401 0.989856
1.00518 0.996329 0.988899
1.00512 0.995715 0.989541
1.00514 0.996739 0.988549
1.00519 0.998115 0.987186
1.00513 0.997125 0.988232
1.00518 0.998313 0.986999
1.00509 0.999234 0.986245
1.00515 0.998577 0.986773
1.00502 0.999353 0.986258
1.00455 0.999804 0.986667
1.00495 0.999459 0.986229
1.00444 0.999863 0.986814
1.00334 1.00008 0.988571
1.00434 0.999976 0.986689
1.00321 1.00031 0.988558
1.00093 1.0005 0.993516
0.999766 0.999976 0.995607
1.0008 1.00086 0.992856
1.00273 1.00115 0.988564
0.999624 0.999872 0.998155
1.00056 1.00105 0.992632
0.999638 0.999447 0.998294
1.00519 0.99855 0.986841
1.00485 0.999244 0.986545
1.00406 1.00085 0.986297
1.00319 1.00187 0.987013
1.00255 1.00289 0.986755
1.00209 1.003 0.987962
1.00126 1.00257 0.989913
1.00114 1.00315 0.989478
1.00061 1.00266 0.990931
0.999952 1.00077 0.994021
1.00024 1.00251 0.991709
0.999719 1.00027 0.994836
0.999526 0.998605 0.998717
0.999691 0.999633 0.995504
0.999506 0.998124 0.998972
0.999525 0.997843 0.999083
1.00516 0.995758 0.989265
1.00488 0.995116 0.991353
1.00151 0.996405 0.989681
1.00514 0.998111 0.987124
1.00491 0.998374 0.987375
1.00276 0.999707 0.989683
1.00516 0.998601 0.98679
1.00485 0.999518 0.986606
1.00511 0.996779 0.988716
1.00508 0.99787 0.98731
1.00494 0.998766 0.98694
1.00512 0.99653 0.988549
1.00499 0.99744 0.987914
1.00466 0.995943 0.990557
1.00513 0.995391 0.990034
1.00516 0.995287 0.989881
1.00466 0.995966 0.991952
1.00511 0.994919 0.9904
1.00517 0.995027 0.990095
1.00517 0.995178 0.990006
1.00514 0.996501 0.988904
1.00513 0.995445 0.98987
1.00518 0.996384 0.988865
1.00517 0.997925 0.987416
1.00513 0.996848 0.988449
1.00519 0.998117 0.987187
1.00515 0.999126 0.98627
1.00517 0.998323 0.987009
1.00509 0.999231 0.986258
1.00467 0.999784 0.986481
1.00502 0.999351 0.986273
1.00455 0.999806 0.986673
1.00344 1.00005 0.988416
1.00443 0.999873 0.986821
1.00334 1.00007 0.988562
1.00103 1.00015 0.993698
1.0032 1.00032 0.988551
1.00105 1.00041 0.993485
0.999801 1.00006 0.995665
0.999671 1.00019 0.996793
1.00095 1.00079 0.993376
0.999674 0.999993 0.998074
1.00519 0.998336 0.986991
1.00506 0.998887 0.986796
1.00519 0.99846 0.986837
1.00411 1.00031 0.986859
1.00488 0.999229 0.986553
1.00412 1.0009 0.986314
1.00322 1.00188 0.986984
1.0021 1.00189 0.988997
1.00204 1.00304 0.987978
1.00122 1.00255 0.989933
1.00022 1.00114 0.993184
1.00054 1.00268 0.990952
0.999852 1.00085 0.994036
0.999492 0.999206 0.998463
0.999687 1.00027 0.99485
0.999503 0.998515 0.998797
0.999493 0.998068 0.999014
1.00511 0.996034 0.989296
1.00515 0.995769 0.989261
1.00497 0.995096 0.991659
1.00514 0.997439 0.987938
1.00514 0.998097 0.987148
1.0047 0.998476 0.987563
1.00516 0.998664 0.98678
1.00511 0.996776 0.98859
1.00507 0.997877 0.987245
1.00509 0.99653 0.98856
1.00514 0.99632 0.989119
1.00513 0.99546 0.989903
1.00519 0.995281 0.990018
1.00511 0.996988 0.988385
1.00518 0.995076 0.990062
1.00514 0.996491 0.988883
1.00514 0.997725 0.987816
1.00519 0.996439 0.988831
1.00517 0.997922 0.987417
1.00516 0.999003 0.986384
1.0052 0.998124 0.987188
1.00514 0.999127 0.986281
1.00478 0.999743 0.986319
1.00508 0.999228 0.986271
1.00466 0.999778 0.986488
1.00356 1.00006 0.988195
1.00454 0.999806 0.98668
1.00345 1.00003 0.988414
1.00112 1.00001 0.9937
1.00335 1.00006 0.988553
1.00113 1.0001 0.993641
0.99981 0.999966 0.99577
1.00117 1.00031 0.993463
0.999594 1.00023 0.995774
0.999386 1.00044 0.998197
1.00517 0.998318 0.986985
1.00513 0.998875 0.986579
1.0052 0.998355 0.986917
1.0045 0.999581 0.987221
1.00503 0.998754 0.986794
1.00519 0.998367 0.986835
1.00293 1.00077 0.988552
1.00415 1.00032 0.986835
1.0049 0.999213 0.986562
1.00325 1.0019 0.986954
1.00211 1.00185 0.988999
1.00053 1.00118 0.992533
1.00118 1.00253 0.989953
1.00009 1.00126 0.993211
0.999469 0.999888 0.998215
0.999766 1.00092 0.994051
0.999476 0.999074 0.99856
0.999486 0.998415 0.998867
1.00513 0.996841 0.988458
1.00512 0.995937 0.989329
1.00514 0.995811 0.989257
1.00513 0.997386 0.987981
1.00513 0.998076 0.987171
1.00511 0.996772 0.988464
1.00512 0.997067 0.988426
1.00513 0.996398 0.989046
1.00512 0.995527 0.989773
1.00511 0.996989 0.988472
1.0051 0.997818 0.987683
1.00515 0.996485 0.988862
1.00513 0.997814 0.987651
1.00514 0.998736 0.986728
1.00518 0.997915 0.987419
1.00515 0.998997 0.986393
1.00486 0.999666 0.986249
1.00513 0.999122 0.986291
1.00477 0.99974 0.986328
1.00368 1.00004 0.987973
1.00466 0.999772 0.986495
1.00356 1.00005 0.988196
1.00121 1.00004 0.993522
1.00346 1.00002 0.988411
1.00121 0.99998 0.993615
0.999876 0.999915 0.995725
1.00123 1.00005 0.993593
0.999628 1.00004 0.995899
0.9994 1.00043 0.995867
1.00515 0.997811 0.987604
1.00515 0.998925 0.986416
1.00517 0.998194 0.987108
1.00471 0.999378 0.986942
1.00513 0.998933 0.986534
1.0052 0.998377 0.986842
1.00336 1.00004 0.988529
1.00449 0.999496 0.987107
1.005 0.998624 0.986792
1.00085 1.00076 0.992303
1.00296 1.00076 0.988549
1.00419 1.00032 0.986811
1.00213 1.00182 0.989002
1.00043 1.00128 0.992551
0.999514 1.00042 0.998047
0.999961 1.00138 0.993236
0.999433 0.999743 0.998308
0.999462 0.998928 0.99865
1.00512 0.997185 0.988214
1.00513 0.99681 0.988497
1.00512 0.995839 0.989362
1.00513 0.997335 0.988024
1.00511 0.997889 0.987608
1.00512 0.997065 0.988447
1.00513 0.996476 0.988972
1.00511 0.996992 0.988558
1.0051 0.99776 0.987732
1.00512 0.998663 0.986912
1.00513 0.997903 0.987487
1.00514 0.99884 0.986614
1.00491 0.999455 0.986331
1.00514 0.998998 0.986403
1.00484 0.999668 0.986261
1.0038 1.00001 0.987786
1.00476 0.999741 0.986336
1.00369 1.00004 0.987975
1.00132 1.00009 0.992107
1.00358 1.00003 0.988197
1.00129 1.00001 0.992851
0.999858 0.99995 0.99801
1.0013 0.999958 0.993534
0.999716 0.999916 0.995867
0.99946 1.00011 0.996009
1.00514 0.997722 0.987765
1.00515 0.998728 0.986674
1.00515 0.997883 0.987559
1.00482 0.999263 0.986565
1.00516 0.998912 0.986483
1.00518 0.998069 0.987231
1.00355 0.999721 0.988201
1.00471 0.9994 0.986937
1.00513 0.998987 0.986488
1.00106 1.00022 0.99241
1.00336 0.999993 0.988419
1.00447 0.999405 0.986992
0.999576 1.00054 0.99802
1.00081 1.0008 0.992313
1.00297 1.00075 0.988547
1.00033 1.00134 0.992581
0.999458 1.00028 0.998101
0.999398 0.999574 0.998403
1.00513 0.99782 0.987645
1.00512 0.997192 0.988217
1.00513 0.996779 0.988535
1.00512 0.998633 0.986866
1.00511 0.997836 0.987657
1.00512 0.997063 0.988468
1.0051 0.997697 0.987781
1.00512 0.998647 0.986917
1.00491 0.99935 0.986671
1.00513 0.998945 0.986501
1.0049 0.999539 0.986393
1.00389 0.99989 0.98749
1.00484 0.999664 0.986272
1.0038 1.00001 0.987789
1.00141 1.0001 0.991936
1.00369 1.00003 0.987978
1.00133 1.00009 0.992099
0.999895 0.99997 0.997963
1.00132 0.99999 0.992249
0.999796 0.99993 0.996907
0.999557 0.999901 0.996006
1.00514 0.997989 0.987468
1.00516 0.998639 0.986711
1.00514 0.997704 0.987769
1.00486 0.999307 0.986561
1.00515 0.998768 0.986603
1.00514 0.997956 0.987515
1.00372 0.999604 0.98801
1.00482 0.999328 0.986683
1.00516 0.9989 0.98655
1.00121 0.99992 0.992442
1.00357 0.999727 0.988173
1.00472 0.999423 0.986933
0.99969 1.00032 0.998048
1.00106 1.00022 0.992415
1.00337 0.999945 0.988308
0.999565 1.00045 0.998016
1.00076 1.00082 0.992323
0.999389 1.00017 0.998174
1.00514 0.998512 0.986992
1.00512 0.997849 0.987593
1.00512 0.997199 0.988219
1.00488 0.999235 0.986824
1.00512 0.998585 0.986932
1.00511 0.997789 0.987706
1.00512 0.998631 0.986922
1.00491 0.999354 0.986668
1.00391 0.99979 0.987554
1.00489 0.999627 0.986455
1.00389 0.999929 0.987579
1.00149 1.00008 0.991819
1.0038 1 0.987793
1.00141 1.0001 0.991931
0.999944 0.999996 0.997894
1.00133 1.00009 0.992092
0.999912 0.999978 0.997935
0.999865 0.999868 0.995659
1.00515 0.998619 0.986814
1.00514 0.997876 0.987535
1.00487 0.999276 0.986602
1.00515 0.998647 0.986709
1.00514 0.997684 0.987773
1.00379 0.999671 0.988125
1.00486 0.99931 0.986554
1.00516 0.998806 0.986531
1.00134 0.999832 0.992293
1.00372 0.999648 0.988104
1.00483 0.999397 0.986801
0.999838 1.00008 0.998018
1.00121 0.999911 0.99245
1.00358 0.999729 0.988145
0.99967 1.00032 0.998034
1.00105 1.00022 0.992417
0.999517 1.00041 0.998026
1.00486 0.999196 0.986898
1.00514 0.998547 0.986943
1.00512 0.99788 0.987541
1.00386 0.999722 0.987717
1.00488 0.999246 0.986825
1.00513 0.998534 0.986997
1.00491 0.999359 0.986666
1.00392 0.999786 0.987535
1.00152 1.00004 0.991801
1.00388 0.999965 0.987666
1.00148 1.00007 0.991817
1 1.00001 0.997838
1.00141 1.00011 0.991926
0.999964 1 0.997875
0.99993 0.999985 0.997908
1.00487 0.999241 0.986664
1.00515 0.99851 0.986903
1.00515 0.997764 0.987603
1.0038 0.999714 0.988073
1.00486 0.999278 0.986593
1.00515 0.998655 0.986706
1.00141 0.999902 0.992117
1.00379 0.999679 0.98812
1.00486 0.999313 0.986548
0.999942 0.999954 0.997947
1.00134 0.999844 0.992298
1.00373 0.999683 0.988198
0.999793 1.00011 0.998034
1.00121 0.999916 0.992459
0.999664 1.00031 0.998015
1.00382 0.99977 0.98799
1.00486 0.999161 0.986807
1.00514 0.99858 0.986894
1.00149 0.999997 0.991907
1.00387 0.999713 0.987696
1.00488 0.999256 0.986826
1.00393 0.999779 0.987516
1.00151 1.00003 0.991807
1.00004 1.00001 0.997793
1.00148 1.00007 0.991814
1.00002 1.00001 0.997816
0.999978 1.00001 0.997858
1.00381 0.999738 0.988038
1.00486 0.999177 0.986682
1.00515 0.998402 0.986992
1.0015 0.99999 0.993163
1.0038 0.999712 0.988069
1.00486 0.99928 0.986585
0.999977 0.999947 0.997881
1.00141 0.999923 0.992121
1.00379 0.999687 0.988115
0.999908 0.999988 0.997975
1.00134 0.999867 0.992304
0.999764 1.00012 0.998043
1.00149 0.999987 0.991933
1.00382 0.999729 0.987897
1.00486 0.999123 0.986716
1.00002 1 0.997808
1.00148 1 0.99191
1.00388 0.999706 0.987676
1.00151 1.00003 0.99181
1.00004 1.00001 0.997794
1.00004 1.00001 0.997802
1.00156 0.999987 0.99309
1.00382 0.999733 0.988038
1.00486 0.999112 0.986699
0.999726 0.999983 0.998125
1.00143 0.999992 0.992021
1.00381 0.999709 0.988065
0.999965 0.999961 0.997911
1.00141 0.999946 0.992126
0.999879 1.00001 0.998001
0.999992 1 0.995406
1.00151 0.999986 0.992533
1.00383 0.999691 0.987803
1.00002 1 0.997811
1.00147 1 0.991916
1.00005 1.00001 0.997788
0.999712 1 0.995699
1.0015 0.999988 0.992549
1.00382 0.999729 0.988037
0.999844 0.999984 0.996782
1.00143 0.999987 0.992025
0.999945 0.999974 0.997938
0.999996 0.999996 0.997828
1.00144 0.99999 0.991996
1 1 0.997819
0.999849 0.999994 0.996771
1.00144 0.999992 0.992008
0.999973 0.999972 0.997886
0.999989 0.999991 0.997844
0.999975 0.999985 0.997859

TENSORS stress float
0.0015388 -6.35524e-05 0.000138211
-6.35524e-05 0.000524384 -1.64198e-05
0.000138211 -1.64198e-05 0.00050331
0.00456155 -0.000104485 0.000130225
-0.000104485 0.00225561 9.85607e-06
0.000130225 9.85607e-06 0.00224143
0.00143212 1.23273e-05 6.98874e-05
1.23273e-05 0.000478829 -5.59731e-06
6.98874e-05 -5.59731e-06 0.000446912
0.0017153 -4.10336e-05 0.000139041
-4.10336e-05 0.000603564 -1.10258e-05
0.000139041 -1.10258e-05 0.00058456
0.00162521 -5.82362e-05 0.000135332
-5.82362e-05 0.000568242 -1.51521e-05
0.000135332 -1.51521e-05 0.000548043
0.00134971 -5.35852e-05 0.00013359
-5.35852e-05 0.000417017 -1.53279e-05
0.00013359 -1.53279e-05 0.000398489
0.00139852 -2.70562e-05 1.54069e-05
-2.70562e-05 0.000383758 -7.71415e-06
1.54069e-05 -7.71415e-06 0.000311182
0.00437768 -0.00013377 8.79678e-06
-0.00013377 0.00215397 -1.156e-06
8.79678e-06 -1.156e-06 0.00213823
0.00498729 -5.02087e-05 4.0834e-05
-5.02087e-05 0.00246602 2.03996e-06
4.0834e-05 2.03996e-06 0.00245216
0.00455527 -0.000299334 -1.32046e-05
-0.000299334 0.00229942 5.69909e-06
-1.32046e-05 5.69909e-06 0.00224674
0.00147315 1.32965e-05 0.000116384
1.32965e-05 0.000486035 8.98693e-06
0.000116384 8.98693e-06 0.000475315
0.000755757 0.000118514 1.60823e-05
0.000118514 3.46194e-05 1.0509e-05
1.60823e-05 1.0509e-05 -3.34983e-05
0.00162964 -2.22061e-05 0.000153736
-2.22061e-05 0.000548175 1.76228e-06
0.000153736 1.76228e-06 0.000531892
0.00126037 -1.55749e-05 1.60843e-05
-1.55749e-05 0.000356792 1.58265e-06
1.60843e-05 1.58265e-06 0.000324467
0.00140567 3.84941e-05 -1.31987e-05
3.84941e-05 0.000464817 4.20087e-06
-1.31987e-05 4.20087e-06 0.000430632
0.00148256 -3.30053e-05 5.40943e-05
-3.30053e-05 0.000479597 -3.22195e-06
5.40943e-05 -3.22195e-06 0.000455601
0.00135856 2.39352e-05 7.05796e-05
2.39352e-05 0.000441997 -4.93207e-06
7.05796e-05 -4.93207e-06 0.000409075
0.00145021 -9.51045e-06 6.15187e-05
-9.51045e-06 0.00047589 -5.62207e-06
6.15187e-05 -5.62207e-06 0.000450169
0.00146845 -7.30435e-05 -2.64019e-05
-7.30435e-05 0.000409397 1.84856e-06
-2.64019e-05 1.84856e-06 0.000346185
0.00514751 -0.000101418 0.000164709
-0.000101418 0.00255573 -3.45633e-06
0.000164709 -3.45633e-06 0.00255122
0.00170528 -2.65122e-05 0.000142603
-2.65122e-05 0.000594274 -8.4029e-06
0.000142603 -8.4029e-06 0.000575231
0.0016921 -5.15633e-05 0.000136318
-5.15633e-05 0.000596743 -1.32816e-05
0.000136318 -1.32816e-05 0.000577505
0.00145092 -6.77822e-05 3.3897e-05
-6.77822e-05 0.00037111 -5.19426e-06
3.3897e-05 -5.19426e-06 0.000310529
0.00142659 -4.75776e-05 2.37282e-05
-4.75776e-05 0.000377929 -6.58259e-06
2.37282e-05 -6.58259e-06 0.000314503
0.00118015 -1.11001e-05 0.000109865
-1.11001e-05 0.000321661 -1.21456e-05
0.000109865 -1.21456e-05 0.000306005
0.00125449 -1.50845e-05 1.0698e-05
-1.50845e-05 0.000326681 -8.44119e-06
1.0698e-05 -8.44119e-06 0.000249699
0.00196019 -0.000177924 1.04649e-05
-0.000177924 0.000558478 -4.05416e-06
1.04649e-05 -4.05416e-06 0.00044235
0.00420064 -0.000162464 -9.93102e-05
-0.000162464 0.00205795 -5.77083e-06
-9.93102e-05 -5.77083e-06 0.00203927
0.00321399 4.10299e-06 -7.99134e-05
4.10299e-06 0.00146716 -4.10048e-06
-7.99134e-05 -4.10048e-06 0.00144783
0.00295985 -9.25436e-05 -6.41922e-05
-9.25436e-05 0.00135306 -2.00582e-06
-6.41922e-05 -2.00582e-06 0.00132509
0.00392942 -0.000134672 6.46601e-06
-0.000134672 0.00189362 -4.86673e-07
6.46601e-06 -4.86673e-07 0.0018828
0.000641757 0.0001041 -2.07025e-07
0.0001041 -2.46627e-05 -3.74432e-07
-2.07025e-07 -3.74432e-07 -9.16971e-05
0.00153383 4.7176e-05 0.000141986
4.7176e-05 0.000503977 9.92691e-06
0.000141986 9.92691e-06 0.000484906
0.00174554 9.60016e-05 0.000143486
9.60016e-05 0.00063683 1.36539e-05
0.000143486 1.36539e-05 0.000617666
0.00249175 0.000141797 8.74924e-05
0.000141797 0.000964312 1.03255e-05
8.74924e-05 1.03255e-05 0.000909726
0.00318245 -0.000164046 1.32462e-05
-0.000164046 0.00147541 1.85851e-06
1.32462e-05 1.85851e-06 0.0014596
0.00248509 0.000140208 8.10302e-05
0.000140208 0.000995044 1.09518e-05
8.10302e-05 1.09518e-05 0.000937633
0.000685761 6.47459e-05 1.40122e-05
6.47459e-05 5.65688e-06 1.25548e-05
1.40122e-05 1.25548e-05 -5.28648e-05
0.000955817 0.000136813 6.53228e-06
0.000136813 8.88184e-05 3.5195e-06
6.53228e-06 3.5195e-06 -3.44632e-05
0.00269227 -9.88132e-05 6.02424e-05
-9.88132e-05 0.0011813 2.43718e-06
6.02424e-05 2.43718e-06 0.00118455
0.00520131 4.93642e-05 3.54742e-06
4.93642e-05 0.00257566 -9.45548e-07
3.54742e-06 -9.45548e-07 0.00257669
0.00322934 2.63838e-05 -6.42127e-05
2.63838e-05 0.00146686 -1.80182e-06
-6.42127e-05 -1.80182e-06 0.00144979
0.00519125 6.17149e-05 0.000165512
6.17149e-05 0.00257185 1.1375e-06
0.000165512 1.1375e-06 0.00257193
0.00132824 1.8494e-05 1.64365e-05
1.8494e-05 0.000393967 1.38456e-06
1.64365e-05 1.38456e-06 0.000362499
0.000730656 2.24799e-06 1.59835e-05
2.24799e-06 -6.31961e-05 1.91125e-06
1.59835e-05 1.91125e-06 -0.000127882
0.00490742 0.000138089 6.93208e-05
0.000138089 0.0024264 5.26942e-06
6.93208e-05 5.26942e-06 0.00240912
0.00254512 3.52773e-05 8.77917e-05
3.52773e-05 0.000965424 5.2235e-06
8.77917e-05 5.2235e-06 0.000918577
0.00119944 -6.00506e-05 -3.14789e-05
-6.00506e-05 0.000332803 3.92667e-06
-3.14789e-05 3.92667e-06 0.000300419
0.0013014 -1.73025e-05 -2.47386e-05
-1.73025e-05 0.000395998 3.94833e-06
-2.47386e-05 3.94833e-06 0.000366689
0.00140813 0.0001137 1.33542e-06
0.0001137 0.000492844 6.03128e-06
1.33542e-06 6.03128e-06 0.000443867
0.001486 -9.30616e-05 -7.49451e-05
-9.30616e-05 0.00041195 1.04916e-05
-7.49451e-05 1.04916e-05 0.000353974
0.00329931 2.40669e-05 -6.93222e-05
2.40669e-05 0.00151231 -1.04822e-06
-6.93222e-05 -1.04822e-06 0.00149071
0.00148589 -3.63507e-05 5.85084e-05
-3.63507e-05 0.000480459 -2.22124e-06
5.85084e-05 -2.22124e-06 0.000454804
0.00119957 3.85537e-05 5.5491e-05
3.85537e-05 0.000349567 -3.90254e-06
5.5491e-05 -3.90254e-06 0.000322584
0.00147384 -2.69506e-05 5.621e-05
-2.69506e-05 0.000478623 -4.69512e-06
5.621e-05 -4.69512e-06 0.000455272
0.00149498 -6.7371e-05 -2.05898e-05
-6.7371e-05 0.00039271 7.13075e-07
-2.05898e-05 7.13075e-07 0.00033541
0.00136697 -4.94374e-05 -2.96257e-05
-4.94374e-05 0.000379197 8.13941e-07
-2.96257e-05 8.13941e-07 0.000310257
0.00148187 -7.84412e-05 -2.20802e-05
-7.84412e-05 0.000402652 1.52901e-06
-2.20802e-05 1.52901e-06 0.000344201
0.00197025 -0.000176839 -4.93894e-06
-0.000176839 0.000563467 1.28892e-06
-4.93894e-06 1.28892e-06 0.000447504
0.00514293 6.28514e-05 0.000156421
6.28514e-05 0.00254621 -1.76145e-07
0.000156421 -1.76145e-07 0.00254616
0.00170394 -1.15146e-05 0.000145893
-1.15146e-05 0.000592222 -5.71673e-06
0.000145893 -5.71673e-06 0.000573359
0.00235257 5.12643e-05 1.87025e-05
5.12643e-05 0.000869937 -1.25565e-06
1.87025e-05 -1.25565e-06 0.000813502
0.00145392 -6.79093e-05 3.10198e-05
-6.79093e-05 0.000368605 -4.18566e-06
3.10198e-05 -4.18566e-06 0.000306927
0.00144593 -6.30012e-05 3.04453e-05
-6.30012e-05 0.000374131 -5.8759e-06
3.04453e-05 -5.8759e-06 0.000313837
0.00196381 -0.000110333 9.96968e-06
-0.000110333 0.000504385 -2.40553e-06
9.96968e-06 -2.40553e-06 0.000401323
0.00153239 -0.000139605 1.22743e-05
-0.000139605 0.00029189 -4.33336e-06
1.22743e-05 -4.33336e-06 0.000181213
0.00111583 3.44215e-05 8.05535e-05
3.44215e-05 0.000281006 -9.05224e-06
8.05535e-05 -9.05224e-06 0.000267195
0.000891774 1.45246e-05 8.46056e-06
1.45246e-05 0.000152678 -7.00253e-06
8.46056e-06 -7.00253e-06 8.85489e-05
0.00180859 -0.000176925 8.28644e-06
-0.000176925 0.000523161 -4.34071e-06
8.28644e-06 -4.34071e-06 0.000402114
0.00129409 -0.000167956 6.80112e-06
-0.000167956 9.33212e-05 -1.08785e-06
6.80112e-06 -1.08785e-06 -4.89918e-05
0.00513969 4.40928e-05 -0.00016257
4.40928e-05 0.0025458 -1.02004e-05
-0.00016257 -1.02004e-05 0.00254494
0.00370083 -0.000147684 -8.56286e-05
-0.000147684 0.00176578 -3.47845e-06
-8.56286e-05 -3.47845e-06 0.00175425
0.00460874 -0.000144878 -0.000115322
-0.000144878 0.00228797 -8.02301e-06
-0.000115322 -8.02301e-06 0.00226906
0.000531262 0.000100324 -1.40323e-05
0.000100324 -8.33665e-05 -1.07982e-05
-1.40323e-05 -1.07982e-05 -0.000149304
0.00520845 9.22058e-05 -2.55029e-06
9.22058e-05 0.00257959 -1.26818e-06
-2.55029e-06 -1.26818e-06 0.00257844
0.00513559 -3.28665e-05 -7.7281e-06
-3.28665e-05 0.00255958 5.89051e-08
-7.7281e-06 5.89051e-08 0.00255112
0.000589687 0.000107887 -4.63788e-07
0.000107887 -0.000107233 -2.34661e-07
-4.63788e-07 -2.34661e-07 -0.000177728
0.00214672 -9.89655e-05 -3.63749e-05
-9.89655e-05 0.000880221 -1.71615e-07
-3.63749e-05 -1.71615e-07 0.000866988
0.000602147 0.000134487 -1.22467e-06
0.000134487 -6.48655e-05 -1.15901e-07
-1.22467e-06 -1.15901e-07 -0.000135254
0.001303 4.34874e-05 2.3323e-05
4.34874e-05 0.000363437 2.97256e-07
2.3323e-05 2.97256e-07 0.000311922
0.00089629 0.000129706 3.56656e-07
0.000129706 5.36012e-05 -2.03465e-07
3.56656e-07 -2.03465e-07 -6.84436e-05
0.00304993 -0.000100632 8.05009e-05
-0.000100632 0.00138398 3.11985e-06
8.05009e-05 3.11985e-06 0.00138579
0.000615191 -6.4634e-05 -4.82638e-07
-6.4634e-05 -5.0105e-07 5.95931e-06
-4.82638e-07 5.95931e-06 -3.21041e-05
0.00070496 7.71232e-05 1.68456e-05
7.71232e-05 -6.10248e-05 7.87765e-06
1.68456e-05 7.87765e-06 -0.000128298
0.000736829 0.000124831 2.10153e-05
0.000124831 -1.15718e-05 1.24169e-05
2.10153e-05 1.24169e-05 -8.52439e-05
0.00105421 0.000121916 1.13546e-05
0.000121916 2.90524e-06 4.45717e-06
1.13546e-05 4.45717e-06 -0.000117139
0.00189855 -1.33131e-05 4.68516e-05
-1.33131e-05 0.000711294 5.77998e-06
4.68516e-05 5.77998e-06 0.000674471
0.000993484 0.000140584 8.42523e-06
0.000140584 5.36362e-05 4.57014e-06
8.42523e-06 4.57014e-06 -7.032e-05
0.000952288 0.00012105 5.76209e-06
0.00012105 0.000137675 3.70456e-06
5.76209e-06 3.70456e-06 1.91664e-05
0.00092511 0.000161851 2.56786e-06
0.000161851 2.52608e-05 5.48777e-07
2.56786e-06 5.48777e-07 -0.000128178
0.00241639 -9.40579e-05 4.08917e-05
-9.40579e-05 0.00102121 2.53236e-06
4.08917e-05 2.53236e-06 0.00102592
0.00257224 -0.000105122 3.72797e-06
-0.000105122 0.0011156 -2.55304e-07
3.72797e-06 -2.55304e-07 0.00111709
0.00518445 1.31679e-05 -0.000159356
1.31679e-05 0.00256343 -6.37101e-06
-0.000159356 -6.37101e-06 0.00256439
0.00519921 4.31772e-05 -0.000164003
4.31772e-05 0.00257363 -3.08359e-06
-0.000164003 -3.08359e-06 0.00257519
0.00521278 7.62639e-05 -6.9032e-08
7.62639e-05 0.00258955 -1.38515e-06
-6.9032e-08 -1.38515e-06 0.00258604
0.0032406 -1.07108e-05 -7.76781e-05
-1.07108e-05 0.00147076 -1.97263e-06
-7.76781e-05 -1.97263e-06 0.00145563
0.00164078 1.93366e-05 3.74414e-05
1.93366e-05 0.000452297 4.58232e-07
3.74414e-05 4.58232e-07 0.00039656
0.00326328 6.79993e-05 -6.60052e-05
6.79993e-05 0.00148467 -3.0891e-06
-6.60052e-05 -3.0891e-06 0.00146777
0.0016551 5.15963e-05 3.58617e-05
5.15963e-05 0.000466924 1.01621e-06
3.58617e-05 1.01621e-06 0.000409959
0.00521458 0.000143395 0.000167539
0.000143395 0.00259974 3.14792e-06
0.000167539 3.14792e-06 0.00259003
0.000668329 7.10267e-07 1.65875e-05
7.10267e-07 -9.79479e-05 5.13027e-07
1.65875e-05 5.13027e-07 -0.000162061
0.00258241 6.94525e-06 8.9093e-05
6.94525e-06 0.00098432 3.52681e-06
8.9093e-05 3.52681e-06 0.00093798
0.00112166 2.68211e-05 1.14666e-05
2.68211e-05 1.00453e-06 1.31394e-06
1.14666e-05 1.31394e-06 -0.000108658
0.00247333 7.83872e-05 8.77325e-05
7.83872e-05 0.000933082 6.31346e-06
8.77325e-05 6.31346e-06 0.000884075
0.00112852 6.57111e-05 1.11537e-05
6.57111e-05 1.53063e-05 2.46617e-06
1.11537e-05 2.46617e-06 -9.6958e-05
0.00165114 2.88118e-05 -0.000152281
2.88118e-05 0.000562191 9.84621e-07
-0.000152281 9.84621e-07 0.000546018
0.00123861 -8.1372e-06 -2.05044e-05
-8.1372e-06 0.000348034 1.87079e-06
-2.05044e-05 1.87079e-06 0.000317279
0.0012242 0.000112556 -1.34604e-06
0.000112556 0.000385968 5.16785e-06
-1.34604e-06 5.16785e-06 0.00034309
0.00123567 -4.17065e-05 -3.10019e-05
-4.17065e-05 0.000353781 4.03232e-06
-3.10019e-05 4.03232e-06 0.000324129
0.0015883 -5.01993e-05 -7.52971e-05
-5.01993e-05 0.000439482 6.10016e-06
-7.52971e-05 6.10016e-06 0.000386976
0.00152785 -8.08211e-05 -7.35997e-05
-8.08211e-05 0.000423095 9.40245e-06
-7.35997e-05 9.40245e-06 0.000368631
0.00142254 -8.83942e-05 -7.29238e-05
-8.83942e-05 0.00039777 1.03948e-05
-7.29238e-05 1.03948e-05 0.000337937
0.00199105 -0.000176856 -1.98314e-05
-0.000176856 0.00057497 6.42541e-06
-1.98314e-05 6.42541e-06 0.000459005
0.00520261 -7.91484e-05 1.93515e-06
-7.91484e-05 0.0025842 -1.08586e-06
1.93515e-06 -1.08586e-06 0.00258032
0.00147672 3.57313e-05 6.723e-05
3.57313e-05 0.000472615 -1.86708e-06
6.723e-05 -1.86708e-06 0.000447653
0.0011332 4.73137e-06 -4.001e-05
4.73137e-06 0.00016956 5.74543e-07
-4.001e-05 5.74543e-07 0.000112026
0.00150771 -4.09613e-05 -2.41885e-05
-4.09613e-05 0.000393394 7.90232e-07
-2.41885e-05 7.90232e-07 0.000336465
0.00233379 7.14739e-05 8.07192e-05
7.14739e-05 0.00098254 -5.62653e-07
8.07192e-05 -5.62653e-07 0.000972935
0.00152493 -1.49885e-05 -2.07522e-05
-1.49885e-05 0.000497713 -6.01957e-07
-2.07522e-05 -6.01957e-07 0.000438066
0.00149494 -7.44557e-05 -2.02481e-05
-7.44557e-05 0.000398958 1.05507e-06
-2.02481e-05 1.05507e-06 0.000341873
0.00178213 -0.000102174 -7.00332e-06
-0.000102174 0.000400703 1.21833e-06
-7.00332e-06 1.21833e-06 0.000296484
0.00190229 -0.000183945 -3.9473e-06
-0.000183945 0.000574755 1.02223e-06
-3.9473e-06 1.02223e-06 0.000451821
0.00177175 -0.000148387 -2.56526e-06
-0.000148387 0.000426845 5.48572e-07
-2.56526e-06 5.48572e-07 0.000317023
0.00125035 -0.000164405 2.9446e-07
-0.000164405 7.07222e-05 1.21972e-07
2.9446e-07 1.21972e-07 -7.1151e-05
0.000698787 8.16384e-06 1.68799e-05
8.16384e-06 -8.02681e-05 -1.24256e-06
1.68799e-05 -1.24256e-06 -0.000143143
0.00145145 1.07346e-05 2.35579e-05
1.07346e-05 0.00036033 -2.4609e-06
2.35579e-05 -2.4609e-06 0.000300107
0.0016019 -2.2001e-05 1.15815e-05
-2.2001e-05 0.00027623 -1.17714e-06
1.15815e-05 -1.17714e-06 0.000173544
0.00157594 -7.90729e-05 1.12796e-05
-7.90729e-05 0.000278076 -2.19781e-06
1.12796e-05 -2.19781e-06 0.000173195
0.00153916 -0.000119017 1.2098e-05
-0.000119017 0.00027577 -3.6229e-06
1.2098e-05 -3.6229e-06 0.000168159
0.00176425 -0.000117302 3.14779e-06
-0.000117302 0.000303495 -7.79066e-07
3.14779e-06 -7.79066e-07 0.000177341
0.00331681 0.000127576 7.59765e-05
0.000127576 0.00153674 -2.51964e-06
7.59765e-05 -2.51964e-06 0.00153199
0.00132852 -0.000149505 6.00036e-06
-0.000149505 9.18967e-05 -1.747e-06
6.00036e-06 -1.747e-06 -4.30363e-05
0.000492207 1.74417e-06 5.86683e-06
1.74417e-06 -8.26155e-05 -8.04583e-06
5.86683e-06 -8.04583e-06 -0.000132452
0.000683214 -0.000114933 4.7749e-06
-0.000114933 -3.59014e-05 -4.22528e-06
4.7749e-06 -4.22528e-06 -0.0001529
0.0013728 -0.000190455 6.31338e-06
-0.000190455 0.000192335 -2.47744e-06
6.31338e-06 -2.47744e-06 3.5435e-05
0.00135461 -0.000177616 3.76007e-06
-0.000177616 6.95572e-05 5.73691e-07
3.76007e-06 5.73691e-07 -8.01754e-05
0.000517696 3.85306e-05 2.46918e-06
3.85306e-05 -6.62826e-05 -7.10626e-06
2.46918e-06 -7.10626e-06 -0.000105796
0.000687623 1.43355e-05 8.06562e-07
1.43355e-05 1.65545e-05 -3.44686e-06
8.06562e-07 -3.44686e-06 -6.40486e-05
0.00520637 9.8483e-05 -0.000174047
9.8483e-05 0.00258011 -1.09485e-05
-0.000174047 -1.09485e-05 0.00257865
0.00493293 -5.0666e-05 -0.000141224
-5.0666e-05 0.00244557 -8.75306e-06
-0.000141224 -8.75306e-06 0.00243952
0.000584535 9.87011e-05 -1.61835e-05
9.87011e-05 -0.000110674 -8.82383e-06
-1.61835e-05 -8.82383e-06 -0.000181186
0.00323418 -0.000130142 -7.15556e-05
-0.000130142 0.00149593 -2.4663e-06
-7.15556e-05 -2.4663e-06 0.00149051
0.000494964 3.19825e-05 -7.4344e-06
3.19825e-05 -8.98572e-05 -9.5016e-06
-7.4344e-06 -9.5016e-06 -0.000143543
0.000517202 0.000124109 -1.68039e-05
0.000124109 -0.000108551 -1.06542e-05
-1.68039e-05 -1.06542e-05 -0.000179122
0.000852212 0.000124451 -6.65633e-06
0.000124451 2.73393e-05 -4.16251e-06
-6.65633e-06 -4.16251e-06 -9.37359e-05
0.0029261 -0.000111729 4.40347e-06
-0.000111729 0.00131751 -2.29601e-07
4.40347e-06 -2.29601e-07 0.00131706
0.000571306 -7.44801e-05 1.42776e-09
-7.44801e-05 -2.18483e-05 2.75237e-07
1.42776e-09 2.75237e-07 -5.50846e-05
0.00159753 9.56057e-05 3.50803e-05
9.56057e-05 0.000445464 1.60082e-06
3.50803e-05 1.60082e-06 0.000385378
0.0015152 0.000132063 3.25718e-05
0.000132063 0.000430967 1.19984e-06
3.25718e-05 1.19984e-06 0.000366145
0.00106386 0.000124218 1.8101e-07
0.000124218 9.56242e-06 -1.70226e-07
1.8101e-07 -1.70226e-07 -0.000111017
0.000628651 -1.16542e-05 -5.52263e-07
-1.16542e-05 -5.42256e-06 1.44264e-07
-5.52263e-07 1.44264e-07 -4.93277e-05
0.000966355 0.000138488 5.47353e-07
0.000138488 3.91735e-05 1.59589e-07
5.47353e-07 1.59589e-07 -8.44459e-05
0.000844883 0.000110339 2.2251e-07
0.000110339 7.67616e-05 -2.56608e-07
2.2251e-07 -2.56608e-07 -3.95439e-05
0.000858168 0.000157573 -5.07508e-08
0.000157573 -1.36444e-05 1.39377e-07
-5.07508e-08 1.39377e-07 -0.000167484
0.000626003 -3.98659e-05 3.82317e-06
-3.98659e-05 3.44076e-06 6.7312e-06
3.82317e-06 6.7312e-06 -3.47893e-05
0.000642309 -6.83955e-05 -1.44351e-06
-6.83955e-05 6.99311e-06 4.97709e-06
-1.44351e-06 4.97709e-06 -1.85173e-05
0.000680873 8.6086e-06 2.10421e-06
8.6086e-06 2.64467e-05 3.3582e-06
2.10421e-06 3.3582e-06 -4.81696e-05
0.00108969 0.000102998 1.13447e-05
0.000102998 5.80718e-06 3.86327e-06
1.13447e-05 3.86327e-06 -0.000111118
0.00102096 0.000136472 1.0408e-05
0.000136472 2.05581e-05 4.72774e-06
1.0408e-05 4.72774e-06 -0.000102746
0.00131785 0.00015369 6.39817e-06
0.00015369 6.96353e-05 1.71742e-06
6.39817e-06 1.71742e-06 -7.52474e-05
0.000898296 9.2251e-05 4.59175e-06
9.2251e-05 0.000134965 3.77123e-06
4.59175e-06 3.77123e-06 2.79956e-05
0.00089234 0.000158308 3.55936e-06
0.000158308 -7.18224e-05 1.95308e-06
3.55936e-06 1.95308e-06 -0.000223448
0.00113599 0.00017219 2.55696e-06
0.00017219 0.000213701 1.12584e-06
2.55696e-06 1.12584e-06 5.83286e-05
0.00119672 0.000193256 -3.25538e-06
0.000193256 0.000158791 -8.26588e-07
-3.25538e-06 -8.26588e-07 -6.74989e-06
0.00226654 -8.3503e-05 3.38562e-05
-8.3503e-05 0.00092846 2.85061e-06
3.38562e-05 2.85061e-06 0.000936154
0.00234197 -9.36129e-05 1.70771e-06
-9.36129e-05 0.000979158 -1.85568e-07
1.70771e-06 -1.85568e-07 0.000983895
0.00246089 -0.000104908 -3.95293e-05
-0.000104908 0.00105379 -2.43285e-06
-3.95293e-05 -2.43285e-06 0.00105516
0.000536686 4.88909e-05 1.56146e-06
4.88909e-05 -5.556e-05 -6.27573e-06
1.56146e-06 -6.27573e-06 -9.07328e-05
0.00311166 0.000117867 6.4808e-05
0.000117867 0.001416 -2.59837e-06
6.4808e-05 -2.59837e-06 0.00141421
0.00520309 0.000125979 -0.000176042
0.000125979 0.00258166 -1.04927e-05
-0.000176042 -1.04927e-05 0.00257773
0.00516158 1.91628e-05 -0.00016021
1.91628e-05 0.00255096 -4.53593e-06
-0.00016021 -4.53593e-06 0.00255294
0.000703156 6.08525e-05 -1.70032e-05
6.08525e-05 -6.87942e-05 -4.32035e-06
-1.70032e-05 -4.32035e-06 -0.000134167
0.000681287 2.45219e-05 -1.70955e-05
2.45219e-05 -8.63154e-05 -2.19029e-06
-1.70955e-05 -2.19029e-06 -0.000151467
0.00517521 -4.38102e-05 -0.000157664
-4.38102e-05 0.00256172 -7.77813e-07
-0.000157664 -7.77813e-07 0.00256293
0.00519297 1.57366e-05 -5.69901e-07
1.57366e-05 0.0025718 3.93786e-07
-5.69901e-07 3.93786e-07 0.00257255
0.000665508 -1.95872e-06 -1.46545e-07
-1.95872e-06 -9.9819e-05 -1.73937e-07
-1.46545e-07 -1.73937e-07 -0.000163512
0.00162418 2.09969e-05 3.68376e-05
2.09969e-05 0.000445975 8.85415e-07
3.68376e-05 8.85415e-07 0.000390509
0.00113026 3.10649e-05 1.18103e-07
3.10649e-05 5.97085e-06 -1.64166e-07
1.18103e-07 -1.64166e-07 -0.000103903
0.000664981 5.59279e-05 -1.0941e-08
5.59279e-05 -8.71506e-05 -1.74652e-07
-1.0941e-08 -1.74652e-07 -0.000152704
0.00112083 6.81079e-05 -7.28006e-08
6.81079e-05 1.1411e-05 -1.16475e-07
-7.28006e-08 -1.16475e-07 -0.000101249
0.000657408 -1.75762e-05 1.68921e-05
-1.75762e-05 -0.000105839 -4.95146e-07
1.68921e-05 -4.95146e-07 -0.000168917
0.00112816 1.17715e-05 1.13442e-05
1.17715e-05 9.99357e-07 5.66616e-07
1.13442e-05 5.66616e-07 -0.000108226
0.00112143 4.68074e-05 1.1335e-05
4.68074e-05 6.64414e-06 1.99507e-06
1.1335e-05 1.99507e-06 -0.000104048
0.00140565 3.70849e-05 4.3215e-06
3.70849e-05 6.38191e-05 4.13344e-07
4.3215e-06 4.13344e-07 -6.01548e-05
0.00111456 8.33868e-05 1.11508e-05
8.33868e-05 1.18245e-05 3.07193e-06
1.11508e-05 3.07193e-06 -0.000102508
0.00140087 8.00929e-05 4.3932e-06
8.00929e-05 7.9698e-05 7.58544e-07
4.3932e-06 7.58544e-07 -5.01332e-05
0.00518732 -5.20752e-05 -0.000167471
-5.20752e-05 0.00257118 -4.89333e-07
-0.000167471 -4.89333e-07 0.00257017
0.00127568 -7.48141e-05 -1.8593e-05
-7.48141e-05 0.000370364 2.01001e-06
-1.8593e-05 2.01001e-06 0.000337594
-0.000172578 -5.04514e-07 -1.34964e-05
-5.04514e-07 -0.000567949 2.19171e-06
-1.34964e-05 2.19171e-06 -0.000639359
0.00158879 -3.39576e-05 -7.67084e-05
-3.39576e-05 0.000435191 4.49457e-06
-7.67084e-05 4.49457e-06 0.00038212
0.00340677 0.000188901 -1.33044e-05
0.000188901 0.00161453 1.99046e-06
-1.33044e-05 1.99046e-06 0.00159058
0.00215623 -7.86148e-05 -6.12384e-05
-7.86148e-05 0.000835827 9.10016e-06
-6.12384e-05 9.10016e-06 0.000784846
0.00156843 -6.68784e-05 -7.42033e-05
-6.68784e-05 0.00043543 7.9247e-06
-7.42033e-05 7.9247e-06 0.000382477
0.00158017 -9.36354e-05 -2.2123e-05
-9.36354e-05 0.00028538 4.3302e-06
-2.2123e-05 4.3302e-06 0.000180148
0.00200651 -0.000157254 -1.8741e-05
-0.000157254 0.000559399 5.58414e-06
-1.8741e-05 5.58414e-06 0.000450482
0.00202999 -0.000192329 -1.69304e-05
-0.000192329 0.000645984 6.89579e-06
-1.69304e-05 6.89579e-06 0.000520932
0.00122247 -0.000161742 -5.75142e-06
-0.000161742 5.66429e-05 1.2403e-06
-5.75142e-06 1.2403e-06 -8.48425e-05
0.000659726 9.05695e-06 4.71685e-09
9.05695e-06 -0.000102043 -1.469e-07
4.71685e-09 -1.469e-07 -0.000165036
0.00154088 -4.14925e-05 -2.54911e-05
-4.14925e-05 0.000407757 2.66166e-07
-2.54911e-05 2.66166e-07 0.000350626
0.00117834 -1.88998e-05 -4.96128e-06
-1.88998e-05 3.7671e-05 2.19176e-07
-4.96128e-06 2.19176e-07 -6.86733e-05
0.00181704 -8.19961e-05 -3.47482e-06
-8.19961e-05 0.000411985 4.79437e-07
-3.47482e-06 4.79437e-07 0.000308764
0.0033539 0.000122169 -2.08511e-06
0.000122169 0.00155776 -3.59577e-07
-2.08511e-06 -3.59577e-07 0.00155377
0.00125168 -9.6663e-06 1.77548e-06
-9.6663e-06 0.00034483 5.30722e-07
1.77548e-06 5.30722e-07 0.000293508
0.00125183 -0.000142078 6.51341e-07
-0.000142078 0.000281486 -6.34136e-07
6.51341e-07 -6.34136e-07 0.00016352
0.00155861 -0.000118337 -3.82619e-06
-0.000118337 0.000286898 7.06807e-07
-3.82619e-06 7.06807e-07 0.000179301
0.00146235 -0.000107503 -2.57677e-06
-0.000107503 0.00013252 6.22746e-07
-2.57677e-06 6.22746e-07 5.29209e-06
0.00101818 -0.000167648 -6.27211e-07
-0.000167648 -3.77264e-06 -5.04992e-07
-6.27211e-07 -5.04992e-07 -0.000158476
0.00155083 -0.000157439 2.27107e-07
-0.000157439 0.000217175 -4.56129e-08
2.27107e-07 -4.56129e-08 8.31458e-05
0.00141787 -0.000180969 4.68567e-07
-0.000180969 0.000105187 2.27216e-07
4.68567e-07 2.27216e-07 -4.47928e-05
0.000550789 3.2855e-05 -6.69665e-07
3.2855e-05 -4.86543e-05 8.91946e-08
-6.69665e-07 8.91946e-08 -8.80351e-05
0.00067703 -4.67788e-07 -2.66408e-07
-4.67788e-07 8.85304e-06 7.60149e-08
-2.66408e-07 7.60149e-08 -7.20483e-05
0.00111667 -9.42495e-06 1.12182e-05
-9.42495e-06 -4.14949e-06 -1.08718e-06
1.12182e-05 -1.08718e-06 -0.000112673
0.0016038 -4.57289e-05 1.1132e-05
-4.57289e-05 0.000283138 -1.58692e-06
1.1132e-05 -1.58692e-06 0.000179833
0.00176938 -2.95513e-05 3.08469e-06
-2.95513e-05 0.000278097 -2.65236e-07
3.08469e-06 -2.65236e-07 0.000159118
0.00125053 -8.07422e-05 5.21068e-06
-8.07422e-05 4.28832e-06 -1.01419e-06
5.21068e-06 -1.01419e-06 -0.000122225
0.00164674 -0.000142804 4.76828e-06
-0.000142804 0.000251503 -1.24475e-06
4.76828e-06 -1.24475e-06 0.00012148
0.00166176 -0.000118862 -1.19626e-07
-0.000118862 0.000184978 2.9085e-07
-1.19626e-07 2.9085e-07 5.7013e-05
0.000482743 1.72029e-05 4.69054e-06
1.72029e-05 -8.78721e-05 -7.54337e-06
4.69054e-06 -7.54337e-06 -0.000131582
0.00142122 -0.000159358 2.68757e-06
-0.000159358 8.86198e-05 -2.5609e-07
2.68757e-06 -2.5609e-07 -5.15733e-05
0.000625687 -8.36573e-05 3.20653e-06
-8.36573e-05 -2.88396e-05 -2.65037e-06
3.20653e-06 -2.65037e-06 -0.000135049
0.00053036 -0.000138763 4.77782e-06
-0.000138763 -0.000181946 -4.55441e-06
4.77782e-06 -4.55441e-06 -0.000338153
0.00194011 -0.000238626 2.72872e-06
-0.000238626 0.000448498 2.48595e-07
2.72872e-06 2.48595e-07 0.000277907
0.00165845 -0.000197521 8.72969e-08
-0.000197521 0.000197124 1.55266e-06
8.72969e-08 1.55266e-06 4.79761e-05
0.000751531 -3.57397e-05 2.12991e-06
-3.57397e-05 5.3978e-05 -3.07801e-06
2.12991e-06 -3.07801e-06 -3.8918e-05
0.000653709 1.4543e-05 1.29208e-06
1.4543e-05 -2.78296e-06 -2.96625e-06
1.29208e-06 -2.96625e-06 -7.39746e-05
0.00085676 -7.51756e-05 1.01427e-06
-7.51756e-05 0.000113748 -6.15578e-07
1.01427e-06 -6.15578e-07 -1.78369e-06
0.000628431 7.86133e-05 -1.58224e-05
7.86133e-05 -9.99513e-05 -6.94941e-06
-1.58224e-05 -6.94941e-06 -0.000167603
0.002804 -0.000119156 -5.13997e-05
-0.000119156 0.00125122 -2.22424e-06
-5.13997e-05 -2.22424e-06 0.0012489
0.000515036 -7.12051e-05 6.74542e-07
-7.12051e-05 -5.47533e-05 -5.32396e-06
6.74542e-07 -5.32396e-06 -8.67747e-05
0.000536968 0.000117192 -1.66704e-05
0.000117192 -0.000116844 -1.03592e-05
-1.66704e-05 -1.03592e-05 -0.00018906
0.00106986 0.000126607 -1.16448e-05
0.000126607 1.42083e-05 -4.79404e-06
-1.16448e-05 -4.79404e-06 -0.000106932
0.000479414 -2.04869e-05 -4.24602e-06
-2.04869e-05 -8.66819e-05 -7.95414e-06
-4.24602e-06 -7.95414e-06 -0.000130531
0.000719094 9.75299e-05 -4.15287e-06
9.75299e-05 5.94185e-06 -3.88711e-06
-4.15287e-06 -3.88711e-06 -0.000108121
0.000930911 0.000135565 -7.79566e-06
0.000135565 2.02893e-05 -4.38052e-06
-7.79566e-06 -4.38052e-06 -0.000102908
0.000751368 0.000150667 -3.8516e-06
0.000150667 -7.50263e-05 -1.41631e-06
-3.8516e-06 -1.41631e-06 -0.000228894
0.000552774 -4.63495e-05 1.45407e-06
-4.63495e-05 -3.77244e-05 2.14083e-07
1.45407e-06 2.14083e-07 -7.51001e-05
0.000604458 -6.31324e-05 -2.82534e-07
-6.31324e-05 -1.61902e-05 1.60252e-07
-2.82534e-07 1.60252e-07 -4.02756e-05
0.00065109 -2.76844e-05 3.59361e-07
-2.76844e-05 6.46299e-06 3.92282e-07
3.59361e-07 3.92282e-07 -6.3841e-05
0.00109307 0.000105149 6.2718e-08
0.000105149 8.61218e-06 -1.83188e-07
6.2718e-08 -1.83188e-07 -0.000108815
0.00102004 0.000137301 4.65633e-07
0.000137301 2.07678e-05 -2.39303e-07
4.65633e-07 -2.39303e-07 -0.000102658
0.00131965 0.000154628 3.04459e-07
0.000154628 7.08502e-05 3.05817e-08
3.04459e-07 3.05817e-08 -7.43373e-05
0.000795116 8.16076e-05 1.70231e-08
8.16076e-05 7.88914e-05 9.83064e-08
1.70231e-08 9.83064e-08 -2.66599e-05
0.00110268 0.000171746 -1.67262e-07
0.000171746 4.58328e-05 -1.10445e-07
-1.67262e-07 -1.10445e-07 -0.000107188
0.00105315 0.000164951 4.83171e-07
0.000164951 0.000167927 -5.42767e-07
4.83171e-07 -5.42767e-07 1.35958e-05
0.00111843 0.000191276 -7.2665e-07
0.000191276 0.000112384 1.45106e-06
-7.2665e-07 1.45106e-06 -5.2959e-05
0.000646565 -5.54195e-05 1.06034e-06
-5.54195e-05 -4.5334e-06 3.95723e-06
1.06034e-06 3.95723e-06 -2.33077e-05
0.000727961 4.51283e-05 2.87597e-06
4.51283e-05 4.63324e-05 3.01977e-06
2.87597e-06 3.01977e-06 -4.28697e-05
0.000658898 -3.90723e-05 3.30183e-07
-3.90723e-05 4.93007e-06 2.68311e-06
3.30183e-07 2.68311e-06 -5.01168e-05
0.000829851 4.66658e-05 2.85352e-07
4.66658e-05 0.000118892 1.33598e-06
2.85352e-07 1.33598e-06 1.01424e-05
0.0013742 0.000129534 6.17214e-06
0.000129534 7.98376e-05 1.52049e-06
6.17214e-06 1.52049e-06 -5.93623e-05
0.00123756 0.000170513 6.28876e-06
0.000170513 6.44053e-05 2.25187e-06
6.28876e-06 2.25187e-06 -8.59584e-05
0.00152776 0.000179618 3.32458e-06
0.000179618 0.000124504 5.49705e-07
3.32458e-06 5.49705e-07 -3.00271e-05
0.00112202 0.000142067 2.51863e-06
0.000142067 0.000247782 2.69157e-06
2.51863e-06 2.69157e-06 0.000108665
0.00128403 0.000197955 -3.75478e-07
0.000197955 9.55578e-05 2.7311e-06
-3.75478e-07 2.7311e-06 -6.74619e-05
0.000988338 0.000177426 -9.15382e-07
0.000177426 0.000120911 -1.57398e-06
-9.15382e-07 -1.57398e-06 -5.91344e-05
0.00111322 0.000198858 -7.50858e-08
0.000198858 6.0741e-05 7.0603e-08
-7.50858e-08 7.0603e-08 -0.000108867
0.000705645 -2.57246e-05 1.48056e-06
-2.57246e-05 5.45763e-06 1.84961e-06
1.48056e-06 1.84961e-06 -3.38389e-05
0.000645308 -4.12919e-05 1.09848e-06
-4.12919e-05 -2.34863e-05 3.76291e-06
1.09848e-06 3.76291e-06 -3.62626e-05
0.0021929 -7.34055e-05 2.90145e-05
-7.34055e-05 0.000877609 3.24146e-06
2.90145e-05 3.24146e-06 0.000888074
0.00221709 -8.2289e-05 1.82274e-06
-8.2289e-05 0.000899548 -1.6744e-07
1.82274e-06 -1.6744e-07 0.000907562
0.00225926 -9.14652e-05 -3.49264e-05
-9.14652e-05 0.000931994 -2.69453e-06
-3.49264e-05 -2.69453e-06 0.000937224
0.00056145 5.20352e-05 1.01394e-06
5.20352e-05 -4.61078e-05 -5.50703e-06
1.01394e-06 -5.50703e-06 -7.66237e-05
0.0028907 0.000108003 5.36367e-05
0.000108003 0.00128792 -2.84042e-06
5.36367e-05 -2.84042e-06 0.00128856
0.000568779 4.62092e-05 -2.67827e-07
4.62092e-05 -3.79993e-05 1.0944e-07
-2.67827e-07 1.0944e-07 -7.31467e-05
0.0031551 0.000112572 -2.09083e-06
0.000112572 0.00143947 -2.47953e-07
-2.09083e-06 -2.47953e-07 0.00143876
0.000685597 7.23146e-05 -1.67085e-05
7.23146e-05 -7.41213e-05 -5.55727e-06
-1.67085e-05 -5.55727e-06 -0.000140851
0.000680091 3.04249e-05 -1.66124e-05
3.04249e-05 -8.5057e-05 -3.20339e-06
-1.66124e-05 -3.20339e-06 -0.000149839
0.00111932 6.98986e-05 -1.09931e-05
6.98986e-05 1.07798e-05 -2.66952e-06
-1.09931e-05 -2.66952e-06 -0.00010219
0.0011306 3.32379e-05 -1.15179e-05
3.32379e-05 6.36888e-06 -1.61722e-06
-1.15179e-05 -1.61722e-06 -0.000103635
0.000693277 -2.29823e-06 -1.71731e-05
-2.29823e-06 -8.59657e-05 -9.7008e-07
-1.71731e-05 -9.7008e-07 -0.000148604
0.00522315 -9.6348e-05 -0.000173158
-9.6348e-05 0.00259476 1.99655e-06
-0.000173158 1.99655e-06 0.00259186
0.000681727 -1.06421e-06 1.10059e-07
-1.06421e-06 -9.31608e-05 -3.20409e-07
1.10059e-07 -3.20409e-07 -0.00015592
0.00113225 1.62635e-05 -3.11822e-09
1.62635e-05 3.51731e-06 -1.36004e-07
-3.11822e-09 -1.36004e-07 -0.000105804
0.00112522 4.8161e-05 -1.40923e-08
4.8161e-05 9.06041e-06 -1.0029e-07
-1.40923e-08 -1.0029e-07 -0.000101829
0.0013992 3.65221e-05 -3.7361e-08
3.65221e-05 6.15915e-05 -5.71554e-08
-3.7361e-08 -5.71554e-08 -6.24441e-05
0.00111072 8.60032e-05 -3.27154e-08
8.60032e-05 1.04831e-05 -1.96895e-07
-3.27154e-08 -1.96895e-07 -0.000104437
0.00138989 8.21288e-05 -5.17267e-08
8.21288e-05 7.36753e-05 -3.50852e-08
-5.17267e-08 -3.50852e-08 -5.6557e-05
0.00113609 -3.40468e-07 1.12979e-05
-3.40468e-07 5.16247e-06 -2.25019e-07
1.12979e-05 -2.25019e-07 -0.000103783
0.00141099 2.20812e-05 4.1182e-06
2.20812e-05 6.10127e-05 2.98925e-07
4.1182e-06 2.98925e-07 -6.16733e-05
0.00140595 5.96148e-05 4.43118e-06
5.96148e-05 7.45027e-05 6.30736e-07
4.43118e-06 6.30736e-07 -5.20969e-05
0.0015847 5.04272e-05 -7.61094e-08
5.04272e-05 7.91566e-05 -1.69774e-07
-7.61094e-08 -1.69774e-07 -3.9161e-05
0.00140184 0.000104657 4.65637e-06
0.000104657 8.45843e-05 9.31276e-07
4.65637e-06 9.31276e-07 -4.96534e-05
0.00154597 9.46649e-05 -2.31752e-08
9.46649e-05 8.7363e-05 -4.50357e-07
-2.31752e-08 -4.50357e-07 -4.0271e-05
0.000668459 1.02695e-05 -1.62958e-05
1.02695e-05 -9.75298e-05 8.02843e-07
-1.62958e-05 8.02843e-07 -0.000160829
0.00160164 -1.43957e-05 -7.79262e-05
-1.43957e-05 0.000437827 2.99468e-06
-7.79262e-05 2.99468e-06 0.00038462
0.000739936 -1.43972e-05 -1.22982e-05
-1.43972e-05 -0.000209162 1.64523e-06
-1.22982e-05 1.64523e-06 -0.000319232
0.00204329 -8.35883e-05 -1.94799e-05
-8.35883e-05 0.000537337 3.10923e-06
-1.94799e-05 3.10923e-06 0.000435939
0.00340085 0.000111244 -9.06304e-05
0.000111244 0.00158332 3.31631e-06
-9.06304e-05 3.31631e-06 0.00158102
0.00204932 -2.39483e-05 -5.15114e-05
-2.39483e-05 0.000789638 6.35342e-06
-5.15114e-05 6.35342e-06 0.000745191
0.00190603 -0.000178474 -1.18704e-05
-0.000178474 0.000645124 5.56887e-06
-1.18704e-05 5.56887e-06 0.000525095
0.00156403 -0.000116998 -1.93469e-05
-0.000116998 0.000289991 4.87911e-06
-1.93469e-05 4.87911e-06 0.00018258
0.00115571 -9.739e-05 -6.62162e-06
-9.739e-05 -4.10458e-05 1.60435e-06
-6.62162e-06 1.60435e-06 -0.00016932
0.00176833 -0.000165226 -6.92461e-06
-0.000165226 0.000339879 1.91181e-06
-6.92461e-06 1.91181e-06 0.000206744
0.000661753 -0.000144528 -5.91854e-06
-0.000144528 -0.000200604 7.08586e-07
-5.91854e-06 7.08586e-07 -0.000353098
0.00144753 -0.000182411 -2.69064e-06
-0.000182411 0.000122493 -1.84059e-07
-2.69064e-06 -1.84059e-07 -2.75779e-05
0.000595408 2.44e-05 -4.77225e-06
2.44e-05 -2.40448e-05 6.82141e-06
-4.77225e-06 6.82141e-06 -6.36021e-05
0.000684701 -1.54291e-05 -2.12669e-06
-1.54291e-05 1.30752e-05 2.9343e-06
-2.12669e-06 2.9343e-06 -6.93152e-05
0.0009383 -5.18368e-06 -4.49139e-07
-5.18368e-06 -0.00010378 -1.72035e-07
-4.49139e-07 -1.72035e-07 -0.000213511
0.00161038 -4.69279e-05 -4.09085e-06
-4.69279e-05 0.000285942 3.87751e-07
-4.09085e-06 3.87751e-07 0.000182624
0.00172714 -2.60075e-05 -2.382e-06
-2.60075e-05 0.000251787 3.2384e-07
-2.382e-06 3.2384e-07 0.000133175
0.00152788 -8.55792e-05 8.69139e-07
-8.55792e-05 0.000159839 -2.41443e-07
8.69139e-07 -2.41443e-07 3.48634e-05
0.000567926 7.40038e-06 1.56341e-07
7.40038e-06 -4.25481e-05 1.80091e-07
1.56341e-07 1.80091e-07 -8.62958e-05
0.000831713 -0.000103107 -7.82465e-08
-0.000103107 8.46717e-05 3.33796e-07
-7.82465e-08 3.33796e-07 -2.42502e-05
0.00076074 -0.000153551 1.40772e-06
-0.000153551 -4.86575e-05 -1.6575e-06
1.40772e-06 -1.6575e-06 -0.000204779
0.00172573 -0.00014379 -1.55219e-06
-0.00014379 0.000295463 3.53321e-07
-1.55219e-06 3.53321e-07 0.000165587
0.00158592 -0.00011549 -4.96516e-07
-0.00011549 0.000137893 3.83215e-07
-4.96516e-07 3.83215e-07 1.11724e-05
0.00157062 -0.00021564 -1.66815e-06
-0.00021564 0.00023911 4.82596e-07
-1.66815e-06 4.82596e-07 6.9908e-05
0.00144164 -0.000160424 2.73197e-07
-0.000160424 9.83248e-05 1.91345e-08
2.73197e-07 1.91345e-08 -4.17925e-05
0.00163028 -0.000197139 3.26535e-07
-0.000197139 0.000178804 3.64628e-07
3.26535e-07 3.64628e-07 2.94878e-05
0.000733837 -4.0806e-05 -3.33598e-07
-4.0806e-05 4.38281e-05 -1.88655e-07
-3.33598e-07 -1.88655e-07 -4.96415e-05
0.000727706 -4.32155e-05 -6.44918e-07
-4.32155e-05 3.56414e-05 -4.41067e-07
-6.44918e-07 -4.41067e-07 -7.35809e-05
0.000679591 6.22096e-06 3.98057e-07
6.22096e-06 1.0146e-05 2.42505e-07
3.98057e-07 2.42505e-07 -6.10427e-05
0.0017673 -8.22302e-06 2.82943e-06
-8.22302e-06 0.000267531 -2.584e-07
2.82943e-06 -2.584e-07 0.000148473
0.00167226 -5.33526e-05 3.48263e-06
-5.33526e-05 0.000225506 -2.23795e-07
3.48263e-06 -2.23795e-07 0.000104865
0.00167512 -3.40454e-05 -1.23551e-07
-3.40454e-05 0.000139282 5.24925e-07
-1.23551e-07 5.24925e-07 2.19018e-05
0.00154563 -9.27136e-05 -4.1228e-07
-9.27136e-05 9.93779e-05 2.19894e-07
-4.1228e-07 2.19894e-07 -2.55887e-05
0.00141685 -0.000138147 1.9838e-06
-0.000138147 6.19896e-05 1.74936e-07
1.9838e-06 1.74936e-07 -7.05355e-05
0.00166823 -0.000128365 -2.68335e-06
-0.000128365 0.000121865 1.25882e-06
-2.68335e-06 1.25882e-06 6.71293e-06
0.000709599 -6.60981e-05 3.0116e-06
-6.60981e-05 3.1094e-05 -2.19244e-06
3.0116e-06 -2.19244e-06 -6.90267e-05
0.00154271 -0.000178765 -5.25379e-07
-0.000178765 0.000104772 1.14292e-06
-5.25379e-07 1.14292e-06 -3.26031e-05
0.000895678 -0.000149616 1.5456e-06
-0.000149616 9.6698e-05 -1.74842e-06
1.5456e-06 -1.74842e-06 -4.4041e-05
0.000867997 -0.000183583 4.68042e-06
-0.000183583 -4.88512e-05 -4.3665e-06
4.68042e-06 -4.3665e-06 -0.000234437
0.0018815 -0.000239897 2.63134e-06
-0.000239897 0.000365718 1.8333e-06
2.63134e-06 1.8333e-06 0.000192201
0.00180966 -0.000222423 -3.11937e-06
-0.000222423 0.000230862 3.10463e-06
-3.11937e-06 3.10463e-06 8.69668e-05
0.000665167 4.80688e-06 1.52304e-06
4.80688e-06 1.43518e-07 -2.57361e-06
1.52304e-06 -2.57361e-06 -6.27529e-05
0.000815481 -9.19878e-05 1.76917e-06
-9.19878e-05 7.58296e-05 6.03734e-07
1.76917e-06 6.03734e-07 -3.76274e-05
0.000652878 -2.41105e-05 1.00891e-06
-2.41105e-05 6.84643e-06 -1.7702e-06
1.00891e-06 -1.7702e-06 -0.000100387
0.00104976 -0.00014184 5.04787e-08
-0.00014184 0.000217744 1.58048e-06
5.04787e-08 1.58048e-06 8.88048e-05
0.00109219 0.000107459 -1.16993e-05
0.000107459 8.95738e-06 -4.14239e-06
-1.16993e-05 -4.14239e-06 -0.000108977
0.00057335 -5.85262e-05 -1.17089e-06
-5.85262e-05 -3.50556e-05 -4.16591e-06
-1.17089e-06 -4.16591e-06 -5.80084e-05
0.000488201 -6.85066e-05 2.08902e-06
-6.85066e-05 -6.72012e-05 -7.12674e-06
2.08902e-06 -7.12674e-06 -0.000107796
0.000657739 -5.87732e-05 1.46359e-06
-5.87732e-05 1.45722e-05 -3.4516e-06
1.46359e-06 -3.4516e-06 -5.71159e-05
0.00101845 0.000138494 -9.80636e-06
0.000138494 2.07022e-05 -5.24722e-06
-9.80636e-06 -5.24722e-06 -0.000102938
0.00133234 0.000156033 -6.10439e-06
0.000156033 7.79119e-05 -1.72833e-06
-6.10439e-06 -1.72833e-06 -6.75928e-05
0.000695587 7.09859e-05 -2.86709e-06
7.09859e-05 2.46399e-05 -2.99861e-06
-2.86709e-06 -2.99861e-06 -7.91726e-05
0.000970494 0.000157779 -3.29614e-06
0.000157779 0.000122366 -3.13968e-06
-3.29614e-06 -3.13968e-06 -3.12313e-05
0.00137217 0.000188859 -4.26258e-06
0.000188859 0.000196279 -1.88774e-06
-4.26258e-06 -1.88774e-06 4.14665e-05
0.00104433 0.000189312 -1.21552e-06
0.000189312 6.93971e-05 -6.7707e-07
-1.21552e-06 -6.7707e-07 -9.58662e-05
0.000622164 -5.29288e-05 1.5043e-08
-5.29288e-05 -1.89278e-05 3.69013e-08
1.5043e-08 3.69013e-08 -3.7224e-05
0.000736827 3.82045e-05 4.06183e-07
3.82045e-05 5.61086e-05 -1.43691e-07
4.06183e-07 -1.43691e-07 -3.52302e-05
0.000652613 -5.4718e-05 -7.54997e-07
-5.4718e-05 4.75588e-06 5.38889e-07
-7.54997e-07 5.38889e-07 -5.19674e-05
0.000793761 2.12877e-05 5.67189e-07
2.12877e-05 9.72479e-05 -2.58465e-07
5.67189e-07 -2.58465e-07 -8.66572e-06
0.0013598 0.000129337 9.01382e-07
0.000129337 7.28166e-05 1.03087e-07
9.01382e-07 1.03087e-07 -6.65333e-05
0.00128203 0.000174412 1.37364e-07
0.000174412 8.94512e-05 4.08862e-08
1.37364e-07 4.08862e-08 -6.15886e-05
0.00150943 0.000177844 3.56892e-07
0.000177844 0.000117318 1.61028e-07
3.56892e-07 1.61028e-07 -3.71893e-05
0.000989003 0.000135069 2.42922e-07
0.000135069 0.000173379 6.11962e-07
2.42922e-07 6.11962e-07 3.59878e-05
0.00154964 0.000213664 -1.32272e-06
0.000213664 0.000245723 -1.1082e-06
-1.32272e-06 -1.1082e-06 8.13571e-05
0.00113604 0.000189498 1.03199e-07
0.000189498 0.000203796 -1.31887e-06
1.03199e-07 -1.31887e-06 2.08731e-05
0.00106693 0.000195604 -2.3061e-06
0.000195604 4.15759e-05 -9.40603e-07
-2.3061e-06 -9.40603e-07 -0.000120817
0.000643097 -4.78173e-05 1.28746e-06
-4.78173e-05 -1.69124e-05 3.77189e-06
1.28746e-06 3.77189e-06 -3.2064e-05
0.000691455 -4.03274e-05 9.30527e-07
-4.03274e-05 1.48816e-05 2.08463e-06
9.30527e-07 2.08463e-06 -3.14983e-05
0.000979921 8.67255e-05 2.27542e-06
8.67255e-05 0.000187516 1.48592e-06
2.27542e-06 1.48592e-06 6.58919e-05
0.000784712 2.78024e-05 -1.28063e-07
2.78024e-05 8.79562e-05 1.81598e-06
-1.28063e-07 1.81598e-06 -1.73402e-06
0.000898195 0.000102333 5.38765e-07
0.000102333 0.000166275 3.79242e-07
5.38765e-07 3.79242e-07 3.92583e-05
0.00151994 0.000147696 2.35422e-06
0.000147696 0.000101022 -2.51021e-07
2.35422e-06 -2.51021e-07 -4.31607e-05
0.00147043 0.000197792 2.85037e-06
0.000197792 0.000131339 2.14726e-06
2.85037e-06 2.14726e-06 -2.97424e-05
0.00165638 0.000208007 -1.35582e-07
0.000208007 0.000159397 -4.17353e-07
-1.35582e-07 -4.17353e-07 3.98519e-06
0.00115814 0.000180008 3.8727e-06
0.000180008 0.000269435 3.8913e-06
3.8727e-06 3.8913e-06 9.30379e-05
0.00142955 0.000222227 2.61847e-06
0.000222227 0.000142104 3.55608e-06
2.61847e-06 3.55608e-06 -2.47446e-05
0.000324253 0.000145964 2.71294e-06
0.000145964 -0.000311769 -2.765e-06
2.71294e-06 -2.765e-06 -0.000500553
0.000699602 -2.8724e-05 1.91763e-06
-2.8724e-05 5.37973e-06 1.75004e-06
1.91763e-06 1.75004e-06 -3.47367e-05
0.000740159 1.91246e-05 4.72945e-07
1.91246e-05 4.48155e-05 7.294e-07
4.72945e-07 7.294e-07 -1.85402e-05
0.000722812 -1.60226e-05 1.15012e-06
-1.60226e-05 1.24148e-05 1.89437e-06
1.15012e-06 1.89437e-06 -2.62153e-05
0.000710088 -2.68063e-05 3.564e-09
-2.68063e-05 8.44959e-06 -1.20284e-08
3.564e-09 -1.20284e-08 -3.10139e-05
0.00126382 -4.60667e-05 1.36346e-06
-4.60667e-05 0.000322936 2.29753e-06
1.36346e-06 2.29753e-06 0.00031527
0.00095973 -4.63069e-05 7.79024e-07
-4.63069e-05 0.000155912 -5.0834e-08
7.79024e-07 -5.0834e-08 0.000144773
0.000929022 -4.0394e-05 2.41649e-05
-4.0394e-05 0.000146255 6.60151e-06
2.41649e-05 6.60151e-06 0.000153093
0.00217058 -7.24229e-05 1.81225e-06
-7.24229e-05 0.000863804 -1.54266e-07
1.81225e-06 -1.54266e-07 0.000874566
0.00217818 -8.09303e-05 -3.1282e-05
-8.09303e-05 0.000876432 -3.04944e-06
-3.1282e-05 -3.04944e-06 0.000884832
0.000572863 5.10684e-05 9.39035e-07
5.10684e-05 -4.64486e-05 -4.9106e-06
9.39035e-07 -4.9106e-06 -7.28623e-05
0.00271538 9.79146e-05 4.45283e-05
9.79146e-05 0.00118436 -3.15661e-06
4.45283e-05 -3.15661e-06 0.00118739
0.000584231 5.01358e-05 -2.29023e-07
5.01358e-05 -3.32996e-05 7.90937e-08
-2.29023e-07 7.90937e-08 -6.38574e-05
0.00295501 0.000105512 -2.80162e-06
0.000105512 0.00132305 -2.27619e-07
-2.80162e-06 -2.27619e-07 0.00132435
0.000596267 4.26667e-05 -2.04514e-06
4.26667e-05 -2.30784e-05 6.43857e-06
-2.04514e-06 6.43857e-06 -5.82015e-05
0.00320755 0.000106186 -7.96352e-05
0.000106186 0.00146782 3.08976e-06
-7.96352e-05 3.08976e-06 0.00146832
0.00111553 8.87573e-05 -1.13027e-05
8.87573e-05 1.3602e-05 -3.40292e-06
-1.13027e-05 -3.40292e-06 -0.00010184
0.00113224 5.21213e-05 -1.12178e-05
5.21213e-05 1.33981e-05 -2.15877e-06
-1.12178e-05 -2.15877e-06 -9.78352e-05
0.00136991 8.05238e-05 -4.62602e-06
8.05238e-05 6.26942e-05 -8.33551e-07
-4.62602e-06 -8.33551e-07 -6.76731e-05
0.00139325 3.61824e-05 -4.53407e-06
3.61824e-05 5.96595e-05 -4.98875e-07
-4.53407e-06 -4.98875e-07 -6.44428e-05
0.00113625 1.94676e-05 -1.15067e-05
1.94676e-05 6.00562e-06 -8.80642e-07
-1.15067e-05 -8.80642e-07 -0.000103428
0.000663858 1.58846e-05 -1.68291e-05
1.58846e-05 -0.000102376 -1.5255e-07
-1.68291e-05 -1.5255e-07 -0.00016537
0.00113112 1.87744e-06 2.16798e-08
1.87744e-06 2.37618e-06 -1.46816e-07
2.16798e-08 -1.46816e-07 -0.000106606
0.00140425 2.37298e-05 -8.74487e-08
2.37298e-05 5.79768e-05 4.54653e-09
-8.74487e-08 4.54653e-09 -6.47848e-05
0.00139009 5.68587e-05 6.2602e-09
5.68587e-05 6.721e-05 -4.24456e-08
6.2602e-09 -4.24456e-08 -5.93673e-05
0.00162669 5.16557e-05 -1.17973e-07
5.16557e-05 9.98236e-05 1.69486e-07
-1.17973e-07 1.69486e-07 -1.71153e-05
0.00137975 0.000104362 -1.5437e-07
0.000104362 7.24538e-05 -1.07108e-07
-1.5437e-07 -1.07108e-07 -6.19689e-05
0.00155191 9.3526e-05 -1.0699e-07
9.3526e-05 9.4817e-05 7.34256e-08
-1.0699e-07 7.34256e-08 -3.28639e-05
0.00140532 6.33676e-06 4.33366e-06
6.33676e-06 5.81775e-05 -3.90218e-08
4.33366e-06 -3.90218e-08 -6.407e-05
0.00165001 3.41205e-05 -5.82913e-07
3.41205e-05 9.77478e-05 3.35756e-07
-5.82913e-07 3.35756e-07 -1.65609e-05
0.00155272 7.66722e-05 -9.95709e-08
7.66722e-05 7.56878e-05 -3.96035e-07
-9.95709e-08 -3.96035e-07 -4.68811e-05
0.00173458 6.36201e-05 -1.16697e-06
6.36201e-05 9.60279e-05 2.01029e-07
-1.16697e-06 2.01029e-07 -8.20561e-06
0.00154229 0.000113199 1.72272e-07
0.000113199 0.000100301 -6.20775e-07
1.72272e-07 -6.20775e-07 -3.3869e-05
0.00167238 0.000112286 -3.17506e-06
0.000112286 9.23833e-05 -7.28489e-07
-3.17506e-06 -7.28489e-07 -1.61444e-05
0.000755659 -2.65353e-06 -1.11119e-05
-2.65353e-06 -0.000205582 6.23905e-07
-1.11119e-05 6.23905e-07 -0.000316571
0.00163718 -4.96945e-05 -1.91555e-05
-4.96945e-05 0.000299977 2.32914e-06
-1.91555e-05 2.32914e-06 0.000196629
0.00168555 -1.94082e-05 -7.47992e-06
-1.94082e-05 0.000225989 6.97344e-07
-7.47992e-06 6.97344e-07 0.000107864
0.00180672 -9.07119e-05 -5.17737e-06
-9.07119e-05 0.000316188 9.12432e-07
-5.17737e-06 9.12432e-07 0.000192735
0.00065563 -3.02159e-06 -6.89914e-06
-3.02159e-06 5.72364e-06 7.3853e-06
-6.89914e-06 7.3853e-06 -3.91706e-05
0.000933814 -0.000115732 -5.11323e-06
-0.000115732 0.000142122 3.95888e-06
-5.11323e-06 3.95888e-06 3.10999e-05
0.000995155 -0.000169108 -2.02453e-06
-0.000169108 8.67235e-05 1.29266e-06
-2.02453e-06 1.29266e-06 -6.944e-05
0.00180611 -0.000144841 -7.66366e-06
-0.000144841 0.000340185 2.04959e-06
-7.66366e-06 2.04959e-06 0.000210459
0.00150578 -0.000111944 -9.68063e-07
-0.000111944 8.83051e-05 6.34548e-08
-9.68063e-07 6.34548e-08 -3.71613e-05
0.00147343 -0.000162019 -2.2509e-06
-0.000162019 0.000114283 2.39713e-07
-2.2509e-06 2.39713e-07 -2.57815e-05
0.00119878 -0.000192505 -5.01335e-06
-0.000192505 2.77572e-05 2.75529e-10
-5.01335e-06 2.75529e-10 -0.000139932
0.00163645 -0.000198586 1.14716e-06
-0.000198586 0.000179085 -1.52828e-06
1.14716e-06 -1.52828e-06 2.94052e-05
0.000713194 -4.45438e-05 -3.22172e-06
-4.45438e-05 2.98771e-05 2.52612e-06
-3.22172e-06 2.52612e-06 -6.28077e-05
0.000666402 -3.42405e-05 -2.01805e-06
-3.42405e-05 2.00131e-06 -1.9607e-07
-2.01805e-06 -1.9607e-07 -0.000106658
0.000695658 -7.51521e-07 -1.30902e-06
-7.51521e-07 1.78201e-05 3.04602e-06
-1.30902e-06 3.04602e-06 -5.35062e-05
0.00159299 -6.65796e-06 -2.36454e-06
-6.65796e-06 0.000168051 1.55877e-07
-2.36454e-06 1.55877e-07 4.7525e-05
0.00167331 -5.90376e-05 -1.73742e-06
-5.90376e-05 0.000226272 3.05444e-07
-1.73742e-06 3.05444e-07 0.000105251
0.00162743 -3.02659e-05 -3.08902e-07
-3.02659e-05 0.00011075 2.5519e-07
-3.08902e-07 2.5519e-07 -5.05806e-06
0.00161129 -9.15444e-05 -6.61651e-07
-9.15444e-05 0.000131512 4.40468e-08
-6.61651e-07 4.40468e-08 6.89314e-06
0.00076975 -7.61305e-05 1.29776e-07
-7.61305e-05 6.39386e-05 -5.2513e-08
1.29776e-07 -5.2513e-08 -3.72012e-05
0.00101342 -0.000159162 -4.04751e-07
-0.000159162 0.000159311 7.86856e-07
-4.04751e-07 7.86856e-07 1.71041e-05
0.000947663 -0.000185127 7.07567e-07
-0.000185127 7.57746e-06 -1.70459e-06
7.07567e-07 -1.70459e-06 -0.000175767
0.00155537 -0.000143969 6.66913e-09
-0.000143969 0.000139549 7.84716e-09
6.66913e-09 7.84716e-09 6.05738e-06
0.00167357 -0.000127709 7.38469e-07
-0.000127709 0.000126015 3.2082e-07
7.38469e-07 3.2082e-07 1.38021e-05
0.00166036 -0.000227416 -3.05227e-07
-0.000227416 0.000236891 4.35814e-07
-3.05227e-07 4.35814e-07 6.38403e-05
0.00155548 -0.000178299 1.62565e-07
-0.000178299 0.000111409 2.00605e-07
1.62565e-07 2.00605e-07 -2.54685e-05
0.00185367 -0.000224409 8.63368e-07
-0.000224409 0.000257432 -2.29554e-07
8.63368e-07 -2.29554e-07 0.00011477
0.000916066 -0.000103903 -1.71418e-08
-0.000103903 0.000134901 9.70442e-08
-1.71418e-08 9.70442e-08 1.87524e-05
0.00099678 -0.000140527 -3.41403e-07
-0.000140527 0.00018971 3.61201e-07
-3.41403e-07 3.61201e-07 5.91844e-05
0.000689679 -1.28376e-06 1.75726e-07
-1.28376e-06 1.34289e-05 1.71884e-07
1.75726e-07 1.71884e-07 -4.97918e-05
0.000592975 -8.5259e-07 -1.45891e-07
-8.5259e-07 -3.08023e-05 -7.07019e-07
-1.45891e-07 -7.07019e-07 -0.000132653
0.00161607 -1.78133e-05 3.76307e-07
-1.78133e-05 9.56424e-05 3.92909e-09
3.76307e-07 3.92909e-09 -2.09102e-05
0.00181737 -6.13378e-05 3.01702e-08
-6.13378e-05 0.000224225 6.44381e-07
3.01702e-08 6.44381e-07 0.000105814
0.00165164 -4.71877e-05 2.82033e-07
-4.71877e-05 5.05824e-05 1.46494e-07
2.82033e-07 1.46494e-07 -5.70581e-05
0.00170167 -0.000115041 -3.67327e-06
-0.000115041 0.00011035 5.14929e-07
-3.67327e-06 5.14929e-07 5.88945e-06
0.00167236 -0.000155219 -2.60694e-06
-0.000155219 0.000145769 1.90339e-06
-2.60694e-06 1.90339e-06 2.32655e-05
0.00172513 -0.000132495 -3.72778e-07
-0.000132495 0.000107509 2.64816e-07
-3.72778e-07 2.64816e-07 9.80701e-06
0.000844195 -0.000136846 1.34767e-06
-0.000136846 8.86101e-05 2.66429e-08
1.34767e-06 2.66429e-08 -3.57735e-05
0.00161024 -0.00019647 -4.46439e-06
-0.00019647 8.98969e-05 2.84888e-06
-4.46439e-06 2.84888e-06 -3.26032e-05
0.000419904 -0.000133493 -7.718e-08
-0.000133493 -0.000182332 -4.55226e-06
-7.718e-08 -4.55226e-06 -0.000346883
0.00196456 -0.000272165 4.02228e-06
-0.000272165 0.000497905 -1.77358e-06
4.02228e-06 -1.77358e-06 0.000292343
0.00174438 -0.0002426 9.89384e-07
-0.0002426 0.000232899 4.1544e-06
9.89384e-07 4.1544e-06 6.00971e-05
0.00184722 -0.000229523 -6.88635e-07
-0.000229523 0.000220234 1.4486e-06
-6.88635e-07 1.4486e-06 8.08339e-05
0.000681973 -5.09391e-06 2.00334e-06
-5.09391e-06 7.45261e-06 -2.42648e-06
2.00334e-06 -2.42648e-06 -5.03075e-05
0.000603146 -7.93838e-06 2.09068e-07
-7.93838e-06 -1.31937e-05 -1.71271e-06
2.09068e-07 -1.71271e-06 -0.000113295
0.000890125 -0.000150295 5.16627e-07
-0.000150295 0.000121934 1.9131e-06
5.16627e-07 1.9131e-06 -9.31044e-06
0.000891672 -0.000105152 1.89471e-06
-0.000105152 0.000142698 -1.71395e-07
1.89471e-06 -1.71395e-07 1.78711e-05
0.00104473 -0.000164162 -4.56972e-07
-0.000164162 0.000210527 3.30707e-06
-4.56972e-07 3.30707e-06 7.52151e-05
0.000600216 -5.10746e-05 -1.54134e-06
-5.10746e-05 -3.16337e-05 -3.83747e-06
-1.54134e-06 -3.83747e-06 -4.95874e-05
0.00134066 0.000128963 -4.44447e-06
0.000128963 6.34006e-05 -1.36996e-06
-4.44447e-06 -1.36996e-06 -7.61097e-05
0.000632651 -7.12659e-05 1.18404e-07
-7.12659e-05 -1.84408e-06 -2.20545e-06
1.18404e-07 -2.20545e-06 -6.11291e-05
0.000730092 2.05714e-05 -5.25006e-07
2.05714e-05 4.9891e-05 -3.42484e-06
-5.25006e-07 -3.42484e-06 -3.82627e-05
0.000754618 -5.4027e-06 1.43911e-06
-5.4027e-06 7.36021e-05 -1.46213e-06
1.43911e-06 -1.46213e-06 -2.92671e-05
0.00129156 0.000176205 -6.03941e-06
0.000176205 9.54246e-05 -2.16581e-06
-6.03941e-06 -2.16581e-06 -5.61156e-05
0.00148008 0.000175538 -2.21868e-06
0.000175538 0.000104135 -1.97953e-07
-2.21868e-06 -1.97953e-07 -5.03326e-05
0.000913905 0.00014158 -2.13305e-06
0.00014158 0.000133524 -1.67048e-06
-2.13305e-06 -1.67048e-06 -4.81472e-06
0.00132861 0.00020532 -2.28959e-06
0.00020532 0.000310949 -1.84884e-06
-2.28959e-06 -1.84884e-06 0.00012435
0.00182664 0.000229843 -3.14468e-06
0.000229843 0.000401529 -2.64642e-06
-3.14468e-06 -2.64642e-06 0.000235919
0.00103483 0.000193515 -4.5147e-06
0.000193515 2.99547e-05 -8.01595e-07
-4.5147e-06 -8.01595e-07 -0.000125347
0.000629069 -4.64096e-05 5.85913e-08
-4.64096e-05 -2.497e-05 5.60415e-10
5.85913e-08 5.60415e-10 -3.99429e-05
0.000682759 -4.88917e-05 -5.8967e-07
-4.88917e-05 1.16894e-05 1.89332e-07
-5.8967e-07 1.89332e-07 -3.56891e-05
0.000923294 8.92954e-05 7.79635e-07
8.92954e-05 0.000155789 -3.83646e-08
7.79635e-07 -3.83646e-08 3.46667e-05
0.000742878 -1.75999e-05 -3.98622e-07
-1.75999e-05 6.36236e-05 2.16306e-07
-3.98622e-07 2.16306e-07 -2.34105e-05
0.000765075 6.87572e-05 9.77788e-07
6.87572e-05 8.72964e-05 -3.54808e-07
9.77788e-07 -3.54808e-07 -3.68082e-05
0.00152578 0.000148768 9.41642e-07
0.000148768 0.000102847 -1.13497e-07
9.41642e-07 -1.13497e-07 -4.17934e-05
0.0014475 0.000196757 2.59192e-07
0.000196757 0.000122222 7.67192e-07
2.59192e-07 7.67192e-07 -3.90175e-05
0.00162913 0.000208888 1.30105e-06
0.000208888 0.000143378 3.34481e-07
1.30105e-06 3.34481e-07 -1.2944e-05
0.00106425 0.0001721 1.24626e-06
0.0001721 0.000220816 1.17414e-06
1.24626e-06 1.17414e-06 4.56483e-05
0.00158871 0.000230307 2.04513e-06
0.000230307 0.00023469 -9.87146e-07
2.04513e-06 -9.87146e-07 6.81275e-05
0.000817205 0.000182118 -2.6229e-06
0.000182118 -4.51117e-05 -1.79031e-06
-2.6229e-06 -1.79031e-06 -0.000237045
0.000706879 -3.47147e-05 1.76212e-06
-3.47147e-05 1.51192e-05 1.76591e-06
1.76212e-06 1.76591e-06 -2.70111e-05
0.000788374 1.7839e-05 3.16305e-07
1.7839e-05 7.80706e-05 1.44155e-06
3.16305e-07 1.44155e-06 5.35788e-06
0.00105716 0.000159723 -3.69842e-07
0.000159723 0.00023699 -1.76138e-07
-3.69842e-07 -1.76138e-07 8.69774e-05
0.000854624 2.64576e-05 1.57513e-07
2.64576e-05 0.000133608 1.12503e-06
1.57513e-07 1.12503e-06 2.90373e-05
0.00112776 8.53818e-05 -2.68218e-06
8.53818e-05 0.000280232 -3.44068e-06
-2.68218e-06 -3.44068e-06 0.000148548
0.0015992 0.000156538 -2.54693e-06
0.000156538 9.69975e-05 -2.77017e-06
-2.54693e-06 -2.77017e-06 -3.81825e-05
0.00151767 0.000222736 1.39185e-06
0.000222736 0.000120759 1.7263e-06
1.39185e-06 1.7263e-06 -4.45543e-05
0.00147391 0.000225787 -6.45888e-07
0.000225787 2.40196e-05 -1.57504e-06
-6.45888e-07 -1.57504e-06 -0.000119868
0.00094646 0.000170762 -5.30056e-07
0.000170762 0.000149187 1.66449e-06
-5.30056e-07 1.66449e-06 -5.67218e-05
0.00136017 0.000233612 3.43753e-06
0.000233612 0.000128749 -1.23107e-07
3.43753e-06 -1.23107e-07 -5.80373e-05
0.000704689 -3.03732e-05 2.40553e-08
-3.03732e-05 8.81609e-06 -1.47919e-08
2.40553e-08 -1.47919e-08 -3.1523e-05
0.000634229 -1.80146e-06 1.36474e-06
-1.80146e-06 -2.14047e-05 1.07647e-06
1.36474e-06 1.07647e-06 -8.19983e-05
0.000657485 -1.71506e-05 -5.91821e-07
-1.71506e-05 -4.10541e-06 -7.06879e-08
-5.91821e-07 -7.06879e-08 -6.60523e-05
0.000924749 4.47536e-05 9.51147e-07
4.47536e-05 0.000159097 -3.57464e-07
9.51147e-07 -3.57464e-07 8.32133e-05
0.000753323 3.55192e-05 1.62577e-06
3.55192e-05 5.082e-05 8.64278e-07
1.62577e-06 8.64278e-07 -1.16204e-05
0.000715542 -2.9708e-06 1.14847e-06
-2.9708e-06 8.01105e-06 1.8349e-06
1.14847e-06 1.8349e-06 -3.0692e-05
0.000719091 -1.975e-05 -1.95565e-07
-1.975e-05 1.10305e-05 9.63837e-09
-1.95565e-07 9.63837e-09 -2.7815e-05
0.00126411 -3.68501e-05 9.00401e-07
-3.68501e-05 0.000316874 2.30608e-06
9.00401e-07 2.30608e-06 0.000310856
0.000717466 -2.7632e-05 -1.2391e-06
-2.7632e-05 1.30989e-05 -1.8944e-06
-1.2391e-06 -1.8944e-06 -2.65301e-05
0.00128496 -4.33023e-05 -4.77575e-06
-4.33023e-05 0.000334344 -1.26741e-06
-4.77575e-06 -1.26741e-06 0.000327072
0.000914565 -3.34016e-05 2.1636e-05
-3.34016e-05 0.000129157 6.83311e-06
2.1636e-05 6.83311e-06 0.000138292
0.0012809 -4.88925e-05 -9.86745e-06
-4.88925e-05 0.000339361 -3.39378e-06
-9.86745e-06 -3.39378e-06 0.00033027
0.00151556 -5.14889e-05 1.9828e-05
-5.14889e-05 0.000481382 1.96076e-06
1.9828e-05 1.96076e-06 0.000491373
0.00214862 -7.12875e-05 -2.78878e-05
-7.12875e-05 0.00085018 -3.41701e-06
-2.78878e-05 -3.41701e-06 0.000861271
0.000599326 4.22628e-05 1.16944e-06
4.22628e-05 -4.00948e-05 -4.52786e-06
1.16944e-06 -4.52786e-06 -6.20623e-05
0.000596647 5.01959e-05 -3.25657e-07
5.01959e-05 -3.27506e-05 3.79279e-08
-3.25657e-07 3.79279e-08 -5.93096e-05
0.00259568 8.76596e-05 3.74506e-05
8.76596e-05 0.00111081 -3.5137e-06
3.74506e-05 -3.5137e-06 0.00111624
0.00277725 9.72345e-05 -3.18808e-06
9.72345e-05 0.00121872 -2.30793e-07
-3.18808e-06 -2.30793e-07 0.00122202
0.000612283 4.80426e-05 -1.37455e-06
4.80426e-05 -1.75306e-05 5.75569e-06
-1.37455e-06 5.75569e-06 -4.815e-05
0.00300926 9.99658e-05 -6.8281e-05
9.99658e-05 0.00135223 3.0401e-06
-6.8281e-05 3.0401e-06 0.00135481
0.00136091 0.000104321 -4.88488e-06
0.000104321 6.19143e-05 -1.14462e-06
-4.88488e-06 -1.14462e-06 -7.27137e-05
0.00137713 5.72981e-05 -4.62533e-06
5.72981e-05 6.16618e-05 -7.01133e-07
-4.62533e-06 -7.01133e-07 -6.51428e-05
0.00155395 9.34555e-05 -1.60404e-07
9.34555e-05 0.000100167 5.93679e-07
-1.60404e-07 5.93679e-07 -2.76576e-05
0.00166802 5.28994e-05 1.02817e-07
5.28994e-05 0.000120147 3.29991e-07
1.02817e-07 3.29991e-07 4.59453e-06
0.00140042 2.68037e-05 -4.15519e-06
2.68037e-05 5.64489e-05 -2.65287e-07
-4.15519e-06 -2.65287e-07 -6.64232e-05
0.00113634 6.71139e-06 -1.12436e-05
6.71139e-06 4.99973e-06 -1.59528e-07
-1.12436e-05 -1.59528e-07 -0.000103949
0.00140786 9.95036e-06 7.53784e-08
9.95036e-06 5.93365e-05 -9.29717e-08
7.53784e-08 -9.29717e-08 -6.29856e-05
0.00165925 2.37333e-05 -6.27329e-07
2.37333e-05 0.00010283 1.34104e-08
-6.27329e-07 1.34104e-08 -1.13359e-05
0.00157558 7.56535e-05 -7.81023e-08
7.56535e-05 9.03608e-05 -1.22403e-08
-7.81023e-08 -1.22403e-08 -3.20607e-05
0.00178071 6.6344e-05 9.41799e-07
6.6344e-05 0.000119902 7.22908e-07
9.41799e-07 7.22908e-07 1.81332e-05
0.00153494 0.000114268 -1.70259e-07
0.000114268 9.48301e-05 -5.87985e-08
-1.70259e-07 -5.87985e-08 -3.98651e-05
0.00167636 0.000110315 -2.14398e-07
0.000110315 9.25069e-05 7.06779e-07
-2.14398e-07 7.06779e-07 -1.38799e-05
0.00164563 -1.7545e-06 2.8381e-07
-1.7545e-06 0.000102798 1.41804e-07
2.8381e-07 1.41804e-07 -1.16581e-05
0.00171051 4.19337e-05 9.94114e-10
4.19337e-05 7.06154e-05 8.63469e-07
9.94114e-10 8.63469e-07 -3.29864e-05
0.00177673 9.3903e-05 -3.6123e-06
9.3903e-05 0.000131968 -5.35124e-07
-3.6123e-06 -5.35124e-07 3.12604e-05
0.00182329 7.35182e-05 8.69095e-08
7.35182e-05 0.000130293 3.49774e-07
8.69095e-08 3.49774e-07 4.04577e-05
0.00156968 0.000114548 -2.06242e-06
0.000114548 5.18701e-05 -2.05345e-06
-2.06242e-06 -2.05345e-06 -6.51398e-05
0.0019094 0.000124397 2.0751e-07
0.000124397 0.000183374 -3.45981e-08
2.0751e-07 -3.45981e-08 9.2058e-05
0.00141658 -5.51116e-06 -6.2075e-06
-5.51116e-06 6.72146e-05 4.1671e-07
-6.2075e-06 4.1671e-07 -5.47776e-05
0.00167832 -6.16817e-05 -6.997e-06
-6.16817e-05 0.000229152 8.38507e-07
-6.997e-06 8.38507e-07 0.00010789
0.00157435 -2.81745e-05 -7.09447e-07
-2.81745e-05 7.91863e-05 -3.19923e-07
-7.09447e-07 -3.19923e-07 -3.51286e-05
0.0016763 -9.08887e-05 -1.04461e-06
-9.08887e-05 0.000163265 1.63176e-08
-1.04461e-06 1.63176e-08 3.89621e-05
0.000856538 -8.79559e-05 -3.98399e-06
-8.79559e-05 0.000111634 2.65012e-06
-3.98399e-06 2.65012e-06 9.28987e-06
0.00114431 -0.000169621 -2.37449e-06
-0.000169621 0.000229699 3.27173e-06
-2.37449e-06 3.27173e-06 8.58281e-05
0.00096682 -0.000181726 -2.36543e-06
-0.000181726 3.03952e-05 1.25714e-06
-2.36543e-06 1.25714e-06 -0.00015102
0.00169404 -0.00014975 -2.01172e-06
-0.00014975 0.000217092 2.25797e-07
-2.01172e-06 2.25797e-07 8.26315e-05
0.00167796 -0.000127013 3.15924e-06
-0.000127013 0.000129681 -1.21776e-06
3.15924e-06 -1.21776e-06 2.04186e-05
0.00155652 -0.000177254 1.33675e-06
-0.000177254 0.000111979 -7.99822e-07
1.33675e-06 -7.99822e-07 -2.43693e-05
0.00142102 -0.000214167 -2.55378e-06
-0.000214167 9.81074e-05 -7.85107e-07
-2.55378e-06 -7.85107e-07 -7.44167e-05
0.00187381 -0.000224703 4.1173e-06
-0.000224703 0.000270248 -4.84826e-06
4.1173e-06 -4.84826e-06 0.000129091
0.000940078 -0.000100492 -1.47855e-06
-0.000100492 0.000148643 -2.76215e-07
-1.47855e-06 -2.76215e-07 3.29671e-05
0.000869672 -0.000107269 -1.66191e-06
-0.000107269 0.00011147 -1.15378e-06
-1.66191e-06 -1.15378e-06 -1.27278e-05
0.000709898 -3.93594e-06 -1.60864e-06
-3.93594e-06 2.40655e-05 2.70668e-06
-1.60864e-06 2.70668e-06 -3.93244e-05
0.000567589 1.51387e-05 -1.58349e-07
1.51387e-05 -4.63812e-05 3.94528e-07
-1.58349e-07 3.94528e-07 -0.000145308
0.00160943 -1.75495e-05 3.10062e-09
-1.75495e-05 9.18837e-05 6.21341e-09
3.10062e-09 6.21341e-09 -2.47123e-05
0.00174769 -6.02117e-05 -5.24581e-07
-6.02117e-05 0.00018396 2.97334e-08
-5.24581e-07 2.97334e-08 6.43317e-05
0.00169198 -4.63633e-05 5.38567e-07
-4.63633e-05 7.57203e-05 -2.20119e-07
5.38567e-07 -2.20119e-07 -3.06444e-05
0.00165827 -0.000113157 -7.74055e-07
-0.000113157 9.28319e-05 3.26471e-07
-7.74055e-07 3.26471e-07 -1.3528e-05
0.000959147 -0.000132961 -3.64915e-07
-0.000132961 0.000150482 5.50606e-07
-3.64915e-07 5.50606e-07 2.68708e-05
0.000666202 -0.000148884 1.01923e-06
-0.000148884 -4.17787e-05 -1.55638e-06
1.01923e-06 -1.55638e-06 -0.000204828
0.0015225 -0.00024091 -7.57522e-07
-0.00024091 0.00025637 5.18261e-07
-7.57522e-07 5.18261e-07 5.16288e-05
0.00162154 -0.00015336 -1.10261e-06
-0.00015336 0.000120893 4.39608e-07
-1.10261e-06 4.39608e-07 -3.86462e-06
0.00167692 -0.000133517 1.77694e-06
-0.000133517 7.9445e-05 -8.45458e-07
1.77694e-06 -8.45458e-07 -1.5945e-05
0.00170432 -0.000239957 -1.15734e-06
-0.000239957 0.000208637 7.81433e-07
-1.15734e-06 7.81433e-07 3.58861e-05
0.00163621 -0.000196938 -1.72363e-07
-0.000196938 0.000106121 6.67561e-07
-1.72363e-07 6.67561e-07 -1.63124e-05
0.00174064 -0.000225036 2.53249e-06
-0.000225036 0.000157682 -3.4075e-06
2.53249e-06 -3.4075e-06 2.09343e-05
0.00099118 -0.000158139 2.76646e-07
-0.000158139 0.000178164 5.01125e-07
2.76646e-07 5.01125e-07 4.57465e-05
0.00105997 -0.000157424 8.15644e-07
-0.000157424 0.000214843 5.41873e-07
8.15644e-07 5.41873e-07 8.21272e-05
0.000864056 -7.56004e-05 -4.43051e-07
-7.56004e-05 0.000124401 -1.60683e-07
-4.43051e-07 -1.60683e-07 3.11971e-06
0.000553007 9.61201e-06 -6.38382e-07
9.61201e-06 -6.46875e-05 9.45875e-08
-6.38382e-07 9.45875e-08 -0.000123967
0.000575072 1.60528e-05 3.39324e-10
1.60528e-05 -3.26597e-05 -5.02744e-07
3.39324e-10 -5.02744e-07 -0.000128651
0.00180543 -3.00917e-05 5.26767e-07
-3.00917e-05 0.000127006 -1.73321e-07
5.26767e-07 -1.73321e-07 2.37671e-05
0.00175333 -6.82731e-05 -1.73848e-07
-6.82731e-05 0.000104218 2.37615e-07
-1.73848e-07 2.37615e-07 2.95886e-06
0.00180389 -0.000131699 -2.23015e-06
-0.000131699 0.000127652 -3.71385e-07
-2.23015e-06 -3.71385e-07 4.25044e-05
0.00155904 -0.0001561 -2.06766e-06
-0.0001561 2.60632e-05 1.19528e-06
-2.06766e-06 1.19528e-06 -7.50681e-05
0.000885631 -0.000154152 -6.45571e-07
-0.000154152 0.000113792 2.8353e-08
-6.45571e-07 2.8353e-08 -2.74781e-05
0.00203849 -0.000231286 -2.97303e-06
-0.000231286 0.000280841 1.78975e-06
-2.97303e-06 1.78975e-06 0.000164189
-2.13429e-05 -0.000111717 -1.16029e-06
-0.000111717 -0.000441312 -5.66763e-06
-1.16029e-06 -5.66763e-06 -0.000618015
0.00242473 -0.000316902 2.87374e-06
-0.000316902 0.000682728 -1.71287e-07
2.87374e-06 -1.71287e-07 0.000468083
0.00161296 -0.000244532 1.90749e-06
-0.000244532 0.000110593 3.1253e-06
1.90749e-06 3.1253e-06 -5.79568e-05
0.000395962 1.67645e-05 1.33881e-06
1.67645e-05 -0.000153677 -3.33554e-06
1.33881e-06 -3.33554e-06 -0.000209664
0.000843018 -1.67241e-05 1.42772e-06
-1.67241e-05 0.000123126 -9.07217e-07
1.42772e-06 -9.07217e-07 3.25756e-05
0.000909038 -5.08018e-05 -5.67337e-07
-5.08018e-05 0.000158468 -3.02591e-07
-5.67337e-07 -3.02591e-07 4.88774e-05
0.000993054 -0.000161583 -1.58381e-06
-0.000161583 0.000171521 2.71177e-06
-1.58381e-06 2.71177e-06 3.77956e-05
0.000913446 -0.000104518 1.97708e-06
-0.000104518 0.000144389 2.04801e-06
1.97708e-06 2.04801e-06 1.3477e-05
0.000751762 -0.000147022 1.64268e-07
-0.000147022 2.46924e-05 1.9553e-06
1.64268e-07 1.9553e-06 -0.000108173
0.000618048 -4.52746e-05 -1.42631e-06
-4.52746e-05 -3.12145e-05 -3.79764e-06
-1.42631e-06 -3.79764e-06 -4.60645e-05
0.000670382 -5.17302e-05 -1.58863e-06
-5.17302e-05 4.86986e-06 -1.64031e-06
-1.58863e-06 -1.64031e-06 -4.25585e-05
0.00153514 0.000149971 -9.29286e-07
0.000149971 0.000106599 -1.24266e-07
-9.29286e-07 -1.24266e-07 -3.84956e-05
0.000716141 -6.5552e-05 1.00296e-06
-6.5552e-05 4.78934e-05 -1.46575e-06
1.00296e-06 -1.46575e-06 -3.66208e-05
0.000817882 8.19028e-05 -4.72528e-07
8.19028e-05 9.43094e-05 -9.4795e-07
-4.72528e-07 -9.4795e-07 -2.32773e-05
0.000648083 3.84416e-05 1.31201e-06
3.84416e-05 1.68833e-05 -5.32636e-07
1.31201e-06 -5.32636e-07 -0.000103946
0.00140762 0.000194814 -2.8619e-06
0.000194814 0.000103756 -7.9815e-07
-2.8619e-06 -7.9815e-07 -5.76086e-05
0.00160682 0.000209735 1.09325e-06
0.000209735 0.000130996 8.84498e-07
1.09325e-06 8.84498e-07 -2.61784e-05
0.000928363 0.000161001 -1.69753e-07
0.000161001 0.00014864 -7.75166e-07
-1.69753e-07 -7.75166e-07 -2.51721e-05
0.00137223 0.000222292 -1.42249e-06
0.000222292 0.000255197 -1.22755e-06
-1.42249e-06 -1.22755e-06 6.15899e-05
0.00173744 0.000238067 -3.96227e-06
0.000238067 0.000321504 -3.42762e-06
-3.96227e-06 -3.42762e-06 0.00015519
0.000698439 -3.56806e-05 -2.22055e-07
-3.56806e-05 1.07566e-05 3.30348e-08
-2.22055e-07 3.30348e-08 -3.14877e-05
0.000743609 -2.11233e-05 -7.21568e-07
-2.11233e-05 5.21326e-05 3.68743e-07
-7.21568e-07 3.68743e-07 -1.8861e-05
0.000992673 0.000154423 -7.20975e-07
0.000154423 0.000202523 -1.13734e-07
-7.20975e-07 -1.13734e-07 5.30425e-05
0.000798445 -9.05256e-06 2.26297e-07
-9.05256e-06 9.97583e-05 9.49078e-08
2.26297e-07 9.49078e-08 -1.24192e-06
0.000889877 8.69359e-05 1.67964e-07
8.69359e-05 0.000152034 -2.79568e-07
1.67964e-07 -2.79568e-07 1.83111e-05
0.00161982 0.000159991 -1.57109e-06
0.000159991 0.000108794 -1.2851e-06
-1.57109e-06 -1.2851e-06 -2.74649e-05
0.00156661 0.000224861 1.58803e-06
0.000224861 0.000147957 9.45959e-07
1.58803e-06 9.45959e-07 -1.79175e-05
0.00157152 0.000227114 5.91062e-07
0.000227114 7.77887e-05 3.46811e-08
5.91062e-07 3.46811e-08 -6.46762e-05
0.000715214 0.000156136 3.20041e-07
0.000156136 1.6222e-05 2.85225e-06
3.20041e-07 2.85225e-06 -0.00018663
0.00165974 0.000255202 -1.06618e-06
0.000255202 0.000298738 1.65303e-07
-1.06618e-06 1.65303e-07 0.00010869
0.000781095 1.49229e-05 9.56321e-07
1.49229e-05 6.5627e-05 9.356e-07
9.56321e-07 9.356e-07 2.05054e-06
0.000581521 -2.87435e-05 -1.01713e-06
-2.87435e-05 -2.8861e-05 1.83924e-06
-1.01713e-06 1.83924e-06 -0.000115092
0.000919232 0.000155864 -2.43066e-06
0.000155864 0.000153659 -1.69083e-06
-2.43066e-06 -1.69083e-06 -1.27789e-05
0.000633802 3.58009e-05 -2.0448e-06
3.58009e-05 1.71737e-05 -1.18128e-06
-2.0448e-06 -1.18128e-06 -0.000105759
0.000977813 0.000143007 -9.43384e-07
0.000143007 0.000190314 -2.06099e-06
-9.43384e-07 -2.06099e-06 4.70033e-05
0.00162981 0.000175455 -2.14749e-06
0.000175455 4.50588e-05 -2.61877e-06
-2.14749e-06 -2.61877e-06 -6.20533e-05
0.00177324 0.00026425 6.46854e-07
0.00026425 0.000233251 -1.19999e-06
6.46854e-07 -1.19999e-06 6.54726e-05
0.00151474 0.00023093 1.82861e-06
0.00023093 2.62443e-05 -1.88572e-07
1.82861e-06 -1.88572e-07 -0.000112139
0.00175182 0.000236998 1.78307e-06
0.000236998 0.000538781 5.68094e-06
1.78307e-06 5.68094e-06 0.000312853
0.00119181 0.000235102 -1.03255e-06
0.000235102 -4.58482e-06 -9.07958e-07
-1.03255e-06 -9.07958e-07 -0.000192439
0.00070597 -3.10738e-05 -1.73312e-06
-3.10738e-05 9.97344e-06 -1.75268e-06
-1.73312e-06 -1.75268e-06 -3.05047e-05
0.000687966 7.94141e-07 3.7111e-07
7.94141e-07 1.04446e-05 4.13136e-07
3.7111e-07 4.13136e-07 -5.06971e-05
0.000658548 -2.60926e-05 -2.88525e-07
-2.60926e-05 2.88598e-06 3.83874e-07
-2.88525e-07 3.83874e-07 -6.75893e-05
0.000580119 -4.4898e-05 -8.55885e-07
-4.4898e-05 -4.8724e-05 -7.49984e-07
-8.55885e-07 -7.49984e-07 -0.000110242
0.000743195 6.89183e-06 7.91968e-09
6.89183e-06 4.41143e-05 1.41612e-08
7.91968e-09 1.41612e-08 -1.73749e-05
0.000765127 4.28022e-06 2.11228e-08
4.28022e-06 6.31606e-05 -3.56178e-07
2.11228e-08 -3.56178e-07 -8.03796e-06
0.000854312 3.13043e-05 -1.57447e-07
3.13043e-05 0.000119622 -7.63422e-07
-1.57447e-07 -7.63422e-07 4.09274e-05
0.000668146 -2.96684e-05 7.1347e-07
-2.96684e-05 1.44057e-05 9.58306e-08
7.1347e-07 9.58306e-08 -6.21079e-05
0.000768188 2.02454e-05 5.10722e-07
2.02454e-05 5.42438e-05 7.14485e-07
5.10722e-07 7.14485e-07 -5.09504e-06
0.00071612 5.1685e-06 1.1359e-06
5.1685e-06 1.04776e-05 1.74717e-06
1.1359e-06 1.74717e-06 -2.90492e-05
0.000722594 -8.54687e-06 -3.24602e-07
-8.54687e-06 1.24776e-05 1.07285e-08
-3.24602e-07 1.07285e-08 -2.63861e-05
0.00127037 -2.7038e-05 8.8724e-07
-2.7038e-05 0.000315893 2.25414e-06
8.8724e-07 2.25414e-06 0.000310736
0.000715239 -2.39011e-05 -9.18015e-07
-2.39011e-05 9.59555e-06 -1.91109e-06
-9.18015e-07 -1.91109e-06 -2.94732e-05
0.00128983 -3.42692e-05 -4.08849e-06
-3.42692e-05 0.000331198 -1.32585e-06
-4.08849e-06 -1.32585e-06 0.000325358
0.000921868 -2.75937e-05 1.78064e-05
-2.75937e-05 0.000127037 7.09158e-06
1.78064e-05 7.09158e-06 0.000137393
0.00130697 -4.12986e-05 -8.41652e-06
-4.12986e-05 0.000346349 -4.93263e-06
-8.41652e-06 -4.93263e-06 0.00033926
0.000858291 -3.44759e-05 6.96404e-06
-3.44759e-05 9.72687e-05 2.63988e-06
6.96404e-06 2.63988e-06 0.000105999
0.00208768 -6.77112e-05 -5.99642e-06
-6.77112e-05 0.000807992 -1.65547e-06
-5.99642e-06 -1.65547e-06 0.000820217
0.000617718 3.73084e-05 8.01864e-07
3.73084e-05 -3.70156e-05 -4.21054e-06
8.01864e-07 -4.21054e-06 -5.49916e-05
0.000607643 4.49714e-05 -1.27227e-07
4.49714e-05 -3.45239e-05 3.50349e-08
-1.27227e-07 3.50349e-08 -5.70157e-05
0.00247703 7.68658e-05 3.08703e-05
7.68658e-05 0.00103667 -3.8355e-06
3.08703e-05 -3.8355e-06 0.00104473
0.000615146 4.88946e-05 -1.11023e-06
4.88946e-05 -2.21097e-05 5.11912e-06
-1.11023e-06 5.11912e-06 -4.87194e-05
0.00264271 8.79523e-05 -2.99501e-06
8.79523e-05 0.00113741 -2.12354e-07
-2.99501e-06 -2.12354e-07 0.00114284
0.00283247 9.45987e-05 -5.55057e-05
9.45987e-05 0.00124902 3.06832e-06
-5.55057e-05 3.06832e-06 0.00125305
0.00152491 0.000115176 -1.41272e-06
0.000115176 8.80609e-05 2.73534e-07
-1.41272e-06 2.73534e-07 -4.71511e-05
0.00160194 7.37821e-05 3.8095e-07
7.37821e-05 0.000106787 4.63205e-07
3.8095e-07 4.63205e-07 -1.5406e-05
0.00167631 0.000108251 3.00229e-06
0.000108251 9.03425e-05 1.6912e-06
3.00229e-06 1.6912e-06 -1.38903e-05
0.00182872 6.90092e-05 2.93093e-06
6.90092e-05 0.000144689 3.46947e-07
2.93093e-06 3.46947e-07 4.53841e-05
0.00166809 1.60666e-05 -9.42974e-07
1.60666e-05 0.000107896 -5.04431e-08
-9.42974e-07 -5.04431e-08 -6.16621e-06
0.00140866 1.28859e-05 -4.0181e-06
1.28859e-05 5.95462e-05 -1.24362e-07
-4.0181e-06 -1.24362e-07 -6.28072e-05
0.00163062 1.45287e-06 -5.47502e-07
1.45287e-06 9.44275e-05 -3.97663e-08
-5.47502e-07 -3.97663e-08 -2.11225e-05
0.00173028 3.54422e-05 7.77034e-07
3.54422e-05 8.33396e-05 -4.83528e-08
7.77034e-07 -4.83528e-08 -2.10737e-05
0.00172802 9.15553e-05 -1.07565e-06
9.15553e-05 0.000102857 -2.80701e-07
-1.07565e-06 -2.80701e-07 7.59825e-07
0.00177732 7.37376e-05 1.83461e-06
7.37376e-05 9.98416e-05 -1.1054e-07
1.83461e-06 -1.1054e-07 1.18788e-05
0.0015895 0.000113399 -7.62209e-07
0.000113399 6.87446e-05 -8.24534e-09
-7.62209e-07 -8.24534e-09 -4.81894e-05
0.00180234 0.000125928 3.20371e-06
0.000125928 0.000119533 8.16161e-07
3.20371e-06 8.16161e-07 3.04563e-05
0.00174658 -1.10863e-06 -3.66549e-07
-1.10863e-06 0.000104605 1.86342e-07
-3.66549e-07 1.86342e-07 2.51629e-07
0.00168709 4.49187e-05 1.56167e-07
4.49187e-05 4.66575e-05 9.45153e-07
1.56167e-07 9.45153e-07 -4.31262e-05
0.00179718 9.38901e-05 -9.05809e-07
9.38901e-05 9.92649e-05 -4.76005e-08
-9.05809e-07 -4.76005e-08 1.85302e-05
0.00191757 0.000147375 -1.04601e-06
0.000147375 0.000184071 -1.14472e-06
-1.04601e-06 -1.14472e-06 9.47458e-05
0.00160275 -1.72976e-05 -5.34484e-07
-1.72976e-05 8.82452e-05 3.02645e-08
-5.34484e-07 3.02645e-08 -2.83906e-05
0.00167537 -6.07757e-05 -9.63762e-07
-6.07757e-05 0.000142486 -4.83133e-07
-9.63762e-07 -4.83133e-07 2.15633e-05
0.00174072 -4.57424e-05 1.40445e-06
-4.57424e-05 0.000105533 -4.23984e-07
1.40445e-06 -4.23984e-07 4.41317e-07
0.00161626 -0.000110916 1.56828e-06
-0.000110916 7.58876e-05 -2.17752e-07
1.56828e-06 -2.17752e-07 -3.23268e-05
0.00109252 -0.000140732 -1.67748e-06
-0.000140732 0.000224811 1.09777e-06
-1.67748e-06 1.09777e-06 9.9417e-05
0.000907493 -0.000164542 9.19331e-07
-0.000164542 9.55389e-05 1.77069e-06
9.19331e-07 1.77069e-06 -6.54672e-05
0.00109605 -0.000210374 -2.6707e-06
-0.000210374 2.44484e-05 2.783e-06
-2.6707e-06 2.783e-06 -0.000179874
0.00157218 -0.000151528 1.42788e-07
-0.000151528 9.70157e-05 -4.76941e-07
1.42788e-07 -4.76941e-07 -2.99972e-05
0.00163171 -0.000134919 4.29408e-06
-0.000134919 5.30421e-05 -2.13981e-06
4.29408e-06 -2.13981e-06 -4.01087e-05
0.00167115 -0.000197834 3.73016e-06
-0.000197834 0.000126783 -1.36611e-06
3.73016e-06 -1.36611e-06 4.39168e-06
0.00168819 -0.000239133 -2.65276e-06
-0.000239133 0.000198385 -1.86288e-06
-2.65276e-06 -1.86288e-06 2.53756e-05
0.001649 -0.000221811 2.5089e-06
-0.000221811 0.000105112 -8.61923e-06
2.5089e-06 -8.61923e-06 -2.92497e-05
0.0011026 -0.000166756 4.13423e-07
-0.000166756 0.000240492 -8.98492e-07
4.13423e-07 -8.98492e-07 0.000106736
0.00109785 -0.000161065 -1.53557e-09
-0.000161065 0.000232965 -3.2638e-06
-1.53557e-09 -3.2638e-06 0.000100658
0.00083173 -5.40374e-05 -1.86527e-07
-5.40374e-05 0.000103489 3.11745e-07
-1.86527e-07 3.11745e-07 -1.44218e-05
0.000423603 1.6471e-05 -1.89558e-06
1.6471e-05 -0.000136923 2.45112e-06
-1.89558e-06 2.45112e-06 -0.000197817
0.000554872 3.56166e-05 2.01693e-07
3.56166e-05 -4.6001e-05 4.52037e-07
2.01693e-07 4.52037e-07 -0.000139088
0.00181598 -3.22822e-05 2.35065e-07
-3.22822e-05 0.000135729 -5.94459e-08
2.35065e-07 -5.94459e-08 3.23198e-05
0.00178023 -7.08836e-05 4.22428e-07
-7.08836e-05 0.000120954 -3.22966e-07
4.22428e-07 -3.22966e-07 1.95094e-05
0.00174379 -0.000130296 -1.28361e-06
-0.000130296 9.72817e-05 5.95916e-09
-1.28361e-06 5.95916e-09 9.73417e-06
0.00102753 -0.000164276 -1.80897e-07
-0.000164276 0.000190403 9.11841e-07
-1.80897e-07 9.11841e-07 4.76438e-05
0.000767563 -0.000166914 1.45736e-06
-0.000166914 -4.60432e-06 -2.35244e-06
1.45736e-06 -2.35244e-06 -0.000185123
0.00165896 -0.000265268 -1.52629e-06
-0.000265268 0.00026275 9.70406e-07
-1.52629e-06 9.70406e-07 5.05483e-05
0.00160818 -0.000157392 5.60151e-07
-0.000157392 5.21901e-05 -1.42762e-07
5.60151e-07 -1.42762e-07 -4.95005e-05
0.00163881 -0.000242582 7.4502e-07
-0.000242582 0.000126393 -1.71999e-06
7.4502e-07 -1.71999e-06 -3.80334e-05
0.00177094 -0.00022102 -5.1316e-07
-0.00022102 0.00013775 -1.0428e-06
-5.1316e-07 -1.0428e-06 1.99935e-05
0.00040826 2.08379e-05 1.20565e-07
2.08379e-05 -0.000147774 -7.64076e-07
1.20565e-07 -7.64076e-07 -0.000202614
0.00104743 -0.000165203 -3.92524e-09
-0.000165203 0.000198803 5.91751e-07
-3.92524e-09 5.91751e-07 6.48211e-05
0.000800746 -0.000149502 -9.90881e-07
-0.000149502 5.58792e-05 -3.61006e-08
-9.90881e-07 -3.61006e-08 -7.41109e-05
0.00100072 -0.000114519 -4.40741e-07
-0.000114519 0.000198158 9.69715e-07
-4.40741e-07 9.69715e-07 6.24459e-05
0.000949092 -5.00142e-05 -9.14139e-08
-5.00142e-05 0.00018112 -1.10303e-08
-9.14139e-08 -1.10303e-08 7.14642e-05
0.000707729 7.8958e-06 -2.82714e-07
7.8958e-06 4.28012e-05 3.69149e-07
-2.82714e-07 3.69149e-07 -4.57701e-05
0.00163477 -3.79783e-05 -4.86254e-07
-3.79783e-05 2.02021e-05 4.3435e-08
-4.86254e-07 4.3435e-08 -7.50938e-05
0.00181792 -0.000100436 -1.18824e-06
-0.000100436 0.000103608 -5.72841e-08
-1.18824e-06 -5.72841e-08 2.37451e-05
0.00155504 -0.000143499 -2.56284e-07
-0.000143499 -1.96232e-05 3.10742e-07
-2.56284e-07 3.10742e-07 -0.000100454
0.00192938 -0.000197639 -1.11817e-06
-0.000197639 0.000176788 -1.38733e-07
-1.11817e-06 -1.38733e-07 8.43501e-05
0.00100297 -0.000169159 -1.93163e-06
-0.000169159 0.000169094 3.84893e-08
-1.93163e-06 3.84893e-08 1.73264e-05
0.00181996 -0.000250982 1.77472e-06
-0.000250982 0.000184827 3.48769e-06
1.77472e-06 3.48769e-06 4.64087e-05
0.000603685 -0.000178442 -1.62259e-06
-0.000178442 -0.000149067 -2.41413e-06
-1.62259e-06 -2.41413e-06 -0.000360579
0.00223349 -0.000316946 2.88758e-07
-0.000316946 0.000539248 2.00212e-06
2.88758e-07 2.00212e-06 0.000323879
0.00038987 3.43661e-05 -2.52531e-07
3.43661e-05 -0.000161177 -3.06472e-06
-2.52531e-07 -3.06472e-06 -0.000210654
0.000837864 -1.20596e-05 1.37154e-06
-1.20596e-05 0.000116228 -1.25927e-06
1.37154e-06 -1.25927e-06 3.34191e-05
0.00099423 -6.88457e-05 -1.38328e-08
-6.88457e-05 0.000209236 7.56957e-07
-1.38328e-08 7.56957e-07 0.000105274
0.000818482 -2.0991e-05 -2.06232e-07
-2.0991e-05 0.000106762 -5.54686e-07
-2.06232e-07 -5.54686e-07 -1.28848e-05
0.000859409 -0.000158697 -7.69008e-07
-0.000158697 8.04442e-05 1.13546e-06
-7.69008e-07 1.13546e-06 -5.49248e-05
0.000965611 -0.000161891 -3.55734e-06
-0.000161891 0.000144627 3.4038e-06
-3.55734e-06 3.4038e-06 4.7503e-07
0.000692931 -3.7254e-05 -2.03024e-06
-3.7254e-05 7.97337e-06 -1.63546e-06
-2.03024e-06 -1.63546e-06 -3.4372e-05
0.000678247 -6.39685e-05 6.95888e-08
-6.39685e-05 1.78619e-05 -9.34089e-07
6.95888e-08 -9.34089e-07 -5.35867e-05
0.0016408 0.000163688 -3.47173e-07
0.000163688 0.000120077 3.59019e-07
-3.47173e-07 3.59019e-07 -1.73127e-05
0.000740629 -4.27998e-05 8.61213e-07
-4.27998e-05 6.55789e-05 -7.96535e-07
8.61213e-07 -7.96535e-07 -3.24361e-05
0.000925855 0.000148779 2.93665e-07
0.000148779 0.000166593 -8.02921e-07
2.93665e-07 -8.02921e-07 1.83993e-05
0.000560347 4.62732e-05 1.35174e-06
4.62732e-05 -3.73997e-05 -3.16155e-07
1.35174e-06 -3.16155e-07 -0.000164118
0.00163812 0.000228394 -9.71923e-07
0.000228394 0.000187445 -3.17123e-07
-9.71923e-07 -3.17123e-07 2.08909e-05
0.00167136 0.00022913 7.97189e-07
0.00022913 0.000131492 1.62901e-06
7.97189e-07 1.62901e-06 -9.68716e-06
0.000563276 0.000146848 2.70664e-07
0.000146848 -7.25752e-05 6.16493e-07
2.70664e-07 6.16493e-07 -0.00027252
0.00189701 0.000272195 -5.19678e-07
0.000272195 0.000435205 1.72265e-07
-5.19678e-07 1.72265e-07 0.000241395
0.000741074 -1.26832e-05 -6.88746e-07
-1.26832e-05 4.35822e-05 1.42584e-07
-6.88746e-07 1.42584e-07 -1.97223e-05
0.0006978 -1.29137e-05 -7.51263e-09
-1.29137e-05 3.6287e-05 9.48769e-07
-7.51263e-09 9.48769e-07 -5.08981e-05
0.0010519 0.000165041 -4.70681e-07
0.000165041 0.000232932 -2.11956e-06
-4.70681e-07 -2.11956e-06 6.4645e-05
0.000664829 -6.51033e-06 -2.24174e-07
-6.51033e-06 2.60417e-05 1.39316e-07
-2.24174e-07 1.39316e-07 -8.85325e-05
0.000816887 0.000115562 -1.61719e-06
0.000115562 9.92773e-05 -7.35491e-07
-1.61719e-06 -7.35491e-07 -3.40737e-05
0.0018531 0.00018252 -2.31299e-06
0.00018252 0.00016793 -1.02755e-06
-2.31299e-06 -1.02755e-06 6.29768e-05
0.00182675 0.000264738 1.20487e-06
0.000264738 0.00026214 -2.35392e-07
1.20487e-06 -2.35392e-07 9.49627e-05
0.00158389 0.000238981 4.60129e-07
0.000238981 6.52487e-05 1.73213e-06
4.60129e-07 1.73213e-06 -7.44588e-05
0.00142358 0.000215995 2.39512e-06
0.000215995 0.000366694 4.01814e-06
2.39512e-06 4.01814e-06 0.000137217
0.00123393 0.000239902 -2.093e-06
0.000239902 2.12309e-05 2.40151e-07
-2.093e-06 2.40151e-07 -0.000166651
0.000563474 -3.27166e-05 -3.36478e-07
-3.27166e-05 -4.48232e-05 1.14318e-06
-3.36478e-07 1.14318e-06 -0.000120084
0.000357615 4.0694e-05 -6.73322e-07
4.0694e-05 -0.00013473 5.55383e-07
-6.73322e-07 5.55383e-07 -0.000244979
0.00108556 0.00017098 1.00543e-06
0.00017098 0.00023771 1.82902e-06
1.00543e-06 1.82902e-06 4.8401e-05
-7.17181e-05 4.69064e-05 1.48732e-06
4.69064e-05 -0.000383626 1.6714e-07
1.48732e-06 1.6714e-07 -0.000521682
0.00194481 0.000182213 -1.85621e-06
0.000182213 0.00011385 -6.18014e-07
-1.85621e-06 -6.18014e-07 3.59631e-05
0.00205109 0.000229952 2.13892e-06
0.000229952 0.000249588 -7.35961e-07
2.13892e-06 -7.35961e-07 0.000142002
0.00178832 0.000293614 -1.15325e-06
0.000293614 0.000209297 -2.01812e-06
-1.15325e-06 -2.01812e-06 3.38087e-05
-0.000174653 0.00011977 -5.09453e-07
0.00011977 -0.000604633 1.57421e-06
-5.09453e-07 1.57421e-06 -0.000837628
0.000739663 1.68829e-05 -7.68905e-07
1.68829e-05 4.42881e-05 -2.25594e-07
-7.68905e-07 -2.25594e-07 -1.9569e-05
0.000724569 -1.83512e-06 -3.58632e-07
-1.83512e-06 4.50753e-05 3.80194e-07
-3.58632e-07 3.80194e-07 -2.84864e-05
0.000832485 -2.08351e-05 -5.3584e-07
-2.08351e-05 0.000109419 9.93595e-08
-5.3584e-07 9.93595e-08 3.29744e-05
0.000727209 -2.58592e-05 -1.07538e-06
-2.58592e-05 3.17293e-05 -7.67677e-07
-1.07538e-06 -7.67677e-07 -2.71979e-05
0.000608437 -3.33611e-05 -2.52933e-07
-3.33611e-05 -2.30703e-05 -3.94028e-07
-2.52933e-07 -3.94028e-07 -9.50614e-05
0.00074995 -4.1135e-08 6.93475e-09
-4.1135e-08 4.52354e-05 -3.63819e-09
6.93475e-09 -3.63819e-09 -1.494e-05
0.000759615 3.21753e-05 -4.2937e-07
3.21753e-05 7.37625e-05 -2.43049e-07
-4.2937e-07 -2.43049e-07 -9.64291e-06
0.000707828 -2.42215e-06 4.46916e-07
-2.42215e-06 3.87121e-05 2.77983e-07
4.46916e-07 2.77983e-07 -3.88383e-05
0.000817643 2.08433e-06 4.52718e-07
2.08433e-06 9.90618e-05 -1.5066e-07
4.52718e-07 -1.5066e-07 1.77241e-05
0.00076935 -3.57357e-05 6.8543e-07
-3.57357e-05 7.33748e-05 -4.1371e-07
6.8543e-07 -4.1371e-07 -9.50557e-06
0.000638021 1.98633e-05 4.79018e-07
1.98633e-05 -4.17653e-06 4.97938e-07
4.79018e-07 4.97938e-07 -8.20147e-05
0.000746376 3.42516e-05 7.83896e-07
3.42516e-05 4.41457e-05 8.33115e-07
7.83896e-07 8.33115e-07 -1.77145e-05
0.000698458 1.52827e-05 7.29211e-07
1.52827e-05 4.07008e-06 1.65101e-06
7.29211e-07 1.65101e-06 -3.66617e-05
0.000708597 -5.6289e-06 -2.49693e-07
-5.6289e-06 6.63836e-06 2.07835e-08
-2.49693e-07 2.07835e-08 -3.30947e-05
0.00127917 -1.76484e-05 7.14134e-07
-1.76484e-05 0.000318083 2.17475e-06
7.14134e-07 2.17475e-06 0.000313217
0.000715356 -1.88534e-05 -6.26937e-07
-1.88534e-05 8.93894e-06 -1.85773e-06
-6.26937e-07 -1.85773e-06 -3.0151e-05
0.00130119 -2.47354e-05 -3.38391e-06
-2.47354e-05 0.000333516 -1.39808e-06
-3.38391e-06 -1.39808e-06 0.000328339
0.000931568 -2.11355e-05 1.48113e-05
-2.11355e-05 0.00012781 7.36687e-06
1.48113e-05 7.36687e-06 0.000138823
0.00131769 -3.23372e-05 -6.87993e-06
-3.23372e-05 0.000346797 -4.97906e-06
-6.87993e-06 -4.97906e-06 0.000340976
0.000869733 -2.81925e-05 5.61923e-06
-2.81925e-05 9.7206e-05 2.73704e-06
5.61923e-06 2.73704e-06 0.000107411
0.000803357 -3.41701e-05 -1.9459e-06
-3.41701e-05 6.59661e-05 -1.84878e-06
-1.9459e-06 -1.84878e-06 7.46874e-05
0.000626046 3.19095e-05 6.1567e-07
3.19095e-05 -3.97243e-05 -3.89144e-06
6.1567e-07 -3.89144e-06 -5.36491e-05
0.000627318 3.83627e-05 -1.96699e-07
3.83627e-05 -3.14221e-05 5.58928e-08
-1.96699e-07 5.58928e-08 -4.96427e-05
0.00235037 6.53401e-05 2.51347e-05
6.53401e-05 0.000957233 -4.03671e-06
2.51347e-05 -4.03671e-06 0.000968282
0.000622768 4.7063e-05 -5.8939e-07
4.7063e-05 -2.51481e-05 4.7126e-06
-5.8939e-07 4.7126e-06 -4.8153e-05
0.00253488 7.78653e-05 -2.87962e-06
7.78653e-05 0.00106995 -1.95029e-07
-2.87962e-06 -1.95029e-07 0.00107774
0.00269638 8.74508e-05 -4.44527e-05
8.74508e-05 0.00116757 3.34323e-06
-4.44527e-05 3.34323e-06 0.00117321
0.00161053 0.000112368 1.65617e-06
0.000112368 8.62861e-05 2.26454e-06
1.65617e-06 2.26454e-06 -3.05788e-05
0.00168277 8.92333e-05 1.26779e-06
8.92333e-05 7.57154e-05 2.74836e-07
1.26779e-06 2.74836e-07 -2.77763e-05
0.00170095 0.000127568 5.02219e-06
0.000127568 5.88755e-05 1.27013e-06
5.02219e-06 1.27013e-06 -2.79819e-05
0.00173215 7.39538e-05 3.04524e-06
7.39538e-05 7.00503e-05 -9.68475e-07
3.04524e-06 -9.68475e-07 -1.60445e-05
0.00175234 2.98294e-05 1.72387e-06
2.98294e-05 9.74424e-05 -2.3908e-07
1.72387e-06 -2.3908e-07 -7.81633e-06
0.00161725 6.37907e-07 -1.08734e-06
6.37907e-07 8.67795e-05 -1.71466e-07
-1.08734e-06 -1.71466e-07 -2.98139e-05
0.00175003 1.22163e-06 -5.26775e-08
1.22163e-06 0.000106531 -2.34798e-08
-5.26775e-08 -2.34798e-08 2.28276e-06
0.00169417 4.16517e-05 8.69563e-07
4.16517e-05 5.62154e-05 -1.43387e-07
8.69563e-07 -1.43387e-07 -3.40183e-05
0.0017622 9.59855e-05 9.14417e-07
9.59855e-05 8.10193e-05 -2.24041e-07
9.14417e-07 -2.24041e-07 -6.97414e-07
0.00191751 0.000143481 4.03165e-07
0.000143481 0.000175622 3.22674e-07
4.03165e-07 3.22674e-07 8.74169e-05
0.00168696 5.19954e-07 -1.21512e-06
5.19954e-07 5.64104e-05 1.3611e-07
-1.21512e-06 1.3611e-07 -3.64138e-05
0.00202803 7.21107e-05 7.58155e-07
7.21107e-05 0.000196019 4.57975e-07
7.58155e-07 4.57975e-07 0.000125402
0.00164762 0.000134154 5.45599e-07
0.000134154 -2.94848e-05 -3.48462e-07
5.45599e-07 -3.48462e-07 -0.000102939
0.00182276 -3.42536e-05 5.57914e-07
-3.42536e-05 0.00014243 -4.98783e-08
5.57914e-07 -4.98783e-08 3.88486e-05
0.0018073 -7.33471e-05 8.85568e-07
-7.33471e-05 0.000137868 -4.22285e-07
8.85568e-07 -4.22285e-07 3.62416e-05
0.00168896 -0.000128305 9.80425e-07
-0.000128305 7.04832e-05 -1.21002e-07
9.80425e-07 -1.21002e-07 -1.94107e-05
0.00117524 -0.000174743 -2.1829e-07
-0.000174743 0.000270197 1.99385e-06
-2.1829e-07 1.99385e-06 0.000125926
0.00159454 -0.000224953 -2.80931e-07
-0.000224953 0.000453136 1.97551e-06
-2.80931e-07 1.97551e-06 0.000269032
0.000912963 -0.000215384 -1.97408e-06
-0.000215384 -0.000146622 1.48853e-06
-1.97408e-06 1.48853e-06 -0.000355426
0.00164844 -0.000158239 1.41787e-06
-0.000158239 7.42343e-05 -1.02454e-06
1.41787e-06 -1.02454e-06 -2.79751e-05
0.00151292 -0.00021265 4.49601e-08
-0.00021265 -2.40357e-06 -3.27015e-06
4.49601e-08 -3.27015e-06 -0.00012154
0.00167976 -0.000241796 -1.5804e-06
-0.000241796 0.000148812 -6.03791e-06
-1.5804e-06 -6.03791e-06 -1.16364e-05
0.00109441 -0.000168315 8.98469e-07
-0.000168315 0.000222283 -9.47002e-07
8.98469e-07 -9.47002e-07 8.80554e-05
0.000801938 -0.000148095 -4.91259e-06
-0.000148095 6.10987e-05 -2.49644e-06
-4.91259e-06 -2.49644e-06 -6.55821e-05
0.00109135 -0.000127103 2.6533e-07
-0.000127103 0.000258236 5.4164e-07
2.6533e-07 5.4164e-07 0.000114575
0.000416843 1.94677e-05 -7.68548e-07
1.94677e-05 -0.000143576 1.54551e-06
-7.68548e-07 1.54551e-06 -0.00019759
0.000973524 -4.29863e-05 3.13904e-07
-4.29863e-05 0.000191601 1.22349e-07
3.13904e-07 1.22349e-07 8.41999e-05
0.000578591 2.93308e-05 5.15648e-07
2.93308e-05 -3.47366e-05 1.48083e-06
5.15648e-07 1.48083e-06 -0.000121021
0.00173783 -3.71765e-05 -4.59595e-07
-3.71765e-05 7.55492e-05 8.04968e-08
-4.59595e-07 8.04968e-08 -1.94936e-05
0.00186037 -0.000101791 4.163e-07
-0.000101791 0.00012784 3.80432e-08
4.163e-07 3.80432e-08 4.88804e-05
0.00160746 -0.000144092 -3.0781e-07
-0.000144092 1.11799e-05 2.03191e-07
-3.0781e-07 2.03191e-07 -6.92171e-05
0.00106742 -0.000172677 1.31556e-07
-0.000172677 0.000201907 1.78168e-06
1.31556e-07 1.78168e-06 4.96689e-05
0.000851022 -0.0001928 -3.79686e-07
-0.0001928 -1.43836e-06 -8.17882e-08
-3.79686e-07 -8.17882e-08 -0.000209233
0.0018918 -0.000292091 -2.93127e-06
-0.000292091 0.000346231 1.16563e-06
-2.93127e-06 1.16563e-06 0.000136689
0.00188762 -0.000198306 9.55664e-07
-0.000198306 0.000153912 -6.00779e-07
9.55664e-07 -6.00779e-07 6.00391e-05
0.00174124 -0.00024815 1.50661e-06
-0.00024815 0.000137002 -1.0177e-06
1.50661e-06 -1.0177e-06 -1.42383e-06
0.000543562 2.21614e-05 3.66587e-07
2.21614e-05 -7.5558e-05 -7.4551e-07
3.66587e-07 -7.4551e-07 -0.000122653
0.000837608 -2.79311e-06 -3.58457e-07
-2.79311e-06 0.000114391 2.71992e-07
-3.58457e-07 2.71992e-07 3.24551e-05
0.000495855 -0.000130843 -1.82707e-06
-0.000130843 -0.000122995 1.59058e-06
-1.82707e-06 1.59058e-06 -0.000253217
0.00123955 -0.000172293 2.35391e-07
-0.000172293 0.000303744 1.09348e-07
2.35391e-07 1.09348e-07 0.000163399
0.000879783 -4.04528e-05 4.51525e-08
-4.04528e-05 0.000142842 -3.94035e-07
4.51525e-08 -3.94035e-07 2.05383e-05
0.000900497 -5.19697e-05 -6.17734e-07
-5.19697e-05 0.000157123 1.00926e-06
-6.17734e-07 1.00926e-06 5.2948e-05
0.00186776 -6.00466e-05 -3.31101e-07
-6.00466e-05 0.000103806 5.61125e-08
-3.31101e-07 5.61125e-08 3.0712e-05
0.00175135 -0.000140193 -1.99673e-06
-0.000140193 3.52667e-05 -6.47592e-07
-1.99673e-06 -6.47592e-07 -2.50741e-05
0.00178891 -0.000163005 1.93609e-06
-0.000163005 6.92512e-05 -2.30746e-07
1.93609e-06 -2.30746e-07 -2.23548e-06
0.00233291 -0.000281946 5.87229e-06
-0.000281946 0.000373871 -8.54937e-07
5.87229e-06 -8.54937e-07 0.000265803
0.000276953 -0.000126738 -2.54275e-06
-0.000126738 -0.000243062 -9.4195e-07
-2.54275e-06 -9.4195e-07 -0.000409174
0.00179664 -0.000294479 -2.06553e-06
-0.000294479 0.000247153 6.63624e-06
-2.06553e-06 6.63624e-06 5.11627e-05
0.00225361 -0.00031638 2.70007e-06
-0.00031638 0.000705073 -3.92237e-06
2.70007e-06 -3.92237e-06 0.000469619
0.000708635 1.99237e-05 7.34064e-07
1.99237e-05 1.27827e-05 -2.0681e-06
7.34064e-07 -2.0681e-06 -2.82075e-05
0.000738096 -7.93927e-05 1.47275e-06
-7.93927e-05 6.16288e-05 -1.91939e-06
1.47275e-06 -1.91939e-06 -1.19429e-05
0.000529191 1.32663e-05 2.34501e-07
1.32663e-05 -5.68051e-05 -2.39193e-06
2.34501e-07 -2.39193e-06 -0.00013716
0.000827199 -3.9889e-05 1.2632e-06
-3.9889e-05 0.000123199 2.94659e-07
1.2632e-06 2.94659e-07 2.09679e-05
0.000809056 -3.48918e-06 9.80374e-07
-3.48918e-06 9.7567e-05 -1.0753e-06
9.80374e-07 -1.0753e-06 -8.66045e-06
0.000456586 -0.000109093 -2.66157e-07
-0.000109093 -7.73327e-05 2.5021e-06
-2.66157e-07 2.5021e-06 -0.000211341
0.000505664 -0.000136983 -2.41688e-06
-0.000136983 -0.000167735 1.06956e-06
-2.41688e-06 1.06956e-06 -0.000288267
0.00176714 -0.000212735 -6.23192e-06
-0.000212735 0.000634686 3.671e-06
-6.23192e-06 3.671e-06 0.000466347
0.000720997 -3.68462e-05 -6.64313e-07
-3.68462e-05 3.02987e-05 -6.3526e-07
-6.64313e-07 -6.3526e-07 -3.10714e-05
0.000821169 -6.26557e-06 2.6699e-09
-6.26557e-06 0.00010664 1.35368e-07
2.6699e-09 1.35368e-07 1.80589e-05
0.00207826 0.000188626 -1.81523e-07
0.000188626 0.000293472 4.95861e-07
-1.81523e-07 4.95861e-07 0.000190817
0.000816663 1.66104e-05 -8.81774e-08
1.66104e-05 0.000116058 -7.87088e-07
-8.81774e-08 -7.87088e-07 -3.21237e-06
0.00116518 0.000173372 1.0404e-06
0.000173372 0.00030375 -1.91381e-06
1.0404e-06 -1.91381e-06 0.000131617
0.000612089 8.84648e-05 -3.04018e-07
8.84648e-05 -1.48955e-05 2.10019e-06
-3.04018e-07 2.10019e-06 -0.000138785
0.00186525 0.000263969 4.63505e-07
0.000263969 0.000282668 7.81455e-07
4.63505e-07 7.81455e-07 0.000116383
0.00166677 0.00024748 1.95019e-06
0.00024748 0.000112098 4.46484e-06
1.95019e-06 4.46484e-06 -2.88103e-05
0.00100072 0.000188574 1.1275e-06
0.000188574 0.000142459 -7.36321e-08
1.1275e-06 -7.36321e-08 -9.051e-05
0.00136128 0.000250857 -2.39229e-06
0.000250857 9.02537e-05 1.72227e-06
-2.39229e-06 1.72227e-06 -9.74899e-05
0.000596377 -1.20777e-05 9.52176e-08
-1.20777e-05 -2.15293e-05 6.71018e-07
9.52176e-08 6.71018e-07 -0.000101368
0.00058105 5.62411e-05 -3.98039e-07
5.62411e-05 -9.61262e-06 -1.42771e-06
-3.98039e-07 -1.42771e-06 -0.000121788
0.00103634 0.0001682 1.46085e-06
0.0001682 0.000220428 -1.74021e-06
1.46085e-06 -1.74021e-06 2.6947e-05
0.000666226 9.74572e-05 -8.3334e-07
9.74572e-05 2.4579e-05 -1.96782e-06
-8.3334e-07 -1.96782e-06 -0.000117806
0.00199345 0.00017947 1.72265e-07
0.00017947 0.000144595 -5.25726e-07
1.72265e-07 -5.25726e-07 6.91167e-05
0.00186689 0.000228555 1.98875e-06
0.000228555 0.000157339 6.26433e-07
1.98875e-06 6.26433e-07 4.52588e-05
0.00172194 0.000283584 -1.43076e-06
0.000283584 0.000172406 -4.77317e-07
-1.43076e-06 -4.77317e-07 -6.58511e-07
0.000789169 0.000192738 4.72999e-07
0.000192738 -9.3697e-05 5.24206e-07
4.72999e-07 5.24206e-07 -0.000326282
0.000768059 -2.90557e-06 -2.41428e-07
-2.90557e-06 7.58394e-05 8.64126e-07
-2.41428e-07 8.64126e-07 -7.34074e-06
0.00185898 0.000141714 -3.72879e-07
0.000141714 3.07022e-05 1.09124e-06
-3.72879e-07 1.09124e-06 -1.74596e-05
0.0012762 0.00016636 -4.98787e-07
0.00016636 0.000396056 2.52985e-06
-4.98787e-07 2.52985e-06 0.000248299
0.00107764 0.000179667 8.57188e-07
0.000179667 0.000221508 3.28921e-06
8.57188e-07 3.28921e-06 1.9489e-05
0.00249075 0.000231304 -6.2014e-06
0.000231304 0.00040264 -5.58647e-07
-6.2014e-06 -5.58647e-07 0.000323302
0.00144608 0.000285048 -2.74769e-06
0.000285048 -5.78066e-05 -3.80828e-06
-2.74769e-06 -3.80828e-06 -0.00021646
0.00204388 0.000307822 -2.76402e-06
0.000307822 0.000482838 5.83959e-07
-2.76402e-06 5.83959e-07 0.000253106
0.00078968 5.20343e-06 -1.41348e-06
5.20343e-06 8.25178e-05 1.04935e-07
-1.41348e-06 1.04935e-07 8.88876e-06
0.000781771 -6.46857e-06 -2.3536e-07
-6.46857e-06 8.22637e-05 1.01506e-07
-2.3536e-07 1.01506e-07 4.89272e-06
0.000850774 -2.05298e-05 -5.38542e-07
-2.05298e-05 0.000129172 4.09686e-07
-5.38542e-07 4.09686e-07 4.55943e-05
0.000727744 -2.288e-05 -4.18695e-07
-2.288e-05 3.42642e-05 -9.09736e-07
-4.18695e-07 -9.09736e-07 -2.70275e-05
0.000747521 1.33843e-05 3.23009e-07
1.33843e-05 6.23134e-05 2.66928e-07
3.23009e-07 2.66928e-07 -1.56688e-05
0.000624392 -1.031e-05 -7.7343e-07
-1.031e-05 3.10328e-06 2.02892e-07
-7.7343e-07 2.02892e-07 -8.27462e-05
0.000735541 -1.08597e-05 -1.55638e-07
-1.08597e-05 4.23426e-05 -3.52404e-08
-1.55638e-07 -3.52404e-08 -2.26112e-05
0.000645986 -2.48191e-05 -5.51684e-07
-2.48191e-05 4.90342e-06 3.31561e-07
-5.51684e-07 3.31561e-07 -7.53746e-05
0.000725696 -3.68428e-05 5.15622e-07
-3.68428e-05 4.81043e-05 -3.21381e-07
5.15622e-07 -3.21381e-07 -3.30782e-05
0.000820291 1.50501e-05 3.00067e-07
1.50501e-05 0.000109091 2.13681e-07
3.00067e-07 2.13681e-07 2.14659e-05
0.000828705 -1.33892e-05 7.02313e-07
-1.33892e-05 9.40522e-05 -8.02757e-07
7.02313e-07 -8.02757e-07 1.36498e-05
0.000764819 -5.59694e-05 5.77676e-07
-5.59694e-05 6.70021e-05 -2.01791e-07
5.77676e-07 -2.01791e-07 -1.70262e-05
0.000834922 1.71118e-05 5.57163e-07
1.71118e-05 0.000113572 -8.72611e-08
5.57163e-07 -8.72611e-08 2.46207e-05
0.000738909 2.09054e-05 1.72157e-06
2.09054e-05 5.66561e-05 3.66658e-07
1.72157e-06 3.66658e-07 -2.94948e-05
0.000753303 1.00545e-05 8.88721e-07
1.00545e-05 4.75564e-05 9.27954e-07
8.88721e-07 9.27954e-07 -1.60449e-05
0.000689059 -1.12192e-07 2.51139e-07
-1.12192e-07 2.70947e-07 1.59907e-06
2.51139e-07 1.59907e-06 -4.05914e-05
0.000702371 -4.62902e-06 -2.09705e-07
-4.62902e-06 5.87967e-06 3.73619e-08
-2.09705e-07 3.73619e-08 -3.45236e-05
0.00128672 -8.40342e-06 5.29708e-07
-8.40342e-06 0.000321171 2.09528e-06
5.29708e-07 2.09528e-06 0.000316009
0.000719869 -1.26364e-05 -2.26854e-08
-1.26364e-05 1.31535e-05 -1.86187e-06
-2.26854e-08 -1.86187e-06 -2.66156e-05
0.00131146 -1.55799e-05 -2.54115e-06
-1.55799e-05 0.000336937 -1.44595e-06
-2.54115e-06 -1.44595e-06 0.00033191
0.000932203 -1.44601e-05 1.11796e-05
-1.44601e-05 0.000124629 7.55216e-06
1.11796e-05 7.55216e-06 0.000136059
0.00133424 -2.31071e-05 -5.09445e-06
-2.31071e-05 0.000352401 -5.04662e-06
-5.09445e-06 -5.04662e-06 0.000347072
0.000882837 -2.15588e-05 3.97116e-06
-2.15588e-05 9.95191e-05 2.84586e-06
3.97116e-06 2.84586e-06 0.000110541
0.000817163 -2.76184e-05 -1.37682e-06
-2.76184e-05 6.70446e-05 -1.85563e-06
-1.37682e-06 -1.85563e-06 7.73844e-05
0.000722781 1.24355e-06 5.65307e-07
1.24355e-06 1.95126e-05 -2.05507e-06
5.65307e-07 -2.05507e-06 -1.8536e-05
0.000641755 2.5624e-05 5.08431e-07
2.5624e-05 -3.71438e-05 -3.79522e-06
5.08431e-07 -3.79522e-06 -4.77246e-05
0.000642823 3.26072e-05 -9.64924e-08
3.26072e-05 -3.03551e-05 6.24959e-08
-9.64924e-08 6.24959e-08 -4.44544e-05
0.00225103 5.37608e-05 2.06436e-05
5.37608e-05 0.000893288 -4.21661e-06
2.06436e-05 -4.21661e-06 0.000907181
0.0006408 4.01137e-05 -7.50523e-07
4.01137e-05 -2.34084e-05 4.34598e-06
-7.50523e-07 4.34598e-06 -4.19858e-05
0.00240548 6.66621e-05 -2.71434e-06
6.66621e-05 0.0009893 -1.66437e-07
-2.71434e-06 -1.66437e-07 0.00099989
0.00258585 7.84112e-05 -3.57521e-05
7.84112e-05 0.00109916 3.69717e-06
-3.57521e-05 3.69717e-06 0.00110681
0.00191196 0.000139377 1.55295e-06
0.000139377 0.000164095 2.00654e-06
1.55295e-06 2.00654e-06 7.70247e-05
0.00172675 9.79484e-05 1.63942e-06
9.79484e-05 6.25576e-05 -2.25614e-07
1.63942e-06 -2.25614e-07 -2.01363e-05
0.0017003 4.14379e-05 1.63244e-06
4.14379e-05 6.53315e-05 -5.75035e-07
1.63244e-06 -5.75035e-07 -2.53528e-05
0.00175168 3.69245e-06 6.19171e-07
3.69245e-06 0.0001074 -2.9001e-07
6.19171e-07 -2.9001e-07 3.28349e-06
0.00173127 2.29132e-06 -8.22944e-07
2.29132e-06 8.22814e-05 4.04345e-08
-8.22944e-07 4.04345e-08 -9.05825e-06
0.00193529 6.92682e-05 4.92979e-07
6.92682e-05 0.000143901 -9.54394e-08
4.92979e-07 -9.54394e-08 7.28245e-05
0.00169599 0.000135782 -7.4454e-07
0.000135782 -5.50842e-06 -2.26699e-07
-7.4454e-07 -2.26699e-07 -7.92928e-05
0.00182127 7.88775e-06 -3.77634e-07
7.88775e-06 7.25588e-05 5.81269e-07
-3.77634e-07 5.81269e-07 1.9781e-06
0.00196435 9.60253e-05 1.66266e-06
9.60253e-05 0.000108407 1.02061e-07
1.66266e-06 1.02061e-07 5.34977e-05
0.00198544 6.07467e-05 -1.86593e-06
6.07467e-05 0.000115327 -6.02259e-07
-1.86593e-06 -6.02259e-07 0.000110715
0.0018386 -3.65044e-05 -3.76178e-07
-3.65044e-05 0.000129586 -1.16989e-07
-3.76178e-07 -1.16989e-07 3.47916e-05
0.00190053 -0.00010426 1.42307e-06
-0.00010426 0.000149838 1.19104e-07
1.42307e-06 1.19104e-07 7.17225e-05
0.00164755 -0.000145651 -1.00193e-06
-0.000145651 3.34514e-05 8.26899e-08
-1.00193e-06 8.26899e-08 -4.65878e-05
0.00111369 -0.000175224 3.20477e-07
-0.000175224 0.000224688 3.57899e-06
3.20477e-07 3.57899e-06 7.171e-05
0.0011281 -0.000209233 7.89456e-07
-0.000209233 0.00016265 4.17265e-06
7.89456e-07 4.17265e-06 -4.24989e-05
0.0014999 -0.000263249 -2.27453e-06
-0.000263249 0.000127834 -7.41773e-07
-2.27453e-06 -7.41773e-07 -7.50429e-05
0.00185791 -0.0001974 2.92849e-06
-0.0001974 0.000137428 -1.08465e-06
2.92849e-06 -1.08465e-06 4.24006e-05
0.00160688 -0.000239384 -1.11389e-06
-0.000239384 6.30902e-05 -4.06146e-06
-1.11389e-06 -4.06146e-06 -7.44643e-05
0.000190457 -0.000107268 -3.11125e-06
-0.000107268 -0.000293359 2.24358e-06
-3.11125e-06 2.24358e-06 -0.000419131
0.0015645 -0.00019032 8.34729e-06
-0.00019032 0.000492604 -4.12014e-06
8.34729e-06 -4.12014e-06 0.000354479
0.00085299 -1.09503e-05 -8.29153e-08
-1.09503e-05 0.00011748 -3.08891e-07
-8.29153e-08 -3.08891e-07 3.7313e-06
0.000706047 9.99403e-06 -6.02987e-07
9.99403e-06 1.49545e-05 1.39928e-06
-6.02987e-07 1.39928e-06 -2.9902e-05
0.000848486 1.55388e-05 -8.44631e-07
1.55388e-05 0.000119146 1.66297e-06
-8.44631e-07 1.66297e-06 3.76065e-05
0.000814558 -2.41954e-05 -5.43013e-07
-2.41954e-05 0.000109259 1.27865e-06
-5.43013e-07 1.27865e-06 4.99672e-06
0.00187387 -6.12513e-05 2.84122e-08
-6.12513e-05 0.000107192 -1.3244e-07
2.84122e-08 -1.3244e-07 3.48636e-05
0.00070802 7.31925e-06 7.17028e-07
7.31925e-06 1.30613e-05 6.00332e-08
7.17028e-07 6.00332e-08 -2.8262e-05
0.000641642 -2.15861e-05 -9.74572e-07
-2.15861e-05 -4.93426e-06 -1.60001e-08
-9.74572e-07 -1.60001e-08 -7.10953e-05
0.0018317 -0.00013845 -2.16198e-07
-0.00013845 8.79362e-05 1.43137e-07
-2.16198e-07 1.43137e-07 2.51263e-05
0.00165394 -0.000158879 -1.96602e-06
-0.000158879 -9.61269e-06 7.71563e-07
-1.96602e-06 7.71563e-07 -8.31914e-05
0.000501989 -0.000140981 4.31503e-07
-0.000140981 -0.000107519 2.78078e-06
4.31503e-07 2.78078e-06 -0.000270788
0.00173501 -0.000275679 -2.07251e-06
-0.000275679 0.000428311 8.45904e-07
-2.07251e-06 8.45904e-07 0.000187447
0.00148945 -0.00027158 1.23215e-06
-0.00027158 7.89771e-05 -8.71139e-07
1.23215e-06 -8.71139e-07 -0.000109695
0.00195868 -0.000267176 2.62536e-06
-0.000267176 0.000179455 -9.84134e-07
2.62536e-06 -9.84134e-07 7.08418e-05
0.000791117 -2.46315e-05 1.11214e-06
-2.46315e-05 8.99901e-05 -7.8605e-07
1.11214e-06 -7.8605e-07 1.20409e-05
0.000805845 -2.85947e-05 -1.36597e-07
-2.85947e-05 0.000111517 7.73297e-07
-1.36597e-07 7.73297e-07 8.20143e-06
0.000966569 -0.000155926 -1.04152e-06
-0.000155926 8.76413e-05 -1.51077e-07
-1.04152e-06 -1.51077e-07 -3.77803e-05
0.00115895 -0.000172063 7.93857e-06
-0.000172063 0.000292263 -2.09491e-06
7.93857e-06 -2.09491e-06 0.000149303
0.00061373 -8.5493e-05 -1.16411e-06
-8.5493e-05 1.29998e-06 1.97761e-07
-1.16411e-06 1.97761e-07 -0.000127411
0.000817841 -8.52985e-06 3.28144e-07
-8.52985e-06 0.000106025 -5.11116e-07
3.28144e-07 -5.11116e-07 -1.57167e-06
0.00199397 -7.73929e-05 -2.68827e-06
-7.73929e-05 0.000116577 7.96127e-08
-2.68827e-06 7.96127e-08 6.25376e-05
0.00172411 -0.000129843 2.64035e-06
-0.000129843 -2.95438e-06 -2.40674e-08
2.64035e-06 -2.40674e-08 -5.32386e-05
0.00191334 -0.000257546 1.16307e-06
-0.000257546 5.37202e-05 -2.0951e-06
1.16307e-06 -2.0951e-06 -1.25783e-05
0.00156639 -0.000293791 2.21023e-06
-0.000293791 4.78707e-06 1.21764e-06
2.21023e-06 1.21764e-06 -0.000125123
0.000800685 -0.000126639 -5.08688e-06
-0.000126639 3.50679e-05 -3.83803e-06
-5.08688e-06 -3.83803e-06 -0.0001294
0.00267632 -0.000373612 -3.05134e-06
-0.000373612 0.000861522 2.833e-06
-3.05134e-06 2.833e-06 0.0006027
0.000516785 5.15891e-05 -1.34633e-06
5.15891e-05 -7.12111e-05 -2.49944e-06
-1.34633e-06 -2.49944e-06 -0.000138571
0.000744981 -4.52582e-05 1.6408e-06
-4.52582e-05 5.53418e-05 -1.66335e-06
1.6408e-06 -1.66335e-06 -1.39054e-05
0.000961835 -5.87738e-05 1.16318e-06
-5.87738e-05 0.000195856 -2.82656e-07
1.16318e-06 -2.82656e-07 0.000106381
0.000518976 1.29053e-05 4.8555e-08
1.29053e-05 -4.52945e-05 -5.44315e-07
4.8555e-08 -5.44315e-07 -0.000150448
0.00103626 -4.05827e-05 7.00396e-07
-4.05827e-05 0.000231997 -1.94041e-07
7.00396e-07 -1.94041e-07 0.00012891
0.000642427 -4.08577e-05 1.49773e-06
-4.08577e-05 7.33228e-07 5.62599e-09
1.49773e-06 5.62599e-09 -0.000118109
0.000318387 -7.58852e-05 4.29784e-06
-7.58852e-05 -8.68397e-05 1.32994e-06
4.29784e-06 1.32994e-06 -0.00026939
0.000609611 -0.000166925 -1.36104e-05
-0.000166925 -8.75077e-05 4.77734e-06
-1.36104e-05 4.77734e-06 -0.00020443
0.000609313 7.26012e-06 -5.63952e-08
7.26012e-06 -1.02648e-05 -9.27496e-09
-5.63952e-08 -9.27496e-09 -9.43177e-05
0.000774692 7.43318e-05 -2.5248e-06
7.43318e-05 9.89282e-05 -2.85169e-06
-2.5248e-06 -2.85169e-06 -1.51655e-05
0.00202327 0.000177152 -1.21957e-06
0.000177152 0.000163849 -4.19346e-07
-1.21957e-06 -4.19346e-07 9.07231e-05
0.00168532 0.000227673 -2.02938e-07
0.000227673 6.47304e-05 2.23002e-06
-2.02938e-07 2.23002e-06 -5.19163e-05
0.00142649 0.000126518 -3.92805e-06
0.000126518 0.000440658 -1.59003e-06
-3.92805e-06 -1.59003e-06 0.000298213
0.00100151 0.000166047 -1.44831e-06
0.000166047 0.000209121 -5.9471e-06
-1.44831e-06 -5.9471e-06 1.29267e-05
0.00159264 0.00026874 1.24579e-06
0.00026874 0.00010199 1.41309e-06
1.24579e-06 1.41309e-06 -6.8516e-05
0.00183881 0.000271267 -1.38027e-07
0.000271267 0.00046616 -1.4989e-07
-1.38027e-07 -1.4989e-07 0.00023222
0.000740388 1.95214e-05 6.86155e-07
1.95214e-05 6.84478e-05 -6.51608e-07
6.86155e-07 -6.51608e-07 -2.06915e-05
0.00188316 0.000137063 -5.50635e-07
0.000137063 3.95321e-05 -1.47317e-07
-5.50635e-07 -1.47317e-07 -4.11927e-06
0.000934874 0.000116219 6.02142e-07
0.000116219 0.000201346 1.68379e-06
6.02142e-07 1.68379e-06 6.36962e-05
0.000783495 0.000158172 6.16497e-07
0.000158172 5.85398e-05 -3.83133e-08
6.16497e-07 -3.83133e-08 -0.000142857
0.00207703 0.000217207 2.61411e-06
0.000217207 0.000176551 -9.15243e-08
2.61411e-06 -9.15243e-08 9.7007e-05
0.00163924 0.000293848 -3.82736e-07
0.000293848 4.45801e-05 -1.2657e-06
-3.82736e-07 -1.2657e-06 -0.000111934
0.00208543 0.000312293 7.71772e-07
0.000312293 0.000519241 7.57351e-07
7.71772e-07 7.57351e-07 0.000287992
0.00118343 5.66715e-05 -2.4056e-06
5.66715e-05 0.000331122 1.71555e-06
-2.4056e-06 1.71555e-06 0.000217617
0.00233105 0.000154464 -2.04251e-05
0.000154464 0.000309463 -2.8332e-06
-2.04251e-05 -2.8332e-06 0.000287578
0.00221563 0.000242706 -3.71838e-06
0.000242706 0.000887617 -2.55878e-07
-3.71838e-06 -2.55878e-07 0.00072063
0.00259919 0.000314023 -6.21531e-06
0.000314023 0.000982361 1.70066e-06
-6.21531e-06 1.70066e-06 0.00076247
0.00179384 0.000302999 -6.69093e-06
0.000302999 3.18989e-05 -5.97609e-06
-6.69093e-06 -5.97609e-06 -6.91013e-05
0.00144207 0.000291009 -7.08343e-06
0.000291009 0.000100623 -3.59958e-07
-7.08343e-06 -3.59958e-07 -0.000105078
0.000380662 0.000159912 1.2781e-05
0.000159912 -0.000511881 -3.4201e-06
1.2781e-05 -3.4201e-06 -0.000702762
0.000741614 5.4882e-06 2.52288e-07
5.4882e-06 6.28217e-05 -1.2761e-07
2.52288e-07 -1.2761e-07 -1.65626e-05
0.000806049 -1.24584e-05 -2.96003e-07
-1.24584e-05 0.000105968 2.34211e-07
-2.96003e-07 2.34211e-07 2.18974e-05
0.00105047 2.35569e-06 3.44465e-07
2.35569e-06 0.000229547 -9.15193e-07
3.44465e-07 -9.15193e-07 0.000141443
0.000723967 -5.16724e-05 -2.59264e-07
-5.16724e-05 3.95437e-05 -1.13438e-06
-2.59264e-07 -1.13438e-06 -2.79732e-05
0.000684381 -4.77155e-05 -1.19769e-06
-4.77155e-05 2.47349e-05 3.35529e-07
-1.19769e-06 3.35529e-07 -5.39458e-05
0.000877455 8.08044e-05 -5.64297e-07
8.08044e-05 0.0001434 6.5889e-07
-5.64297e-07 6.5889e-07 5.41691e-05
0.00062726 -4.53273e-05 -4.43444e-07
-4.53273e-05 -3.38593e-06 3.33976e-07
-4.43444e-07 3.33976e-07 -8.69124e-05
0.000731731 -2.52509e-05 -7.57167e-09
-2.52509e-05 4.33662e-05 -1.14505e-08
-7.57167e-09 -1.14505e-08 -2.54442e-05
0.000705815 1.70512e-05 -2.98003e-08
1.70512e-05 2.93385e-05 -1.91152e-07
-2.98003e-08 -1.91152e-07 -5.04687e-05
0.000796448 -1.8285e-05 -6.87976e-08
-1.8285e-05 7.6483e-05 -5.3885e-07
-6.87976e-08 -5.3885e-07 -5.40081e-06
0.000827992 -5.55461e-06 1.86944e-07
-5.55461e-06 0.000103196 -1.09005e-08
1.86944e-07 -1.09005e-08 1.88173e-05
0.000836601 -3.40476e-05 -1.58846e-08
-3.40476e-05 0.000105399 -2.13348e-08
-1.58846e-08 -2.13348e-08 2.18702e-05
0.000845344 -2.12641e-05 -1.82837e-08
-2.12641e-05 9.61619e-05 -7.82327e-07
-1.82837e-08 -7.82327e-07 1.5301e-05
0.000844253 5.76146e-06 -7.44102e-09
5.76146e-06 0.000102249 -1.1894e-06
-7.44102e-09 -1.1894e-06 1.62729e-05
0.000840705 3.35132e-05 4.09306e-07
3.35132e-05 0.000102333 -1.69222e-07
4.09306e-07 -1.69222e-07 1.99827e-05
0.000747431 2.92755e-05 2.68223e-07
2.92755e-05 5.92753e-05 2.95778e-07
2.68223e-07 2.95778e-07 -3.09628e-05
0.00062102 -1.39812e-05 -7.1597e-08
-1.39812e-05 -2.93512e-05 1.32594e-06
-7.1597e-08 1.32594e-06 -9.51543e-05
0.000892305 -9.40368e-06 3.0631e-07
-9.40368e-06 0.000154332 -7.83559e-07
3.0631e-07 -7.83559e-07 6.31736e-05
0.000596808 -1.49197e-07 -6.77446e-07
-1.49197e-07 -3.82017e-05 1.32407e-06
-6.77446e-07 1.32407e-06 -0.000106654
0.000685006 9.93117e-06 -2.75361e-07
9.93117e-06 -7.88434e-07 1.61571e-06
-2.75361e-07 1.61571e-06 -4.25554e-05
0.000686978 7.6899e-06 2.44883e-07
7.6899e-06 -3.74966e-07 1.17577e-08
2.44883e-07 1.17577e-08 -4.15149e-05
0.000651452 1.26396e-06 1.30248e-07
1.26396e-06 -4.10677e-05 3.48785e-06
1.30248e-07 3.48785e-06 -5.04576e-05
0.000698042 -4.39882e-06 -3.88857e-07
-4.39882e-06 3.81582e-06 -1.70493e-06
-3.88857e-07 -1.70493e-06 -3.67453e-05
0.000989861 -5.98553e-06 -1.64144e-06
-5.98553e-06 0.000152194 -1.5232e-06
-1.64144e-06 -1.5232e-06 0.000145022
0.00222838 -1.05942e-05 6.97266e-06
-1.05942e-05 0.000862144 4.7685e-06
6.97266e-06 4.7685e-06 0.000880902
0.00134554 -1.41962e-05 -2.97449e-06
-1.41962e-05 0.000356776 -5.00801e-06
-2.97449e-06 -5.00801e-06 0.000351495
0.000884063 -1.46007e-05 2.08848e-06
-1.46007e-05 9.63888e-05 2.92517e-06
2.08848e-06 2.92517e-06 0.000107987
0.000830863 -2.06449e-05 -8.29516e-07
-2.06449e-05 6.9401e-05 -1.86704e-06
-8.29516e-07 -1.86704e-06 8.06862e-05
0.000691226 1.19812e-05 -2.58914e-07
1.19812e-05 2.23176e-06 -1.97611e-06
-2.58914e-07 -1.97611e-06 -3.37797e-05
0.000712229 1.32319e-06 2.01972e-07
1.32319e-06 1.34814e-05 -1.29995e-08
2.01972e-07 -1.29995e-08 -2.46397e-05
0.000660585 1.936e-05 3.1379e-07
1.936e-05 -3.07123e-05 -3.617e-06
3.1379e-07 -3.617e-06 -3.87788e-05
0.000978418 3.00651e-05 -4.90877e-07
3.00651e-05 0.000154994 3.58452e-08
-4.90877e-07 3.58452e-08 0.000145964
0.00218682 4.25458e-05 1.66954e-05
4.25458e-05 0.000850278 -4.3331e-06
1.66954e-05 -4.3331e-06 0.000866544
0.000654487 3.34073e-05 -5.78607e-07
3.34073e-05 -2.38108e-05 4.05422e-06
-5.78607e-07 4.05422e-06 -3.80995e-05
0.00229829 5.52237e-05 -2.49183e-06
5.52237e-05 0.000921024 -1.31237e-07
-2.49183e-06 -1.31237e-07 0.000934428
0.00246823 6.78902e-05 -2.86548e-05
6.78902e-05 0.00102566 4.03489e-06
-2.86548e-05 4.03489e-06 0.0010358
0.00175134 0.000137827 -1.99476e-06
0.000137827 2.24218e-05 -3.35633e-07
-1.99476e-06 -3.35633e-07 -5.1689e-05
0.0018345 6.69964e-05 7.49039e-07
6.69964e-05 8.72148e-05 -6.52534e-07
7.49039e-07 -6.52534e-07 1.56342e-05
0.00177782 1.19934e-06 -3.5888e-07
1.19934e-06 0.000109055 -2.3407e-07
-3.5888e-07 -2.3407e-07 1.92088e-05
0.00177124 1.01394e-05 2.44885e-07
1.01394e-05 4.5058e-05 1.42009e-07
2.44885e-07 1.42009e-07 -2.57538e-05
0.00184104 9.37028e-05 -6.44878e-07
9.37028e-05 4.52417e-05 -1.96286e-07
-6.44878e-07 -1.96286e-07 -1.06961e-05
0.00183619 5.9095e-05 1.98995e-06
5.9095e-05 3.02593e-05 1.25163e-06
1.98995e-06 1.25163e-06 1.82201e-05
0.00181164 1.64849e-05 6.02965e-07
1.64849e-05 1.20141e-05 3.80121e-08
6.02965e-07 3.80121e-08 -2.12434e-05
0.00289857 0.000132917 1.79371e-05
0.000132917 0.000256815 -1.65513e-07
1.79371e-05 -1.65513e-07 0.000224062
0.00184901 3.74812e-05 -1.86514e-05
3.74812e-05 0.000130054 -2.65953e-06
-1.86514e-05 -2.65953e-06 0.000137498
0.000732309 5.35268e-05 -6.38376e-07
5.35268e-05 4.78361e-05 -1.32497e-06
-6.38376e-07 -1.32497e-06 -1.30118e-05
0.00187619 -6.21891e-05 5.25776e-07
-6.21891e-05 0.000108562 6.08814e-08
5.25776e-07 6.08814e-08 3.69949e-05
0.00192055 -0.000134452 5.95004e-07
-0.000134452 0.000147521 1.93313e-07
5.95004e-07 1.93313e-07 8.25666e-05
0.00151497 -0.000154533 3.33954e-07
-0.000154533 -8.93654e-05 7.05219e-07
3.33954e-07 7.05219e-07 -0.000164384
0.000681995 -0.000151399 2.19781e-06
-0.000151399 2.49127e-06 5.58406e-06
2.19781e-06 5.58406e-06 -0.000157377
0.00129196 -0.000240238 1.91747e-06
-0.000240238 0.000193233 6.00159e-06
1.91747e-06 6.00159e-06 -5.46821e-05
0.00125123 -0.000255322 -1.54553e-06
-0.000255322 -5.3452e-05 -4.7263e-06
-1.54553e-06 -4.7263e-06 -0.000236922
0.00161281 -0.000256029 -5.95438e-06
-0.000256029 -1.6866e-06 -2.56103e-06
-5.95438e-06 -2.56103e-06 -0.00011136
0.00139422 -0.000177949 9.42065e-06
-0.000177949 0.000322399 -3.31477e-06
9.42065e-06 -3.31477e-06 0.000191859
0.000522652 -0.000130427 6.45673e-06
-0.000130427 -6.36132e-05 -8.91736e-06
6.45673e-06 -8.91736e-06 -0.000181793
0.000810241 -9.21551e-05 1.06152e-07
-9.21551e-05 0.000107541 -1.81443e-06
1.06152e-07 -1.81443e-06 -2.1364e-05
0.000704338 -3.50816e-06 -1.32439e-06
-3.50816e-06 1.1048e-05 2.20122e-06
-1.32439e-06 2.20122e-06 -3.01028e-05
0.000842286 -1.5387e-05 1.90553e-08
-1.5387e-05 0.000125064 -1.19756e-07
1.90553e-08 -1.19756e-07 1.46048e-05
0.00104057 -5.51816e-05 3.85272e-08
-5.51816e-05 0.000234979 7.78231e-07
3.85272e-08 7.78231e-07 0.000155938
0.000776514 -2.08935e-05 -1.24017e-06
-2.08935e-05 9.36312e-05 8.44745e-07
-1.24017e-06 8.44745e-07 -9.27109e-06
0.000532166 -1.51585e-05 -8.24715e-07
-1.51585e-05 -7.10023e-05 1.63567e-06
-8.24715e-07 1.63567e-06 -0.00013495
0.00194881 -8.42437e-05 -5.53923e-07
-8.42437e-05 8.01841e-05 -1.15459e-07
-5.53923e-07 -1.15459e-07 3.15382e-05
0.000619079 2.8257e-05 6.74116e-08
2.8257e-05 -1.11927e-05 -9.04694e-07
6.74116e-08 -9.04694e-07 -7.85977e-05
0.0007494 -5.26186e-05 -1.83888e-08
-5.26186e-05 6.40113e-05 1.84345e-07
-1.83888e-08 1.84345e-07 -9.40816e-06
0.00082553 -3.17916e-05 -5.26309e-07
-3.17916e-05 0.000119972 7.7152e-07
-5.26309e-07 7.7152e-07 2.76645e-05
0.00177698 -0.000138148 7.91595e-07
-0.000138148 1.81396e-05 -4.21151e-07
7.91595e-07 -4.21151e-07 -3.12612e-05
0.00186342 -0.000254006 -1.31425e-06
-0.000254006 4.00751e-05 -3.39404e-07
-1.31425e-06 -3.39404e-07 -3.20105e-05
0.000914935 -0.000151083 2.54088e-06
-0.000151083 8.57923e-05 -2.25304e-09
2.54088e-06 -2.25304e-09 -7.2517e-05
0.00145322 -0.00028396 2.71784e-06
-0.00028396 0.000227184 -2.36662e-07
2.71784e-06 -2.36662e-07 -2.97196e-05
0.00172465 -0.0003091 3.05431e-07
-0.0003091 9.51615e-05 5.99272e-07
3.05431e-07 5.99272e-07 -3.97985e-05
0.000655029 -9.26094e-06 -2.57958e-07
-9.26094e-06 3.10725e-05 -4.42047e-09
-2.57958e-07 -4.42047e-09 -7.32566e-05
0.000885807 -5.46486e-05 -5.06318e-07
-5.46486e-05 0.000152152 2.08894e-07
-5.06318e-07 2.08894e-07 4.40944e-05
0.000573327 -0.000164296 -5.50767e-06
-0.000164296 -9.06907e-05 1.15454e-06
-5.50767e-06 1.15454e-06 -0.000224059
0.000744635 -8.21549e-05 4.90637e-07
-8.21549e-05 0.000130128 -1.84127e-07
4.90637e-07 -1.84127e-07 -3.79375e-05
0.000743601 -6.49778e-05 -3.54767e-07
-6.49778e-05 5.73011e-05 9.88253e-08
-3.54767e-07 9.88253e-08 -6.27476e-05
0.00207196 -0.000157315 -6.55684e-06
-0.000157315 0.000114767 2.03691e-07
-6.55684e-06 2.03691e-07 8.42671e-05
0.00185208 -0.000161821 -1.34804e-06
-0.000161821 2.67675e-05 1.1879e-06
-1.34804e-06 1.1879e-06 -1.16182e-05
0.00220013 -0.000348088 -1.48034e-06
-0.000348088 0.000224112 -9.09402e-07
-1.48034e-06 -9.09402e-07 0.000124768
0.00251605 -0.000381338 -1.48557e-05
-0.000381338 0.000665213 2.05939e-06
-1.48557e-05 2.05939e-06 0.000475619
0.000908838 -0.000156522 -7.04943e-06
-0.000156522 0.0001217 -2.58798e-06
-7.04943e-06 -2.58798e-06 -7.13005e-05
0.000509402 1.93048e-05 8.06876e-07
1.93048e-05 -6.23103e-05 -1.87757e-06
8.06876e-07 -1.87757e-06 -0.000150378
0.000516991 4.74904e-05 4.33728e-07
4.74904e-05 -5.73249e-05 -1.19249e-06
4.33728e-07 -1.19249e-06 -0.000153243
0.000777028 1.14267e-05 9.24116e-07
1.14267e-05 0.000101292 -5.49921e-07
9.24116e-07 -5.49921e-07 -2.85464e-06
0.00100673 -9.94315e-05 1.659e-06
-9.94315e-05 0.000234363 7.02901e-08
1.659e-06 7.02901e-08 0.000117999
0.000688931 -3.47082e-05 9.41391e-07
-3.47082e-05 2.86262e-05 8.3168e-07
9.41391e-07 8.3168e-07 -7.68114e-05
0.000473996 -3.78779e-05 2.57881e-06
-3.78779e-05 -3.98224e-05 2.09977e-07
2.57881e-06 2.09977e-07 -0.000194222
0.000813248 -0.000160321 7.31877e-06
-0.000160321 0.000183441 1.30178e-06
7.31877e-06 1.30178e-06 -3.40631e-05
0.000734636 5.51138e-05 8.11957e-07
5.51138e-05 7.35932e-05 -2.4395e-06
8.11957e-07 -2.4395e-06 -2.21335e-05
0.000602527 6.31289e-05 1.18704e-06
6.31289e-05 1.03824e-05 -2.26531e-07
1.18704e-06 -2.26531e-07 -0.000116378
0.00190919 0.000132415 2.41982e-06
0.000132415 5.07771e-05 -7.19166e-07
2.41982e-06 -7.19166e-07 1.06831e-05
0.00164755 0.000202706 4.7824e-06
0.000202706 -5.71825e-05 6.5514e-08
4.7824e-06 6.5514e-08 -0.00013656
0.00190259 0.000305435 5.13938e-06
0.000305435 0.000185302 1.29561e-06
5.13938e-06 1.29561e-06 3.10182e-05
0.000434903 0.000133396 1.77978e-06
0.000133396 -0.000136077 -1.36809e-06
1.77978e-06 -1.36809e-06 -0.000336097
0.00219475 0.000322435 3.88632e-06
0.000322435 0.000590081 1.3853e-06
3.88632e-06 1.3853e-06 0.00035854
0.00109181 4.62066e-05 -2.70305e-07
4.62066e-05 0.000274567 5.49289e-07
-2.70305e-07 5.49289e-07 0.000168564
0.00196108 0.000135931 -1.81851e-06
0.000135931 0.00011115 -1.15835e-07
-1.81851e-06 -1.15835e-07 9.5309e-05
0.00135348 0.000174909 -1.16132e-06
0.000174909 0.000411401 -4.55481e-07
-1.16132e-06 -4.55481e-07 0.000256393
0.00174245 0.000249753 -8.39931e-07
0.000249753 0.000537825 1.48011e-06
-8.39931e-07 1.48011e-06 0.00031512
0.00193105 0.000300515 3.91806e-07
0.000300515 0.000107517 -1.82475e-06
3.91806e-07 -1.82475e-06 8.80456e-06
0.00149502 0.000299583 -1.00244e-06
0.000299583 0.000126812 2.21115e-06
-1.00244e-06 2.21115e-06 -8.42837e-05
0.0013857 0.000199615 1.99505e-05
0.000199615 -0.000217032 1.04744e-06
1.99505e-05 1.04744e-06 -0.000461351
0.00113684 9.00332e-05 -2.67368e-06
9.00332e-05 0.000301416 -1.41516e-06
-2.67368e-06 -1.41516e-06 0.000180071
0.00241415 0.000219729 -2.8215e-05
0.000219729 0.000376462 -1.32836e-05
-2.8215e-05 -1.32836e-05 0.000377174
0.00135397 0.000201569 -5.71573e-06
0.000201569 0.000402205 -1.47767e-06
-5.71573e-06 -1.47767e-06 0.000234058
0.00119254 0.000238089 -5.21275e-06
0.000238089 0.000154819 -6.65508e-07
-5.21275e-06 -6.65508e-07 -7.7679e-05
0.000566647 0.000316605 -9.08897e-06
0.000316605 -0.000502862 -4.70058e-06
-9.08897e-06 -4.70058e-06 -0.000677433
0.00856302 0.000147108 -0.00011078
0.000147108 0.00248978 -4.48468e-05
-0.00011078 -4.48468e-05 0.00155807
0.00432192 0.00041079 0.000105547
0.00041079 0.000691157 -5.17189e-06
0.000105547 -5.17189e-06 3.71645e-05
0.00069825 0.000296592 1.30479e-05
0.000296592 -0.000324091 1.74462e-05
1.30479e-05 1.74462e-05 -0.000456529
-0.00421535 -0.000393274 0.000129191
-0.000393274 -0.0015559 -1.1473e-05
0.000129191 -1.1473e-05 -0.00204071
0.00440772 -0.00105436 -1.9465e-05
-0.00105436 0.000614488 -4.0162e-06
-1.9465e-05 -4.0162e-06 0.00215554
0.000768034 -6.24252e-06 7.12275e-07
-6.24252e-06 8.57385e-05 -3.7083e-07
7.12275e-07 -3.7083e-07 1.20488e-06
0.000914383 -1.4468e-05 9.20264e-07
-1.4468e-05 0.000160794 -3.60539e-07
9.20264e-07 -3.60539e-07 7.29586e-05
0.000920637 3.89253e-05 -8.89531e-07
3.89253e-05 0.000157397 -1.95927e-06
-8.89531e-07 -1.95927e-06 6.87496e-05
0.000717162 -5.54617e-05 1.15341e-07
-5.54617e-05 4.06337e-05 -1.02347e-06
1.15341e-07 -1.02347e-06 -3.17328e-05
0.000677445 4.97189e-05 -1.0088e-06
4.97189e-05 1.5495e-05 -3.21727e-07
-1.0088e-06 -3.21727e-07 -6.63052e-05
0.000825345 -3.78635e-05 -8.8688e-08
-3.78635e-05 0.000102393 3.52043e-08
-8.8688e-08 3.52043e-08 1.77726e-05
0.000891815 -8.81468e-06 -1.19119e-06
-8.81468e-06 0.000133735 8.04795e-07
-1.19119e-06 8.04795e-07 5.14152e-05
0.000808995 -2.91335e-05 -4.38319e-07
-2.91335e-05 8.38345e-05 -3.63634e-07
-4.38319e-07 -3.63634e-07 2.73457e-07
0.000785248 5.08332e-05 -8.83745e-07
5.08332e-05 7.89519e-05 -2.95916e-07
-8.83745e-07 -2.95916e-07 -9.65905e-06
0.000665193 -6.17129e-06 -6.6594e-08
-6.17129e-06 4.66849e-07 5.90012e-07
-6.6594e-08 5.90012e-07 -6.73414e-05
0.00075789 2.16652e-05 -1.38398e-07
2.16652e-05 6.34276e-05 -1.27209e-08
-1.38398e-07 -1.27209e-08 -2.52257e-05
0.000834401 -1.86052e-05 1.9771e-07
-1.86052e-05 8.95022e-05 5.75411e-07
1.9771e-07 5.75411e-07 8.8284e-06
0.000849017 6.31231e-06 -3.75399e-07
6.31231e-06 0.000104117 -2.16162e-07
-3.75399e-07 -2.16162e-07 1.97046e-05
0.000873242 4.16362e-05 -2.88225e-07
4.16362e-05 0.000115849 -8.83696e-07
-2.88225e-07 -8.83696e-07 3.10729e-05
0.000667203 8.19953e-06 5.53792e-07
8.19953e-06 -3.06231e-06 -1.69601e-06
5.53792e-07 -1.69601e-06 -8.2354e-05
0.000864814 4.43007e-05 1.33241e-06
4.43007e-05 0.000111223 5.82815e-08
1.33241e-06 5.82815e-08 2.47876e-05
0.000691307 -5.60406e-06 1.04534e-06
-5.60406e-06 1.44504e-05 -2.41502e-07
1.04534e-06 -2.41502e-07 -7.06133e-05
0.000609624 -4.71653e-05 -1.24048e-06
-4.71653e-05 -2.99674e-05 1.34438e-06
-1.24048e-06 1.34438e-06 -0.000100218
0.000843836 1.25508e-05 -5.38822e-07
1.25508e-05 0.000110648 -2.18699e-07
-5.38822e-07 -2.18699e-07 2.41272e-05
0.000867087 5.44078e-05 1.91329e-07
5.44078e-05 0.000123244 -1.43765e-06
1.91329e-07 -1.43765e-06 3.60465e-05
0.000727083 1.42757e-06 -7.20225e-07
1.42757e-06 5.50976e-05 -3.31432e-07
-7.20225e-07 -3.31432e-07 -2.87318e-05
0.000836568 3.52842e-06 8.21139e-07
3.52842e-06 0.000112845 -4.34156e-07
8.21139e-07 -4.34156e-07 2.71573e-05
0.000737548 -4.82329e-05 -1.62153e-06
-4.82329e-05 4.26462e-05 6.4409e-07
-1.62153e-06 6.4409e-07 -2.38516e-05
0.000605647 1.97525e-06 1.09974e-07
1.97525e-06 -3.05088e-05 6.19245e-07
1.09974e-07 6.19245e-07 -0.00010099
0.000695785 9.9122e-06 -5.46379e-07
9.9122e-06 3.65925e-06 1.70199e-06
-5.46379e-07 1.70199e-06 -3.82115e-05
0.000685435 -1.5781e-06 1.82253e-07
-1.5781e-06 -1.00107e-06 -1.49897e-08
1.82253e-07 -1.49897e-08 -4.24963e-05
0.000673292 7.219e-06 -3.79959e-07
7.219e-06 -2.72143e-05 5.03688e-06
-3.79959e-07 5.03688e-06 -3.72363e-05
0.000685307 4.18729e-07 2.63943e-08
4.18729e-07 -1.45977e-06 -1.62133e-06
2.63943e-08 -1.62133e-06 -4.24595e-05
0.000658002 1.47522e-06 2.56552e-07
1.47522e-06 -3.73201e-05 -6.61013e-09
2.56552e-07 -6.61013e-09 -4.67461e-05
0.00223923 -1.11883e-06 9.06832e-08
-1.11883e-06 0.000867734 4.8466e-06
9.06832e-08 4.8466e-06 0.000886429
0.000683662 -4.39016e-06 -4.84352e-07
-4.39016e-06 -2.23484e-05 -5.05106e-06
-4.84352e-07 -5.05106e-06 -3.15794e-05
0.00155541 -8.2601e-06 -3.05897e-07
-8.2601e-06 0.00047753 4.70493e-08
-3.05897e-07 4.70493e-08 0.000492682
0.000832202 -1.33488e-05 -3.01932e-07
-1.33488e-05 6.61069e-05 -1.85059e-06
-3.01932e-07 -1.85059e-06 7.80542e-05
0.0006938 1.24262e-05 -2.36429e-07
1.24262e-05 3.90502e-06 -1.88191e-06
-2.36429e-07 -1.88191e-06 -3.06625e-05
0.000702173 7.74346e-07 1.90582e-07
7.74346e-07 8.26802e-06 3.73528e-08
1.90582e-07 3.73528e-08 -2.7835e-05
0.000669303 1.31128e-05 1.12013e-07
1.31128e-05 -2.92148e-05 -3.50545e-06
1.12013e-07 -3.50545e-06 -3.54351e-05
0.000704972 -6.70124e-06 -1.2894e-06
-6.70124e-06 9.29354e-06 2.06064e-06
-1.2894e-06 2.06064e-06 -2.89112e-05
0.000963508 2.22167e-05 -1.84395e-07
2.22167e-05 0.000141792 -7.37438e-07
-1.84395e-07 -7.37438e-07 0.000135577
0.00211845 3.12877e-05 1.26901e-05
3.12877e-05 0.000806237 -4.45185e-06
1.26901e-05 -4.45185e-06 0.000824476
0.000656591 2.68788e-05 -4.81283e-07
2.68788e-05 -2.82136e-05 3.84926e-06
-4.81283e-07 3.84926e-06 -3.93802e-05
0.00225342 4.31892e-05 -7.61908e-06
4.31892e-05 0.000889824 1.20077e-06
-7.61908e-06 1.20077e-06 0.000905525
0.00233269 5.62958e-05 -2.2417e-05
5.62958e-05 0.000941401 4.23446e-06
-2.2417e-05 4.23446e-06 0.000954417
0.00172335 9.11483e-05 -1.57902e-06
9.11483e-05 -1.50234e-05 -4.53687e-07
-1.57902e-06 -4.53687e-07 -7.21492e-05
0.00172675 1.18439e-05 4.02715e-07
1.18439e-05 2.102e-05 -2.64438e-07
4.02715e-07 -2.64438e-07 -4.99638e-05
0.00169369 5.85508e-05 6.90788e-06
5.85508e-05 -5.15854e-05 -7.89183e-07
6.90788e-06 -7.89183e-07 -7.03942e-05
0.00209928 9.60172e-05 2.00411e-05
9.60172e-05 -8.83034e-05 3.80886e-06
2.00411e-05 3.80886e-06 -0.000142526
0.00181497 1.18428e-05 -2.10576e-06
1.18428e-05 1.17607e-05 -2.40301e-07
-2.10576e-06 -2.40301e-07 -2.15942e-05
0.0018411 4.3427e-05 3.46469e-06
4.3427e-05 0.00013143 1.05981e-06
3.46469e-06 1.05981e-06 0.000134806
0.00261654 -3.05252e-06 -1.62538e-05
-3.05252e-06 0.000549975 -4.72133e-09
-1.62538e-05 -4.72133e-09 0.000516216
0.00280427 1.8366e-05 0.000138073
1.8366e-05 -2.16877e-06 -1.16723e-05
0.000138073 -1.16723e-05 -0.000273388
0.00215915 3.76523e-06 -1.20009e-05
3.76523e-06 9.41172e-05 -3.64028e-06
-1.20009e-05 -3.64028e-06 3.9982e-05
0.000737861 5.30832e-05 -5.40529e-07
5.30832e-05 5.33101e-05 -1.28305e-06
-5.40529e-07 -1.28305e-06 -8.4619e-06
0.000743485 -9.95108e-06 6.82869e-07
-9.95108e-06 5.87506e-05 -5.63996e-08
6.82869e-07 -5.63996e-08 -5.65084e-06
0.000705616 -6.40087e-05 3.16036e-08
-6.40087e-05 4.40256e-05 -7.39186e-07
3.16036e-08 -7.39186e-07 -3.44532e-05
0.000731051 -2.43514e-05 -1.14174e-06
-2.43514e-05 6.83783e-05 -3.84373e-07
-1.14174e-06 -3.84373e-07 -1.68379e-05
0.00190924 -9.23622e-05 4.75389e-07
-9.23622e-05 4.64276e-05 2.32408e-07
4.75389e-07 2.32408e-07 2.41567e-06
0.00177408 -0.000146873 -2.97229e-06
-0.000146873 8.14335e-06 5.30984e-07
-2.97229e-06 5.30984e-07 -4.19283e-05
0.00180383 -0.000249039 -6.56104e-06
-0.000249039 2.22793e-05 9.35584e-07
-6.56104e-06 9.35584e-07 -5.65373e-05
0.00124538 -0.000204802 3.10951e-06
-0.000204802 0.000258684 3.33923e-06
3.10951e-06 3.33923e-06 0.000101501
5.52423e-05 -0.00018182 5.33685e-06
-0.00018182 -0.000506142 -1.30922e-06
5.33685e-06 -1.30922e-06 -0.000758094
0.00193488 -0.000328073 9.41767e-07
-0.000328073 0.000215375 -2.99016e-06
9.41767e-07 -2.99016e-06 7.52867e-05
0.000564131 -0.000151774 -6.19235e-06
-0.000151774 -8.19939e-05 2.94286e-07
-6.19235e-06 2.94286e-07 -0.000229267
0.0012442 -8.9316e-05 -8.0242e-07
-8.9316e-05 0.000385774 -1.93477e-06
-8.0242e-07 -1.93477e-06 0.000233114
0.000772358 -8.8957e-05 -2.02435e-06
-8.8957e-05 7.29713e-05 9.54215e-07
-2.02435e-06 9.54215e-07 -4.72257e-05
0.000760497 -2.56952e-05 -9.28824e-07
-2.56952e-05 6.6129e-05 1.86815e-06
-9.28824e-07 1.86815e-06 -4.39399e-06
0.00070814 -6.61115e-05 -1.09802e-06
-6.61115e-05 5.84411e-05 4.2244e-08
-1.09802e-06 4.2244e-08 -5.54562e-05
0.000804985 -1.27955e-05 -1.25284e-06
-1.27955e-05 0.000113095 1.10487e-06
-1.25284e-06 1.10487e-06 1.10972e-05
0.000737879 1.64008e-06 1.63009e-07
1.64008e-06 5.93215e-05 8.56158e-07
1.63009e-07 8.56158e-07 -8.98065e-06
0.000672164 1.64157e-05 -9.04539e-07
1.64157e-05 3.5558e-05 2.52873e-06
-9.04539e-07 2.52873e-06 -5.98496e-05
0.0020303 -0.000140085 8.32042e-07
-0.000140085 0.000117276 3.96949e-07
8.32042e-07 3.96949e-07 8.42208e-05
0.000733472 4.70215e-06 7.25123e-07
4.70215e-06 6.85861e-05 -5.42917e-07
7.25123e-07 -5.42917e-07 -2.01094e-05
0.000679992 1.04841e-05 8.22315e-07
1.04841e-05 3.85646e-05 -1.71354e-07
8.22315e-07 -1.71354e-07 -5.87581e-05
0.000691822 6.26549e-05 -1.17943e-07
6.26549e-05 5.72007e-05 1.4012e-06
-1.17943e-07 1.4012e-06 -4.5756e-05
0.00191727 -0.000166174 -2.38828e-06
-0.000166174 4.3524e-05 2.26326e-07
-2.38828e-06 2.26326e-07 1.66376e-06
0.00193847 -0.000329004 1.25986e-06
-0.000329004 9.05969e-05 -4.01543e-07
1.25986e-06 -4.01543e-07 -3.10211e-06
0.00109666 -0.000206994 -7.39287e-07
-0.000206994 0.000207598 -3.96085e-07
-7.39287e-07 -3.96085e-07 1.15368e-05
0.00238532 -0.000375022 -2.49029e-06
-0.000375022 0.000592055 1.11989e-06
-2.49029e-06 1.11989e-06 0.000399251
0.00100028 -4.38653e-05 -4.89018e-07
-4.38653e-05 0.000224212 1.47651e-07
-4.89018e-07 1.47651e-07 0.000111668
0.000695748 -5.42951e-05 -5.71747e-07
-5.42951e-05 3.57772e-05 8.74245e-07
-5.71747e-07 8.74245e-07 -7.56353e-05
0.000910541 -0.000170359 3.06184e-06
-0.000170359 0.000231926 -7.78337e-07
3.06184e-06 -7.78337e-07 1.77047e-05
0.000999797 -9.80815e-05 8.13599e-07
-9.80815e-05 0.000251638 -4.86174e-07
8.13599e-07 -4.86174e-07 8.67495e-05
0.00214366 -0.000120208 -1.25393e-05
-0.000120208 0.000155677 3.79398e-06
-1.25393e-05 3.79398e-06 0.000119159
0.00212807 -0.000278145 -9.24892e-06
-0.000278145 9.16242e-05 3.60789e-07
-9.24892e-06 3.60789e-07 0.000103883
0.00237664 -0.000388125 -8.53777e-06
-0.000388125 0.000456448 -4.39579e-06
-8.53777e-06 -4.39579e-06 0.000305478
0.00152402 -0.000300643 -2.18237e-06
-0.000300643 0.000386932 1.46951e-06
-2.18237e-06 1.46951e-06 0.000192721
0.00067802 2.29112e-05 -4.63537e-07
2.29112e-05 5.1527e-05 -1.79852e-06
-4.63537e-07 -1.79852e-06 -6.06568e-05
0.00068207 -6.20043e-05 1.06021e-06
-6.20043e-05 5.39263e-05 -2.7202e-06
1.06021e-06 -2.7202e-06 -6.36718e-05
0.000693765 -5.41801e-05 9.7012e-07
-5.41801e-05 6.5505e-05 5.29214e-07
9.7012e-07 5.29214e-07 -5.40716e-05
0.000597089 -3.20382e-05 9.04813e-07
-3.20382e-05 0.000103038 -6.24267e-09
9.04813e-07 -6.24267e-09 -0.000144542
0.000422383 -0.00016415 2.55108e-05
-0.00016415 -0.00196705 1.41979e-07
2.55108e-05 1.41979e-07 -0.0024608
0.00100453 3.00415e-05 1.13432e-06
3.00415e-05 0.000222731 -2.018e-06
1.13432e-06 -2.018e-06 0.000123321
0.000469297 0.000107413 2.9876e-06
0.000107413 -7.39102e-05 1.19192e-06
2.9876e-06 1.19192e-06 -0.000217469
0.0016554 0.000121886 2.11638e-05
0.000121886 -5.19764e-05 2.28137e-06
2.11638e-05 2.28137e-06 -6.0416e-05
0.00207932 0.000298803 6.63013e-06
0.000298803 0.000188344 1.34815e-06
6.63013e-06 1.34815e-06 9.10849e-05
0.00148805 0.000304883 5.27177e-06
0.000304883 0.000121059 3.16545e-06
5.27177e-06 3.16545e-06 -9.67784e-05
0.000672134 0.00016889 4.65783e-06
0.00016889 -2.27455e-05 1.31571e-06
4.65783e-06 1.31571e-06 -0.000247871
0.0024414 0.000252208 2.75143e-05
0.000252208 0.000119956 5.71534e-06
2.75143e-05 5.71534e-06 -0.000190399
0.00100983 7.54338e-05 1.05316e-06
7.54338e-05 0.000237682 -4.79852e-07
1.05316e-06 -4.79852e-07 0.000117711
0.00232104 0.000219796 -7.72913e-06
0.000219796 0.000323856 -1.82189e-06
-7.72913e-06 -1.82189e-06 0.00033264
0.00106167 0.000179402 7.11126e-07
0.000179402 0.000248278 -3.13306e-07
7.11126e-07 -3.13306e-07 8.38201e-05
0.00117555 0.000245174 -3.43179e-07
0.000245174 0.00015269 -1.63025e-09
-3.43179e-07 -1.63025e-09 -8.22732e-05
0.00141968 0.000369837 -2.87965e-06
0.000369837 -8.00957e-05 -1.57488e-06
-2.87965e-06 -1.57488e-06 -0.000247696
0.00288677 -0.000144095 -7.0307e-05
-0.000144095 -0.000425639 -2.21351e-05
-7.0307e-05 -2.21351e-05 -0.00132494
0.00432103 0.000321188 8.13741e-07
0.000321188 0.000476272 -1.74727e-05
8.13741e-07 -1.74727e-05 -0.000271922
0.000191488 0.000227419 3.49354e-06
0.000227419 -0.000536697 6.77809e-06
3.49354e-06 6.77809e-06 -0.000687232
-0.000742151 -0.000314484 7.46004e-05
-0.000314484 0.000428037 2.59495e-05
7.46004e-05 2.59495e-05 -0.000283564
-0.000648632 -0.00104052 -2.50455e-05
-0.00104052 -0.00146241 -4.27204e-05
-2.50455e-05 -4.27204e-05 0.000248189
0.00121202 0.000133645 -3.37087e-06
0.000133645 0.000353162 -3.67792e-06
-3.37087e-06 -3.67792e-06 0.000234848
0.000445257 0.000212648 1.37517e-05
0.000212648 0.000904605 -3.16954e-05
1.37517e-05 -3.16954e-05 0.000232973
0.00121007 -0.000400112 -6.82666e-05
-0.000400112 0.00119204 -8.28786e-05
-6.82666e-05 -8.28786e-05 0.000826359
0.00269782 0.000328723 -2.42668e-05
0.000328723 0.000586788 -7.61204e-06
-2.42668e-05 -7.61204e-06 0.000599895
0.00113499 0.00012076 -1.13347e-05
0.00012076 0.000285262 -2.62453e-06
-1.13347e-05 -2.62453e-06 0.000110089
0.00106087 0.000364468 -1.77773e-05
0.000364468 2.74228e-05 -1.02445e-05
-1.77773e-05 -1.02445e-05 -0.00022403
-0.000201669 0.000275445 1.86442e-05
0.000275445 -0.000752185 5.08891e-05
1.86442e-05 5.08891e-05 -0.000800932
0.00827629 0.000185834 -4.08507e-05
0.000185834 0.0027663 -2.42877e-05
-4.08507e-05 -2.42877e-05 0.00132779
0.00376337 0.000607202 -6.01352e-06
0.000607202 0.000818185 1.18228e-05
-6.01352e-06 1.18228e-05 -0.000395805
0.000734372 -0.000860541 6.84193e-05
-0.000860541 -0.000446231 5.97994e-05
6.84193e-05 5.97994e-05 2.98855e-05
0.00189297 -0.000558164 -1.08946e-05
-0.000558164 -0.00166846 8.84442e-05
-1.08946e-05 8.84442e-05 -0.000306595
0.000797286 -2.12938e-05 1.23335e-06
-2.12938e-05 0.000101926 -8.06943e-07
1.23335e-06 -8.06943e-07 1.45602e-05
0.000902628 3.6709e-05 5.10194e-07
3.6709e-05 0.000150751 5.10415e-07
5.10194e-07 5.10415e-07 6.17866e-05
0.00120345 8.46233e-05 -2.06561e-06
8.46233e-05 0.000322108 -2.82129e-06
-2.06561e-06 -2.82129e-06 0.000249479
0.000722444 3.64285e-06 1.30067e-07
3.64285e-06 4.51221e-05 -1.38509e-07
1.30067e-07 -1.38509e-07 -2.9862e-05
0.000792139 2.29992e-05 -3.53923e-07
2.29992e-05 8.12728e-05 -4.66512e-07
-3.53923e-07 -4.66512e-07 -6.01714e-06
0.000666859 -2.58592e-05 -6.74828e-07
-2.58592e-05 4.97991e-06 4.9925e-08
-6.74828e-07 4.9925e-08 -7.77661e-05
0.000861931 8.49227e-06 -4.181e-07
8.49227e-06 0.00011049 3.92952e-07
-4.181e-07 3.92952e-07 2.73552e-05
0.000827786 -1.68488e-05 -4.23808e-07
-1.68488e-05 8.54071e-05 8.9747e-07
-4.23808e-07 8.9747e-07 4.76796e-06
0.000603549 -1.97095e-06 4.79322e-07
-1.97095e-06 -3.09415e-05 5.98741e-07
4.79322e-07 5.98741e-07 -0.00010282
0.000841472 7.68686e-06 -5.4204e-08
7.68686e-06 9.77164e-05 -1.10809e-07
-5.4204e-08 -1.10809e-07 1.32775e-05
0.000866776 6.99232e-06 4.35685e-08
6.99232e-06 0.000114057 3.03757e-07
4.35685e-08 3.03757e-07 2.73358e-05
0.000773207 1.89163e-05 6.02225e-07
1.89163e-05 7.13184e-05 -2.94141e-07
6.02225e-07 -2.94141e-07 -1.97112e-05
0.00070348 1.10941e-05 -3.93066e-08
1.10941e-05 1.61888e-05 2.29424e-08
-3.93066e-08 2.29424e-08 -6.23186e-05
0.000945514 6.11574e-06 1.64335e-07
6.11574e-06 0.000150938 -1.05132e-06
1.64335e-07 -1.05132e-06 6.85263e-05
0.000612085 3.57282e-05 -1.38569e-06
3.57282e-05 -3.40339e-05 -5.29099e-06
-1.38569e-06 -5.29099e-06 -0.000113046
0.000840093 -6.47641e-05 2.73186e-08
-6.47641e-05 9.56348e-05 -5.95436e-07
2.73186e-08 -5.95436e-07 4.31063e-06
0.000854962 -5.21734e-05 -6.10807e-07
-5.21734e-05 0.000120625 -6.01126e-07
-6.10807e-07 -6.01126e-07 2.7744e-05
0.000849767 -1.57231e-05 -4.96208e-07
-1.57231e-05 0.000117126 -2.64008e-07
-4.96208e-07 -2.64008e-07 2.78971e-05
0.000873174 3.66746e-05 -5.09461e-07
3.66746e-05 0.000121017 -2.82771e-07
-5.09461e-07 -2.82771e-07 3.71745e-05
0.000827645 1.74728e-05 -7.75434e-07
1.74728e-05 0.000105817 -1.2757e-06
-7.75434e-07 -1.2757e-06 8.4307e-06
0.000790092 4.34518e-05 6.43456e-07
4.34518e-05 8.28482e-05 -8.71655e-07
6.43456e-07 -8.71655e-07 -1.98749e-06
0.000660966 2.09e-05 5.6939e-07
2.09e-05 -7.10124e-06 -1.47515e-06
5.6939e-07 -1.47515e-06 -8.36293e-05
0.000685988 4.72104e-05 1.66467e-06
4.72104e-05 3.37183e-05 7.75027e-07
1.66467e-06 7.75027e-07 -5.32639e-05
0.000731154 -2.79556e-06 -6.58954e-09
-2.79556e-06 4.60642e-05 -1.76211e-07
-6.58954e-09 -1.76211e-07 -2.75395e-05
0.000754916 -1.04312e-05 -1.74602e-07
-1.04312e-05 6.71061e-05 3.34743e-09
-1.74602e-07 3.34743e-09 -1.44689e-05
0.000730177 -1.19425e-05 -1.24147e-06
-1.19425e-05 3.29337e-05 4.30211e-07
-1.24147e-06 4.30211e-07 -2.82505e-05
0.000772597 -1.051e-06 9.14964e-07
-1.051e-06 6.44464e-05 -1.82994e-07
9.14964e-07 -1.82994e-07 -1.41888e-05
0.000702363 -4.32986e-05 -2.63437e-08
-4.32986e-05 2.18185e-05 7.54183e-08
-2.63437e-08 7.54183e-08 -4.49478e-05
0.000713283 1.13353e-05 -9.81863e-07
1.13353e-05 1.14945e-05 1.67124e-06
-9.81863e-07 1.67124e-06 -3.0242e-05
0.000611076 1.53052e-06 7.15456e-07
1.53052e-06 -2.25498e-05 -2.1117e-07
7.15456e-07 -2.1117e-07 -9.63602e-05
0.000698997 7.86101e-06 2.83437e-07
7.86101e-06 5.35188e-06 -2.33476e-08
2.83437e-07 -2.33476e-08 -3.6501e-05
0.00136039 1.6548e-05 -2.87392e-06
1.6548e-05 0.000366973 4.94892e-06
-2.87392e-06 4.94892e-06 0.000360194
0.000686251 8.30271e-06 2.20392e-07
8.30271e-06 -6.52422e-07 -1.60091e-06
2.20392e-07 -1.60091e-06 -4.21023e-05
0.00101106 8.79615e-06 -1.5161e-06
8.79615e-06 0.000165524 7.50682e-07
-1.5161e-06 7.50682e-07 0.00015741
0.000890422 3.87831e-06 -3.39817e-06
3.87831e-06 9.83843e-05 4.71693e-06
-3.39817e-06 4.71693e-06 0.000109563
0.000664167 1.66604e-06 4.90374e-08
1.66604e-06 -3.37737e-05 -3.46645e-06
4.90374e-08 -3.46645e-06 -4.32424e-05
0.00224572 3.35598e-08 3.36822e-06
3.35598e-08 0.00087147 -1.16867e-09
3.36822e-06 -1.16867e-09 0.000890112
0.000903254 -3.7554e-06 -3.22688e-06
-3.7554e-06 0.000105334 -4.72242e-06
-3.22688e-06 -4.72242e-06 0.000116975
0.000748925 6.36813e-05 1.01691e-06
6.36813e-05 6.54846e-05 -5.17302e-07
1.01691e-06 -5.17302e-07 -1.77396e-06
0.000707408 1.12356e-05 -4.12446e-07
1.12356e-05 1.11409e-05 -1.89963e-06
-4.12446e-07 -1.89963e-06 -2.30881e-05
0.000697514 2.76225e-06 3.59027e-07
2.76225e-06 5.96011e-06 1.61562e-08
3.59027e-07 1.61562e-08 -2.86794e-05
0.000667806 6.79726e-06 -6.66041e-08
6.79726e-06 -3.19109e-05 -3.48293e-06
-6.66041e-08 -3.48293e-06 -3.71751e-05
0.000712434 -8.26481e-06 -7.51263e-07
-8.26481e-06 1.38912e-05 1.99543e-06
-7.51263e-07 1.99543e-06 -2.23057e-05
0.000658393 1.31451e-05 -3.57352e-09
1.31451e-05 -3.58989e-05 -7.45324e-07
-3.57352e-09 -7.45324e-07 -4.19855e-05
0.00208753 2.05225e-05 8.44211e-06
2.05225e-05 0.000784694 -4.57984e-06
8.44211e-06 -4.57984e-06 0.000804238
0.00127925 2.71704e-05 -9.23847e-07
2.71704e-05 0.000322144 2.16563e-06
-9.23847e-07 2.16563e-06 0.000317268
0.00153423 2.67582e-05 3.66319e-07
2.67582e-05 0.000473761 1.45712e-06
3.66319e-07 1.45712e-06 0.000488057
0.000960503 2.95852e-05 -1.67245e-05
2.95852e-05 0.000152135 7.42623e-06
-1.67245e-05 7.42623e-06 0.000160779
0.00114923 5.66653e-05 3.84612e-05
5.66653e-05 -0.000515707 1.26279e-05
3.84612e-05 1.26279e-05 -0.000598668
0.00181659 6.92841e-06 2.20221e-06
6.92841e-06 8.59337e-06 1.4926e-07
2.20221e-06 1.4926e-07 -2.3661e-05
0.00185045 4.62225e-05 2.21052e-05
4.62225e-05 0.000144247 -6.99035e-07
2.21052e-05 -6.99035e-07 0.000140872
0.000811039 4.08033e-05 1.08449e-05
4.08033e-05 -0.000771312 -5.16084e-06
1.08449e-05 -5.16084e-06 -0.0010552
0.00176693 1.27864e-05 7.10868e-06
1.27864e-05 -8.92397e-05 1.09015e-06
7.10868e-06 1.09015e-06 -0.000111346
0.00210099 -1.21021e-05 -1.46485e-06
-1.21021e-05 0.000203267 -5.24511e-07
-1.46485e-06 -5.24511e-07 0.000173399
0.00295272 -2.81069e-05 -4.98943e-05
-2.81069e-05 0.000571674 5.51584e-06
-4.98943e-05 5.51584e-06 0.000557784
0.00274396 -0.000102877 0.000142355
-0.000102877 0.000244158 -1.16267e-05
0.000142355 -1.16267e-05 2.59889e-06
0.00762876 -0.000219123 -1.45081e-05
-0.000219123 0.00198846 1.66552e-05
-1.45081e-05 1.66552e-05 0.000885938
0.00605938 0.000928844 0.000118261
0.000928844 0.00299234 -4.92396e-05
0.000118261 -4.92396e-05 0.00316489
0.00246595 0.000908191 -4.70117e-06
0.000908191 0.00130647 1.62481e-05
-4.70117e-06 1.62481e-05 0.0023278
0.000476567 -6.43473e-05 1.68594e-06
-6.43473e-05 -8.21808e-05 -1.5865e-06
1.68594e-06 -1.5865e-06 -0.000162556
0.000738757 -8.69926e-06 8.9939e-07
-8.69926e-06 5.56744e-05 -5.79412e-08
8.9939e-07 -5.79412e-08 -7.41464e-06
0.000744748 -6.67105e-05 -1.22979e-06
-6.67105e-05 6.4278e-05 1.68625e-06
-1.22979e-06 1.68625e-06 -3.7636e-06
0.000699362 -2.48976e-05 -3.54788e-07
-2.48976e-05 4.36769e-05 1.04235e-07
-3.54788e-07 1.04235e-07 -3.81619e-05
0.000811372 5.97311e-05 1.90793e-07
5.97311e-05 0.000121501 2.37807e-07
1.90793e-07 2.37807e-07 2.10518e-05
0.000905729 0.000105737 8.33839e-07
0.000105737 0.000158997 5.03405e-07
8.33839e-07 5.03405e-07 6.45063e-05
0.000808246 -1.23117e-05 1.01136e-06
-1.23117e-05 0.000103977 -1.8808e-06
1.01136e-06 -1.8808e-06 2.03157e-05
0.000681306 -2.95871e-05 -6.24331e-07
-2.95871e-05 3.40097e-05 6.53458e-07
-6.24331e-07 6.53458e-07 -4.71802e-05
0.0019976 -0.000121939 7.28455e-06
-0.000121939 0.000124066 -2.32987e-07
7.28455e-06 -2.32987e-07 9.03956e-05
0.00204138 -0.000174565 1.31365e-06
-0.000174565 8.46258e-05 -1.10328e-06
1.31365e-06 -1.10328e-06 4.19919e-05
0.00160449 -0.000307109 -6.71341e-08
-0.000307109 -8.28755e-05 1.53308e-06
-6.71341e-08 1.53308e-06 -0.000170564
0.00109507 -0.000229929 3.26149e-06
-0.000229929 0.000188123 3.0539e-06
3.26149e-06 3.0539e-06 -6.94889e-06
0.00231909 -0.000372476 3.07335e-06
-0.000372476 0.000553737 7.80422e-07
3.07335e-06 7.80422e-07 0.000356756
0.000915479 -0.000173934 -9.97476e-07
-0.000173934 0.000230927 -1.30462e-06
-9.97476e-07 -1.30462e-06 1.96157e-05
0.00151052 -0.000158111 -1.11939e-06
-0.000158111 0.000537647 -3.84036e-07
-1.11939e-06 -3.84036e-07 0.000360072
0.000790941 -8.48623e-05 -1.90168e-06
-8.48623e-05 9.24872e-05 1.40471e-06
-1.90168e-06 1.40471e-06 -2.57456e-05
0.000794747 -1.93286e-05 -1.95466e-07
-1.93286e-05 0.00010623 2.08429e-06
-1.95466e-07 2.08429e-06 8.65916e-06
0.000993329 -3.9843e-06 -2.03274e-06
-3.9843e-06 0.000213885 -7.24547e-07
-2.03274e-06 -7.24547e-07 0.000105435
0.00100446 -7.97455e-06 9.56533e-07
-7.97455e-06 0.000222501 8.40299e-07
9.56533e-07 8.40299e-07 0.0001347
0.000696152 0.000107218 1.93668e-06
0.000107218 6.2439e-05 2.9465e-06
1.93668e-06 2.9465e-06 -4.03171e-05
0.00168577 -0.000119473 -4.35928e-07
-0.000119473 -8.51898e-05 -1.42034e-06
-4.35928e-07 -1.42034e-06 -0.000116659
0.000733181 3.12927e-05 -9.10908e-07
3.12927e-05 8.1085e-05 1.07714e-07
-9.10908e-07 1.07714e-07 -2.90111e-05
0.000814704 -5.15939e-05 -6.35018e-07
-5.15939e-05 0.000123765 3.2075e-08
-6.35018e-07 3.2075e-08 1.12656e-05
0.00192596 -0.000279124 1.15437e-07
-0.000279124 6.28851e-06 -1.62528e-06
1.15437e-07 -1.62528e-06 1.47902e-07
0.00138687 -0.000327147 -5.21495e-07
-0.000327147 -5.63542e-05 2.3537e-06
-5.21495e-07 2.3537e-06 -0.000188887
0.00158834 -0.000305917 1.78373e-06
-0.000305917 0.000415343 -1.51521e-06
1.78373e-06 -1.51521e-06 0.000206907
0.00088248 -6.19317e-05 5.71966e-07
-6.19317e-05 0.000173227 -9.55992e-07
5.71966e-07 -9.55992e-07 4.43054e-05
0.000946037 -6.88585e-05 -2.16355e-07
-6.88585e-05 0.00028017 2.43234e-07
-2.16355e-07 2.43234e-07 4.27544e-05
0.00304204 -0.000187364 -1.39961e-05
-0.000187364 0.000794405 7.2857e-06
-1.39961e-05 7.2857e-06 0.0007008
0.00284914 -0.0003774 -1.9108e-05
-0.0003774 0.000563862 1.93108e-06
-1.9108e-05 1.93108e-06 0.000586337
0.000208028 -0.000279322 -5.64867e-06
-0.000279322 -0.000504368 -8.75797e-07
-5.64867e-06 -8.75797e-07 -0.000649738
0.000828714 -0.00018904 -3.63834e-06
-0.00018904 9.46027e-05 9.15784e-06
-3.63834e-06 9.15784e-06 -0.000126233
0.000656348 -9.51664e-05 4.26328e-07
-9.51664e-05 3.34155e-05 -1.62444e-06
4.26328e-07 -1.62444e-06 -8.22107e-05
0.000745789 -5.5614e-05 1.65203e-06
-5.5614e-05 9.42479e-05 -1.67481e-06
1.65203e-06 -1.67481e-06 -2.76948e-05
0.000798223 -2.19494e-05 -3.29223e-07
-2.19494e-05 0.000166745 1.89209e-07
-3.29223e-07 1.89209e-07 -1.15564e-05
-0.00398208 -1.88071e-05 0.000166829
-1.88071e-05 -0.00208518 5.13941e-08
0.000166829 5.13941e-08 -0.00171173
0.00919304 -9.87379e-05 -1.96293e-05
-9.87379e-05 0.00293948 3.26549e-06
-1.96293e-05 3.26549e-06 0.00233801
0.000915286 6.22553e-05 2.51137e-06
6.22553e-05 0.000189044 5.61039e-08
2.51137e-06 5.61039e-08 7.17677e-05
0.000711611 0.000152779 4.17088e-06
0.000152779 5.94627e-05 -5.35003e-07
4.17088e-06 -5.35003e-07 -0.000100411
0.00205018 0.00020605 1.57033e-05
0.00020605 0.000176532 1.09081e-05
1.57033e-05 1.09081e-05 0.000196496
0.00224926 0.000420512 5.92104e-06
0.000420512 0.000332993 4.1527e-06
5.92104e-06 4.1527e-06 0.00017344
0.00128856 0.000261831 6.59224e-06
0.000261831 0.000223253 1.73872e-06
6.59224e-06 1.73872e-06 -1.3967e-05
0.00681146 0.000330018 7.01282e-05
0.000330018 0.00158283 1.23683e-05
7.01282e-05 1.23683e-05 0.00053621
0.0061652 0.000465807 -0.000106305
0.000465807 0.0011647 -2.75345e-05
-0.000106305 -2.75345e-05 0.000532541
-0.000647747 0.000143473 2.42867e-06
0.000143473 -0.000920502 -1.96739e-05
2.42867e-06 -1.96739e-05 -0.00108418
0.00404447 -0.000728319 -8.19251e-06
-0.000728319 0.00207639 2.81191e-05
-8.19251e-06 2.81191e-05 0.0018193
-0.00577985 -0.00105674 -0.000168838
-0.00105674 -0.00345851 -0.000151753
-0.000168838 -0.000151753 -0.00158387
0.000952785 0.000128924 5.34777e-08
0.000128924 0.000218952 -1.28162e-06
5.34777e-08 -1.28162e-06 9.98828e-05
-0.00245729 -0.000290009 5.19921e-05
-0.000290009 -0.00151087 5.13796e-06
5.19921e-05 5.13796e-06 -0.001581
-0.00117235 -0.000339186 -5.69957e-05
-0.000339186 0.000285394 -2.52958e-05
-5.69957e-05 -2.52958e-05 -0.000319026
0.00252959 0.000303005 -4.82124e-06
0.000303005 0.00046699 -1.73135e-06
-4.82124e-06 -1.73135e-06 0.000501962
0.000903359 0.000139914 -1.58038e-06
0.000139914 0.000183133 -2.66977e-07
-1.58038e-06 -2.66977e-07 1.17501e-06
0.00067271 0.000298687 3.85672e-06
0.000298687 -0.000142853 1.84799e-06
3.85672e-06 1.84799e-06 -0.000390646
0.000669126 0.000218686 1.0853e-05
0.000218686 -0.000219917 9.96565e-06
1.0853e-05 9.96565e-06 -0.000204827
0.00775078 0.000108418 -2.0854e-05
0.000108418 0.00219026 -1.60744e-05
-2.0854e-05 -1.60744e-05 0.000659978
0.00640532 0.000786916 -4.29395e-05
0.000786916 0.00168722 -1.77948e-05
-4.29395e-05 -1.77948e-05 0.000864623
0.00704195 -0.00101431 4.5778e-05
-0.00101431 0.00329192 -2.43934e-05
4.5778e-05 -2.43934e-05 0.00345064
0.00164115 -0.000661801 6.1787e-05
-0.000661801 -0.00195593 0.000130864
6.1787e-05 0.000130864 -0.000508446
0.00130386 0.000100131 -1.12556e-05
0.000100131 0.00043327 -6.78061e-06
-1.12556e-05 -6.78061e-06 0.000333069
-0.00314651 -1.25146e-05 -8.56656e-05
-1.25146e-05 -4.93907e-06 -3.00219e-05
-8.56656e-05 -3.00219e-05 -0.00117826
0.00215698 6.70266e-05 -9.30583e-05
6.70266e-05 0.00057435 -0.000117474
-9.30583e-05 -0.000117474 -0.00059402
-7.36639e-05 0.000244715 -1.96923e-05
0.000244715 -0.000565401 3.42076e-07
-1.96923e-05 3.42076e-07 -0.000570553
0.00162307 0.000322453 -3.71201e-05
0.000322453 0.000635472 -1.04549e-05
-3.71201e-05 -1.04549e-05 0.000435993
0.00291017 0.000235096 -6.87437e-05
0.000235096 0.00124305 -4.45759e-06
-6.87437e-05 -4.45759e-06 0.00102545
0.00377481 0.000726156 -6.7846e-05
0.000726156 0.000496228 -8.20355e-06
-6.7846e-05 -8.20355e-06 9.42465e-05
-0.00123789 0.000233482 8.77732e-05
0.000233482 -0.0010689 6.64595e-05
8.77732e-05 6.64595e-05 -0.0032849
0.00739832 -0.000967968 -1.56754e-05
-0.000967968 0.00203483 9.64739e-05
-1.56754e-05 9.64739e-05 0.00201631
0.00240326 -0.000393438 -1.27788e-05
-0.000393438 -0.00203953 -2.90544e-05
-1.27788e-05 -2.90544e-05 -0.00068331
0.000946473 5.3416e-05 1.95451e-06
5.3416e-05 0.00018309 3.04657e-06
1.95451e-06 3.04657e-06 8.9243e-05
0.00112594 8.14355e-05 3.35291e-06
8.14355e-05 0.000277008 2.31451e-06
3.35291e-06 2.31451e-06 0.000203075
0.000450164 5.95724e-05 -7.86171e-07
5.95724e-05 -9.76326e-05 -7.46313e-06
-7.86171e-07 -7.46313e-06 -0.000152614
0.000591474 4.27496e-05 7.44657e-07
4.27496e-05 -3.83594e-05 -1.3163e-07
7.44657e-07 -1.3163e-07 -0.000109826
0.000829905 3.7865e-05 -7.56239e-07
3.7865e-05 0.000109332 -5.70428e-07
-7.56239e-07 -5.70428e-07 1.57792e-05
0.000846266 -1.44905e-05 -3.58103e-07
-1.44905e-05 0.000102874 7.72153e-07
-3.58103e-07 7.72153e-07 1.66925e-05
0.000843324 -1.19961e-05 2.11979e-07
-1.19961e-05 0.000100914 -9.94105e-08
2.11979e-07 -9.94105e-08 1.47767e-05
0.000728883 6.16474e-06 -2.87207e-07
6.16474e-06 2.99152e-05 2.53948e-06
-2.87207e-07 2.53948e-06 -4.76093e-05
0.000848918 3.36822e-05 1.75312e-07
3.36822e-05 0.000117872 -6.05631e-07
1.75312e-07 -6.05631e-07 2.4721e-05
0.000903431 6.15745e-06 -6.45615e-08
6.15745e-06 0.000127011 3.18561e-07
-6.45615e-08 3.18561e-07 4.45297e-05
0.000864508 -3.26658e-05 -4.13408e-08
-3.26658e-05 0.000112489 4.04656e-07
-4.13408e-08 4.04656e-07 1.91734e-05
0.000459581 2.03182e-05 4.25782e-07
2.03182e-05 -0.000113537 -5.06406e-07
4.25782e-07 -5.06406e-07 -0.0001897
0.0004282 1.83644e-06 1.14544e-06
1.83644e-06 -9.13189e-05 -4.69197e-06
1.14544e-06 -4.69197e-06 -0.000159517
0.00094357 -1.66165e-05 -1.21486e-06
-1.66165e-05 0.000152888 -3.25431e-06
-1.21486e-06 -3.25431e-06 6.46532e-05
0.000964879 -7.22652e-07 2.07193e-07
-7.22652e-07 0.000181466 -1.10853e-06
2.07193e-07 -1.10853e-06 7.7982e-05
0.000855791 -4.35629e-05 5.67542e-10
-4.35629e-05 0.000123617 -3.68655e-07
5.67542e-10 -3.68655e-07 3.17303e-05
0.000882709 6.31499e-06 -6.61026e-07
6.31499e-06 0.000122329 7.77491e-07
-6.61026e-07 7.77491e-07 4.05137e-05
0.000844535 -2.32364e-05 4.68739e-07
-2.32364e-05 0.000108635 -2.97936e-07
4.68739e-07 -2.97936e-07 1.53128e-05
0.000794054 3.95075e-05 -1.58359e-07
3.95075e-05 8.29588e-05 -5.28652e-08
-1.58359e-07 -5.28652e-08 -9.2436e-07
0.000739071 -6.36539e-06 -2.00298e-07
-6.36539e-06 3.67391e-05 4.83699e-07
-2.00298e-07 4.83699e-07 -3.95962e-05
0.000719498 5.06856e-05 1.06819e-06
5.06856e-05 4.57495e-05 -1.09404e-07
1.06819e-06 -1.09404e-07 -3.75188e-05
0.000622637 1.41457e-05 2.44307e-08
1.41457e-05 -1.80749e-05 -2.31389e-06
2.44307e-08 -2.31389e-06 -0.000105779
0.000712235 6.27608e-06 1.35062e-06
6.27608e-06 3.06908e-05 -1.25314e-06
1.35062e-06 -1.25314e-06 -4.37271e-05
0.000838013 1.99383e-05 2.85297e-06
1.99383e-05 0.000101441 -2.10433e-06
2.85297e-06 -2.10433e-06 1.14132e-05
0.00031729 -3.33142e-05 6.77762e-07
-3.33142e-05 -0.000145359 1.93604e-07
6.77762e-07 1.93604e-07 -0.000276302
0.000413534 3.76688e-05 1.98282e-07
3.76688e-05 -0.000105825 -9.95384e-08
1.98282e-07 -9.95384e-08 -0.000201257
0.000759102 3.89227e-05 4.4419e-07
3.89227e-05 7.36663e-05 4.86036e-07
4.4419e-07 4.86036e-07 -1.33278e-05
0.00071263 3.13318e-05 1.82262e-07
3.13318e-05 3.95494e-05 3.20882e-07
1.82262e-07 3.20882e-07 -3.56142e-05
0.000759612 3.90667e-06 -6.21565e-08
3.90667e-06 6.89802e-05 -1.0512e-10
-6.21565e-08 -1.0512e-10 -9.54814e-06
0.00070359 1.9988e-05 -6.1641e-07
1.9988e-05 2.23965e-05 4.16634e-07
-6.1641e-07 4.16634e-07 -4.00125e-05
0.0007864 4.52027e-06 2.85937e-07
4.52027e-06 8.32265e-05 3.32041e-07
2.85937e-07 3.32041e-07 2.72178e-06
0.000744547 -1.59056e-05 -2.00967e-07
-1.59056e-05 4.52609e-05 4.45833e-09
-2.00967e-07 4.45833e-09 -1.88447e-05
0.000692461 2.99474e-05 -8.65653e-07
2.99474e-05 2.22854e-07 1.67405e-06
-8.65653e-07 1.67405e-06 -4.19975e-05
0.000656203 -3.50609e-05 9.07159e-07
-3.50609e-05 -7.40785e-06 -3.99864e-07
9.07159e-07 -3.99864e-07 -7.30269e-05
0.000700292 1.37942e-05 -1.69253e-07
1.37942e-05 4.17139e-06 -1.57014e-08
-1.69253e-07 -1.57014e-08 -3.76152e-05
0.00135845 2.4918e-05 -4.9176e-06
2.4918e-05 0.00036813 4.90485e-06
-4.9176e-06 4.90485e-06 0.000360886
0.000692172 -3.84215e-06 7.76172e-07
-3.84215e-06 1.25258e-06 -1.60312e-06
7.76172e-07 -1.60312e-06 -4.0465e-05
0.00100824 1.61318e-05 -2.40048e-06
1.61318e-05 0.000165625 7.2209e-07
-2.40048e-06 7.2209e-07 0.000157129
0.00083823 1.33628e-05 -5.00863e-07
1.33628e-05 7.01996e-05 1.8283e-06
-5.00863e-07 1.8283e-06 8.10866e-05
0.000651938 7.74294e-06 2.87014e-07
7.74294e-06 -4.00077e-05 -3.50865e-06
2.87014e-07 -3.50865e-06 -4.98228e-05
0.00225209 1.07975e-05 3.00482e-06
1.07975e-05 0.000875869 3.19523e-08
3.00482e-06 3.19523e-08 0.00089424
0.00224811 1.19711e-06 2.4161e-07
1.19711e-06 0.000872858 -4.86032e-06
2.4161e-07 -4.86032e-06 0.000891441
0.00104322 6.00847e-05 -1.31435e-06
6.00847e-05 0.000225777 -1.1202e-06
-1.31435e-06 -1.1202e-06 0.000161315
0.000719725 9.67977e-06 -6.34087e-07
9.67977e-06 1.74731e-05 -2.01442e-06
-6.34087e-07 -2.01442e-06 -1.76508e-05
0.000727046 1.3012e-06 6.38787e-07
1.3012e-06 5.17508e-05 6.91082e-07
6.38787e-07 6.91082e-07 -1.43399e-05
0.000667449 4.84398e-07 -1.81895e-07
4.84398e-07 -3.30183e-05 -3.54242e-06
-1.81895e-07 -3.54242e-06 -3.79429e-05
0.000704324 -1.62859e-07 3.12672e-07
-1.62859e-07 9.19107e-06 -2.69857e-08
3.12672e-07 -2.69857e-08 -2.49068e-05
0.000704611 -7.2399e-06 -6.29183e-07
-7.2399e-06 9.77238e-06 1.89832e-06
-6.29183e-07 1.89832e-06 -2.48297e-05
0.000668283 6.96391e-06 -1.46855e-07
6.96391e-06 -3.17212e-05 -6.26834e-09
-1.46855e-07 -6.26834e-09 -3.69943e-05
0.00208163 9.83834e-06 4.06538e-06
9.83834e-06 0.000778989 -4.68555e-06
4.06538e-06 -4.68555e-06 0.000799221
0.00126747 1.82637e-05 -6.17247e-07
1.82637e-05 0.000311983 2.12878e-06
-6.17247e-07 2.12878e-06 0.000309062
0.00147352 1.78766e-05 2.01342e-06
1.78766e-05 0.000434081 7.23423e-08
2.01342e-06 7.23423e-08 0.000450141
0.000918577 2.12423e-05 -1.46966e-05
2.12423e-05 0.000121661 7.2598e-06
-1.46966e-05 7.2598e-06 0.000133138
-0.0065393 0.000157368 0.000104644
0.000157368 -0.00311889 -1.27728e-06
0.000104644 -1.27728e-06 -0.00348952
-0.00179125 0.000185008 7.90642e-05
0.000185008 0.000212721 2.26366e-05
7.90642e-05 2.26366e-05 -0.000341783
0.00387452 7.01022e-05 -0.000160733
7.01022e-05 0.000736464 2.46197e-06
-0.000160733 2.46197e-06 0.000451719
0.00125735 1.98919e-05 3.37044e-05
1.98919e-05 -0.000313226 2.82388e-06
3.37044e-05 2.82388e-06 -0.000333734
0.00151097 -2.05974e-05 1.25717e-05
-2.05974e-05 -0.000186109 2.97425e-07
1.25717e-05 2.97425e-07 -0.000213371
0.000907839 2.47397e-05 1.61697e-05
2.47397e-05 -0.000549017 -2.2338e-06
1.61697e-05 -2.2338e-06 -0.000674294
0.00224225 -5.11281e-05 1.99604e-06
-5.11281e-05 0.00018925 1.85355e-06
1.99604e-06 1.85355e-06 0.000148383
0.00709689 0.000154181 7.65828e-06
0.000154181 0.00168674 -2.15908e-05
7.65828e-06 -2.15908e-05 0.000779693
-0.00347381 0.000444215 -2.93522e-05
0.000444215 -0.00126819 -2.59206e-06
-2.93522e-05 -2.59206e-06 -0.00171111
-0.00168354 0.000962724 -3.88139e-05
0.000962724 -0.00110672 1.51685e-05
-3.88139e-05 1.51685e-05 0.000402034
0.00164685 -0.000142244 4.99615e-05
-0.000142244 -0.000229079 1.25303e-05
4.99615e-05 1.25303e-05 -0.000515887
0.00790214 0.000105021 3.12985e-05
0.000105021 0.00239975 -1.15897e-05
3.12985e-05 -1.15897e-05 0.00110694
0.000391304 0.000828395 4.33635e-05
0.000828395 -0.000542768 -9.55539e-05
4.33635e-05 -9.55539e-05 8.92039e-05
0.00426115 0.000708686 -8.74986e-05
0.000708686 -8.32832e-05 6.88503e-05
-8.74986e-05 6.88503e-05 0.000819132
0.000732606 6.31849e-05 -1.11289e-06
6.31849e-05 7.36984e-05 -1.02122e-06
-1.11289e-06 -1.02122e-06 -3.18901e-05
0.000628263 1.00625e-05 -2.29335e-07
1.00625e-05 5.14007e-08 -6.00055e-07
-2.29335e-07 -6.00055e-07 -7.79929e-05
0.000739273 -6.91261e-05 -8.92192e-07
-6.91261e-05 6.00426e-05 1.37063e-06
-8.92192e-07 1.37063e-06 -6.01132e-06
0.000630452 1.55375e-06 1.63846e-07
1.55375e-06 9.40255e-06 1.06975e-06
1.63846e-07 1.06975e-06 -7.59974e-05
0.000766384 6.36001e-05 9.98075e-07
6.36001e-05 9.6989e-05 1.37551e-06
9.98075e-07 1.37551e-06 -2.80437e-06
0.000891528 6.34227e-05 -6.25335e-07
6.34227e-05 0.000153685 -2.33537e-07
-6.25335e-07 -2.33537e-07 5.20719e-05
0.000831487 7.50903e-05 1.57181e-06
7.50903e-05 0.000120822 1.50021e-06
1.57181e-06 1.50021e-06 2.40439e-05
0.000728265 -4.23493e-06 8.83486e-07
-4.23493e-06 5.25214e-05 -4.12742e-07
8.83486e-07 -4.12742e-07 -3.42974e-05
0.000713683 -1.81595e-05 4.23208e-07
-1.81595e-05 5.40697e-05 -8.4445e-07
4.23208e-07 -8.4445e-07 -3.2953e-05
0.000617821 -1.29737e-05 -1.48439e-07
-1.29737e-05 -7.10305e-06 1.42187e-06
-1.48439e-07 1.42187e-06 -8.52908e-05
0.00101031 -0.000113776 9.22228e-06
-0.000113776 -0.000452305 -3.41188e-06
9.22228e-06 -3.41188e-06 -0.000479624
0.00190512 -0.000281991 9.84796e-06
-0.000281991 2.48169e-05 -1.1208e-07
9.84796e-06 -1.1208e-07 -2.67641e-06
0.000316894 -0.000259178 9.03762e-06
-0.000259178 -0.000611549 3.83677e-06
9.03762e-06 3.83677e-06 -0.000723612
0.00156894 -0.000306312 2.45566e-06
-0.000306312 0.000403189 -1.06884e-07
2.45566e-06 -1.06884e-07 0.000182874
0.0013664 -0.00010904 2.73813e-07
-0.00010904 0.000492162 6.13706e-08
2.73813e-07 6.13706e-08 0.000269134
0.00106762 -8.45737e-05 -1.03011e-06
-8.45737e-05 0.000280151 -1.73746e-07
-1.03011e-06 -1.73746e-07 0.000141234
0.0009162 -4.08808e-05 -1.01438e-06
-4.08808e-05 0.000174875 7.5336e-07
-1.01438e-06 7.5336e-07 6.87954e-05
0.000735092 3.86468e-05 -1.1596e-06
3.86468e-05 8.06431e-05 1.82601e-06
-1.1596e-06 1.82601e-06 -2.66737e-05
0.00161401 -0.000154359 -2.71135e-06
-0.000154359 1.68534e-05 8.01311e-07
-2.71135e-06 8.01311e-07 -5.03113e-05
0.000641127 -3.75149e-05 -1.4113e-07
-3.75149e-05 2.66366e-05 2.67829e-08
-1.4113e-07 2.67829e-08 -9.02072e-05
0.000700505 -5.14663e-05 7.54226e-07
-5.14663e-05 6.99772e-05 -7.64244e-07
7.54226e-07 -7.64244e-07 -5.45035e-05
0.0018552 -0.000329943 4.96966e-06
-0.000329943 5.90893e-05 -2.1318e-06
4.96966e-06 -2.1318e-06 7.51544e-05
0.000388319 -0.000287678 1.63441e-06
-0.000287678 -0.00038984 1.48381e-06
1.63441e-06 1.48381e-06 -0.000529976
0.00101472 -0.00020385 4.32293e-06
-0.00020385 0.00018811 -1.90506e-06
4.32293e-06 -1.90506e-06 -3.59416e-05
0.00113846 -6.29591e-05 -4.53069e-07
-6.29591e-05 0.000349434 -1.13518e-06
-4.53069e-07 -1.13518e-06 0.000167092
0.000650219 -0.000208251 -3.00173e-06
-0.000208251 -0.000178407 -2.53623e-06
-3.00173e-06 -2.53623e-06 -0.000415337
0.00154171 -0.00028013 -2.07182e-05
-0.00028013 0.000237357 4.81345e-06
-2.07182e-05 4.81345e-06 0.000184646
0.000246277 -6.92656e-05 -1.39709e-05
-6.92656e-05 -0.000115761 2.07593e-05
-1.39709e-05 2.07593e-05 -0.000329863
0.000658016 3.59017e-05 3.20235e-08
3.59017e-05 2.98576e-05 2.73104e-07
3.20235e-08 2.73104e-07 -8.26133e-05
0.000608496 -8.94322e-05 9.49308e-07
-8.94322e-05 1.43969e-05 -1.96296e-06
9.49308e-07 -1.96296e-06 -0.000111469
0.000817305 -4.08977e-05 8.82913e-07
-4.08977e-05 0.000132267 -1.67819e-07
8.82913e-07 -1.67819e-07 -2.4451e-06
0.000873606 5.34865e-05 -0.000112569
5.34865e-05 0.00208755 -3.71489e-07
-0.000112569 -3.71489e-07 0.00136978
0.00206506 -0.000162766 1.42226e-05
-0.000162766 0.0013887 1.00577e-05
1.42226e-05 1.00577e-05 0.00125407
0.00019647 0.000366478 -6.21343e-05
0.000366478 -0.00219695 2.60011e-05
-6.21343e-05 2.60011e-05 -0.00275465
0.000806273 0.000118202 4.14104e-06
0.000118202 0.000145234 1.86189e-06
4.14104e-06 1.86189e-06 2.83633e-05
0.000686797 0.000157438 7.28287e-06
0.000157438 8.41675e-05 4.20205e-06
7.28287e-06 4.20205e-06 -0.000101773
0.00240074 0.000275353 1.35261e-05
0.000275353 0.000379333 6.71881e-06
1.35261e-05 6.71881e-06 0.000424797
0.00074934 0.000241475 1.28306e-05
0.000241475 -7.4263e-05 7.46367e-06
1.28306e-05 7.46367e-06 -0.000317616
0.00485824 -0.000396151 4.40618e-05
-0.000396151 0.00204077 2.63605e-05
4.40618e-05 2.63605e-05 0.00211952
-0.000868537 -8.06592e-05 -6.44898e-05
-8.06592e-05 -0.0019836 9.6889e-07
-6.44898e-05 9.6889e-07 -0.00336019
0.00336419 0.000699561 -8.57423e-05
0.000699561 -0.000122644 -3.28809e-05
-8.57423e-05 -3.28809e-05 -0.000962976
0.000598687 0.000135492 2.68838e-05
0.000135492 -0.000168109 -1.59158e-05
2.68838e-05 -1.59158e-05 -0.0001378
-0.00427938 -0.000452236 -1.4334e-05
-0.000452236 -0.0016905 -3.40553e-05
-1.4334e-05 -3.40553e-05 -0.00177474
0.000372582 -0.000421995 9.07434e-06
-0.000421995 0.000563813 2.1359e-05
9.07434e-06 2.1359e-05 -4.2984e-05
0.00581388 -0.000860794 0.000103215
-0.000860794 0.000243752 8.68329e-05
0.000103215 8.68329e-05 0.0017668
0.000776959 8.73681e-05 3.36539e-06
8.73681e-05 0.000154328 -2.03317e-06
3.36539e-06 -2.03317e-06 4.81663e-05
-0.000709852 -8.95458e-05 -4.18214e-05
-8.95458e-05 0.000926504 -1.42068e-05
-4.18214e-05 -1.42068e-05 1.63326e-05
0.00243378 7.57434e-05 -4.58501e-06
7.57434e-05 0.000726967 -2.84582e-05
-4.58501e-06 -2.84582e-05 -0.000480271
0.000720314 0.000225602 -8.43907e-06
0.000225602 -0.000102092 3.53351e-06
-8.43907e-06 3.53351e-06 -0.000157606
0.000745494 0.000180621 2.83678e-07
0.000180621 0.000195005 1.366e-06
2.83678e-07 1.366e-06 -7.94845e-06
0.000357986 0.000180551 3.49242e-05
0.000180551 -0.000104127 -2.38116e-05
3.49242e-05 -2.38116e-05 -0.000258665
0.00542281 0.000925699 -1.5193e-05
0.000925699 0.00148916 9.45967e-07
-1.5193e-05 9.45967e-07 0.000712647
0.00962422 -4.64781e-06 4.32034e-05
-4.64781e-06 0.0036643 1.21846e-05
4.32034e-05 1.21846e-05 0.0020074
0.00172279 -0.00060473 5.95922e-06
-0.00060473 -0.00114227 -1.23578e-05
5.95922e-06 -1.23578e-05 -0.000955179
0.00662319 -0.00054292 6.38667e-06
-0.00054292 0.000711027 -1.48211e-05
6.38667e-06 -1.48211e-05 0.00198828
0.000540528 0.000109754 -1.13515e-05
0.000109754 7.07541e-05 -8.26109e-06
-1.13515e-05 -8.26109e-06 -1.05499e-05
0.00191336 -3.0208e-05 -8.04239e-05
-3.0208e-05 0.000400963 -3.46532e-05
-8.04239e-05 -3.46532e-05 -0.00041224
0.000991964 4.77289e-05 -1.7698e-05
4.77289e-05 0.000255506 -6.75132e-05
-1.7698e-05 -6.75132e-05 -0.000739579
-0.000916036 1.29028e-05 -2.37051e-05
1.29028e-05 -0.00048913 -1.66354e-05
-2.37051e-05 -1.66354e-05 -0.000615307
0.00251857 0.000357511 3.46276e-06
0.000357511 0.00064726 5.38916e-05
3.46276e-06 5.38916e-05 8.73313e-05
0.00883166 0.000251283 2.56833e-05
0.000251283 0.00352441 1.48016e-06
2.56833e-05 1.48016e-06 0.00133994
-0.00669186 -0.000730638 -4.64211e-05
-0.000730638 -0.00420208 3.27036e-05
-4.64211e-05 3.27036e-05 -0.00529867
0.00513118 0.000193607 -4.80864e-07
0.000193607 -0.000692459 -9.55481e-05
-4.80864e-07 -9.55481e-05 0.000791431
0.000979785 7.10331e-05 2.26836e-06
7.10331e-05 0.000191245 5.38526e-06
2.26836e-06 5.38526e-06 0.000118359
0.000925647 9.01083e-05 -4.22284e-06
9.01083e-05 0.000174176 -7.62903e-07
-4.22284e-06 -7.62903e-07 0.000116384
0.00135496 7.76662e-05 -5.28698e-06
7.76662e-05 0.000457588 -4.55055e-06
-5.28698e-06 -4.55055e-06 0.000407785
0.000844493 7.01451e-05 -1.5504e-06
7.01451e-05 0.000107922 -6.73826e-07
-1.5504e-06 -6.73826e-07 1.97863e-05
0.000908582 -3.35611e-05 -2.75811e-07
-3.35611e-05 0.000144523 1.41974e-06
-2.75811e-07 1.41974e-06 4.6436e-05
0.000855833 1.43376e-05 -4.5634e-08
1.43376e-05 0.000100358 1.36699e-06
-4.5634e-08 1.36699e-06 1.72804e-05
0.000380201 9.99667e-06 1.14606e-07
9.99667e-06 -0.000151115 3.59337e-06
1.14606e-07 3.59337e-06 -0.000225657
0.000886105 2.23112e-06 6.43988e-07
2.23112e-06 0.000126041 5.33666e-08
6.43988e-07 5.33666e-08 3.1158e-05
0.000873631 -1.0729e-06 -1.61995e-07
-1.0729e-06 0.000115487 -1.89775e-07
-1.61995e-07 -1.89775e-07 2.6807e-05
0.000481811 -1.47086e-06 2.11421e-07
-1.47086e-06 -5.83397e-05 7.90669e-07
2.11421e-07 7.90669e-07 -0.00012741
0.000142881 -1.56626e-06 -2.35752e-06
-1.56626e-06 -0.000162733 -4.56505e-06
-2.35752e-06 -4.56505e-06 -0.000216093
0.000957026 -2.41923e-05 2.14976e-06
-2.41923e-05 0.000196567 -5.71615e-06
2.14976e-06 -5.71615e-06 0.00012223
0.000886712 3.34076e-05 1.99968e-07
3.34076e-05 0.000128651 -2.70582e-06
1.99968e-07 -2.70582e-06 3.42467e-05
0.000871204 -6.2549e-05 8.30501e-07
-6.2549e-05 0.000115525 6.56776e-07
8.30501e-07 6.56776e-07 2.69967e-05
0.00078104 4.26364e-05 -6.5725e-07
4.26364e-05 7.39612e-05 4.47418e-07
-6.5725e-07 4.47418e-07 -9.05284e-06
0.000824196 -1.31896e-05 -1.23006e-06
-1.31896e-05 8.4834e-05 1.80772e-06
-1.23006e-06 1.80772e-06 8.69542e-06
0.000687101 5.41179e-06 4.77712e-07
5.41179e-06 1.1941e-05 4.10531e-07
4.77712e-07 4.10531e-07 -7.15111e-05
0.000761893 4.64116e-05 3.08042e-07
4.64116e-05 6.98236e-05 2.17751e-07
3.08042e-07 2.17751e-07 -1.40959e-05
0.000811917 2.21842e-05 -4.6191e-07
2.21842e-05 8.6005e-05 2.43231e-07
-4.6191e-07 2.43231e-07 1.09064e-05
0.000919507 3.34406e-05 1.65476e-06
3.34406e-05 0.000147868 -1.62046e-06
1.65476e-06 -1.62046e-06 6.83302e-05
0.000586524 1.14828e-06 2.24627e-06
1.14828e-06 -2.31499e-05 -2.81348e-06
2.24627e-06 -2.81348e-06 -9.00191e-05
0.000645253 -7.24798e-05 1.53529e-06
-7.24798e-05 -1.82915e-05 -6.48675e-07
1.53529e-06 -6.48675e-07 -0.000109174
0.000906762 2.32348e-07 -1.10886e-06
2.32348e-07 0.00014353 -2.40888e-07
-1.10886e-06 -2.40888e-07 5.14848e-05
0.000548176 -4.81978e-05 2.28754e-06
-4.81978e-05 -2.12557e-05 1.59664e-06
2.28754e-06 1.59664e-06 -0.000142772
0.00098547 -0.000163149 -4.35502e-07
-0.000163149 0.000198385 4.04376e-06
-4.35502e-07 4.04376e-06 2.56504e-05
0.0011699 -5.40225e-05 1.34531e-06
-5.40225e-05 0.000318804 -9.25279e-07
1.34531e-06 -9.25279e-07 0.000208505
0.000490088 -5.06063e-05 -7.73207e-07
-5.06063e-05 -3.95588e-05 -2.83651e-06
-7.73207e-07 -2.83651e-06 -0.000169001
0.000706462 3.17425e-05 -5.58518e-07
3.17425e-05 5.32464e-05 -6.14426e-07
-5.58518e-07 -6.14426e-07 -3.98761e-05
0.00048 2.94055e-05 8.75731e-07
2.94055e-05 -8.35558e-05 6.53989e-07
8.75731e-07 6.53989e-07 -0.000165719
0.000836574 2.55731e-05 -4.3889e-07
2.55731e-05 0.000115531 3.08623e-07
-4.3889e-07 3.08623e-07 2.87088e-05
0.000775358 5.06408e-07 -5.05079e-07
5.06408e-07 7.8592e-05 4.03561e-07
-5.05079e-07 4.03561e-07 -2.17337e-07
0.000708022 2.08289e-05 -7.58981e-07
2.08289e-05 2.47788e-05 5.13458e-07
-7.58981e-07 5.13458e-07 -3.68721e-05
0.000811631 -2.30369e-05 4.50437e-07
-2.30369e-05 0.000105311 1.3726e-07
4.50437e-07 1.3726e-07 2.11867e-05
0.000744323 -1.73091e-05 -3.87012e-07
-1.73091e-05 4.66534e-05 4.74061e-08
-3.87012e-07 4.74061e-08 -1.72002e-05
0.000693279 3.57481e-05 -1.21457e-06
3.57481e-05 2.88681e-06 1.65383e-06
-1.21457e-06 1.65383e-06 -3.99055e-05
0.000779553 -4.42662e-05 1.24392e-06
-4.42662e-05 6.73832e-05 -4.38716e-07
1.24392e-06 -4.38716e-07 1.43431e-06
0.000712932 1.70906e-05 -2.7464e-07
1.70906e-05 1.06226e-05 -4.93862e-09
-2.7464e-07 -4.93862e-09 -3.10387e-05
0.00134908 3.35649e-05 -6.90519e-06
3.35649e-05 0.000366047 4.83841e-06
-6.90519e-06 4.83841e-06 0.00035827
0.000708111 -6.98571e-07 1.29104e-06
-6.98571e-07 7.98345e-06 -1.55785e-06
1.29104e-06 -1.55785e-06 -3.35078e-05
0.00100532 2.37542e-05 -3.25479e-06
2.37542e-05 0.000166496 6.82868e-07
-3.25479e-06 6.82868e-07 0.000157559
0.000836386 2.06473e-05 -9.56379e-07
2.06473e-05 7.34337e-05 1.79753e-06
-9.56379e-07 1.79753e-06 8.3487e-05
0.000640675 1.41613e-05 4.24872e-07
1.41613e-05 -4.46291e-05 -3.53615e-06
4.24872e-07 -3.53615e-06 -5.48005e-05
0.00154815 1.8964e-05 5.12077e-06
1.8964e-05 0.000475712 -1.41174e-06
5.12077e-06 -1.41174e-06 0.00049006
0.00226279 1.26223e-05 4.64647e-06
1.26223e-05 0.000882345 -4.78843e-06
4.64647e-06 -4.78843e-06 0.000900574
0.000796205 -1.12687e-05 5.6192e-07
-1.12687e-05 7.98e-05 -1.05812e-06
5.6192e-07 -1.05812e-06 1.45771e-05
0.000729813 3.6084e-06 -3.45494e-07
3.6084e-06 2.22981e-05 -2.02895e-06
-3.45494e-07 -2.02895e-06 -1.41104e-05
0.000789984 -2.07515e-06 5.34134e-07
-2.07515e-06 8.17893e-05 1.45533e-07
5.34134e-07 1.45533e-07 1.72979e-05
0.000668293 -5.88662e-06 -2.9006e-07
-5.88662e-06 -3.24418e-05 -3.56929e-06
-2.9006e-07 -3.56929e-06 -3.76806e-05
0.000708301 4.3801e-06 2.13316e-08
4.3801e-06 1.09241e-05 -2.70453e-08
2.13316e-08 -2.70453e-08 -2.40105e-05
0.000715313 -5.77126e-05 -2.28536e-06
-5.77126e-05 4.04562e-05 1.90682e-06
-2.28536e-06 1.90682e-06 -2.20277e-05
0.00208127 -8.1664e-07 -4.0434e-07
-8.1664e-07 0.000777956 -4.69856e-06
-4.0434e-07 -4.69856e-06 0.000798421
0.000668899 6.55612e-07 -1.28943e-07
6.55612e-07 -3.21939e-05 -9.12954e-10
-1.28943e-07 -9.12954e-10 -3.71109e-05
0.0006945 -7.86177e-06 -3.85139e-07
-7.86177e-06 3.52354e-06 1.90285e-06
-3.85139e-07 1.90285e-06 -3.05216e-05
0.000669101 7.14477e-06 -3.87303e-08
7.14477e-06 -3.13269e-05 3.51323e-06
-3.87303e-08 3.51323e-06 -3.6615e-05
0.00208753 1.08792e-05 -3.02374e-06
1.08792e-05 0.000782552 -2.98077e-08
-3.02374e-06 -2.98077e-08 0.000802715
0.0021004 2.09255e-05 -1.10853e-05
2.09255e-05 0.000792263 4.49502e-06
-1.10853e-05 4.49502e-06 0.000811773
-0.00236777 -3.21194e-05 -4.90742e-05
-3.21194e-05 0.000267591 1.0619e-05
-4.90742e-05 1.0619e-05 -0.00072369
-0.00114655 0.000301788 -2.16003e-05
0.000301788 -0.000477346 5.921e-06
-2.16003e-05 5.921e-06 -0.00073841
0.00256788 -6.66317e-05 -0.000117898
-6.66317e-05 0.000523593 9.67537e-05
-0.000117898 9.67537e-05 -0.000572442
-0.0023205 0.000220458 0.000134266
0.000220458 0.000249976 -5.81062e-05
0.000134266 -5.81062e-05 -0.000183185
0.00239272 0.00012707 -9.92303e-05
0.00012707 8.90448e-05 1.58271e-05
-9.92303e-05 1.58271e-05 -0.00016995
0.00188436 -7.89968e-05 7.04891e-05
-7.89968e-05 -1.29823e-05 -1.12487e-05
7.04891e-05 -1.12487e-05 -5.91553e-05
0.00190738 -0.000377519 -9.15196e-05
-0.000377519 -0.000919104 -4.53466e-05
-9.15196e-05 -4.53466e-05 -0.00177252
0.0074636 0.000553153 3.59731e-06
0.000553153 0.00367738 -1.65489e-05
3.59731e-06 -1.65489e-05 0.00352478
-0.00584843 0.00104359 -0.000165395
0.00104359 -0.00359981 0.000152234
-0.000165395 0.000152234 -0.00157954
0.00200349 -2.73337e-05 -4.64088e-06
-2.73337e-05 -0.000177137 -6.47188e-06
-4.64088e-06 -6.47188e-06 -0.000435101
0.00371266 -2.37073e-05 2.23122e-05
-2.37073e-05 0.000400934 -3.03758e-05
2.23122e-05 -3.03758e-05 -0.00141393
0.00705502 0.00106533 -2.9941e-05
0.00106533 0.00230207 -3.55081e-05
-2.9941e-05 -3.55081e-05 0.00294928
0.00177883 0.000668347 -3.02589e-05
0.000668347 -0.00151923 6.47934e-05
-3.02589e-05 6.47934e-05 -0.000548826
0.00298489 -0.000393882 -5.02274e-05
-0.000393882 0.000130976 1.41677e-05
-5.02274e-05 1.41677e-05 -0.000345541
0.00334601 -0.000238108 0.00012366
-0.000238108 0.000952363 -8.15898e-05
0.00012366 -8.15898e-05 -0.00142946
-0.00531369 0.000366993 -5.64808e-05
0.000366993 -0.00446791 -0.00012183
-5.64808e-05 -0.00012183 -0.00417833
0.00147917 0.000414232 -2.89831e-05
0.000414232 -0.00284138 1.46664e-05
-2.89831e-05 1.46664e-05 -0.00153178
0.000823514 -1.42496e-05 5.98755e-07
-1.42496e-05 0.00012309 -2.45748e-07
5.98755e-07 -2.45748e-07 1.23776e-05
0.000808852 5.42306e-05 -1.7288e-06
5.42306e-05 0.000115546 -5.91699e-07
-1.7288e-06 -5.91699e-07 1.27674e-05
0.000767132 3.75273e-05 4.26527e-07
3.75273e-05 7.8248e-05 1.70963e-07
4.26527e-07 1.70963e-07 1.83245e-06
0.000779586 7.03383e-05 2.28551e-06
7.03383e-05 0.000104293 2.40196e-06
2.28551e-06 2.40196e-06 5.3401e-06
0.0007423 2.89435e-05 -5.46072e-07
2.89435e-05 6.89825e-05 1.57259e-07
-5.46072e-07 1.57259e-07 -4.10376e-05
0.000907575 6.52644e-05 2.75117e-07
6.52644e-05 0.000164511 7.60443e-07
2.75117e-07 7.60443e-07 6.26098e-05
0.000746381 1.54013e-05 -1.11384e-07
1.54013e-05 6.91604e-05 2.50429e-06
-1.11384e-07 2.50429e-06 -2.45028e-05
0.000897494 9.26842e-05 -4.31973e-07
9.26842e-05 0.000162494 5.40088e-08
-4.31973e-07 5.40088e-08 6.1576e-05
0.000865145 4.9806e-05 -1.63184e-07
4.9806e-05 0.000143116 4.19896e-07
-1.63184e-07 4.19896e-07 4.74165e-05
0.000649194 -8.65071e-06 -1.16777e-06
-8.65071e-06 2.02112e-05 3.2215e-07
-1.16777e-06 3.2215e-07 -6.98496e-05
0.000537834 -0.000134127 2.08894e-05
-0.000134127 -0.000566807 -1.28578e-05
2.08894e-05 -1.28578e-05 -0.000599882
0.00094807 -0.000294983 1.73684e-05
-0.000294983 -0.000397944 -9.00155e-07
1.73684e-05 -9.00155e-07 -0.000397202
0.000922742 -0.000320466 1.12973e-05
-0.000320466 -9.14864e-05 3.47967e-07
1.12973e-05 3.47967e-07 -0.000229606
0.00119403 -0.000217382 7.63618e-06
-0.000217382 0.000275871 -8.3242e-06
7.63618e-06 -8.3242e-06 4.38511e-05
0.00127716 -7.03832e-05 -1.62284e-08
-7.03832e-05 0.000421972 1.00789e-06
-1.62284e-08 1.00789e-06 0.000236152
0.000684481 -6.30348e-05 -1.10987e-06
-6.30348e-05 6.71383e-05 1.11686e-06
-1.10987e-06 1.11686e-06 -6.38821e-05
0.000667368 6.04046e-05 3.447e-07
6.04046e-05 4.30301e-05 9.47905e-07
3.447e-07 9.47905e-07 -7.65637e-05
0.0007231 -4.01901e-05 -1.25412e-07
-4.01901e-05 7.13747e-05 9.18111e-07
-1.25412e-07 9.18111e-07 -4.44458e-05
0.00114929 -0.000195866 -5.08365e-07
-0.000195866 4.9298e-05 -3.58281e-07
-5.08365e-07 -3.58281e-07 -0.000107768
0.000844224 -2.69627e-06 -3.91821e-07
-2.69627e-06 0.000149836 -4.66032e-07
-3.91821e-07 -4.66032e-07 2.02049e-05
0.00109718 -6.72573e-05 -6.79163e-08
-6.72573e-05 0.000296117 1.6596e-07
-6.79163e-08 1.6596e-07 0.00015313
0.0011739 -0.000259944 -1.7345e-06
-0.000259944 2.08347e-05 -6.41869e-07
-1.7345e-06 -6.41869e-07 -1.12313e-05
0.000972475 -0.000100224 -7.33748e-06
-0.000100224 0.000243782 3.35258e-06
-7.33748e-06 3.35258e-06 4.23913e-05
-0.000952246 -0.000220447 -5.97916e-06
-0.000220447 -0.00110342 -1.20421e-05
-5.97916e-06 -1.20421e-05 -0.00110418
0.000915343 -0.000115076 -1.52457e-05
-0.000115076 0.000253977 1.59694e-05
-1.52457e-05 1.59694e-05 0.000150754
0.000397364 -2.14512e-06 -2.39427e-06
-2.14512e-06 -9.90322e-05 1.67018e-05
-2.39427e-06 1.67018e-05 -0.000227106
0.000767141 -1.89987e-06 -3.42431e-07
-1.89987e-06 8.47525e-05 -3.74595e-07
-3.42431e-07 -3.74595e-07 -2.92365e-05
0.000670986 1.92136e-05 5.68487e-07
1.92136e-05 5.4785e-05 -1.57165e-06
5.68487e-07 -1.57165e-06 -8.80704e-05
0.00137687 -1.40218e-05 -3.93931e-05
-1.40218e-05 0.000274087 -3.84379e-06
-3.93931e-05 -3.84379e-06 -0.000392109
-0.000911221 1.08273e-05 -6.20195e-05
1.08273e-05 0.00126151 -2.21534e-06
-6.20195e-05 -2.21534e-06 0.000344212
-0.0072901 -0.000192795 -0.00017863
-0.000192795 -0.00370151 4.32339e-06
-0.00017863 4.32339e-06 -0.00367952
0.000229691 8.07124e-05 7.5295e-06
8.07124e-05 -0.000130681 3.10709e-07
7.5295e-06 3.10709e-07 -0.000246968
-0.000343914 5.47116e-05 7.23728e-06
5.47116e-05 -0.000365466 2.7586e-06
7.23728e-06 2.7586e-06 -0.000575271
0.00136817 0.000197501 1.63212e-05
0.000197501 0.000256885 2.02508e-06
1.63212e-05 2.02508e-06 0.000185626
-0.00229766 5.2841e-05 8.80517e-06
5.2841e-05 0.000203664 8.65889e-06
8.80517e-06 8.65889e-06 -0.000849377
0.00221882 9.08656e-05 -3.89146e-05
9.08656e-05 0.000492848 -4.12278e-05
-3.89146e-05 -4.12278e-05 -0.00194977
0.00382381 0.00077913 6.49103e-05
0.00077913 0.000475494 5.01401e-07
6.49103e-05 5.01401e-07 -9.74327e-05
0.000546476 0.00020266 5.89623e-06
0.00020266 -1.44336e-05 -6.9407e-06
5.89623e-06 -6.9407e-06 -3.89183e-05
0.00887742 -0.000815026 2.33762e-05
-0.000815026 0.0027121 -2.34351e-05
2.33762e-05 -2.34351e-05 0.00279791
0.00275837 7.83479e-05 8.0754e-05
7.83479e-05 0.00096969 6.0226e-05
8.0754e-05 6.0226e-05 -0.000274706
0.00636143 -0.000476068 2.90499e-05
-0.000476068 0.000868638 1.60025e-05
2.90499e-05 1.60025e-05 0.00218398
0.000878428 0.000132035 -1.28531e-06
0.000132035 0.00027994 -2.56108e-06
-1.28531e-06 -2.56108e-06 0.000191917
0.00201532 -2.46814e-05 4.84926e-06
-2.46814e-05 0.000575798 -8.59961e-06
4.84926e-06 -8.59961e-06 -0.00015659
0.00131645 6.17316e-05 6.31677e-06
6.17316e-05 0.000261507 1.1853e-05
6.31677e-06 1.1853e-05 -0.000751757
-1.1433e-05 0.000123081 -5.133e-06
0.000123081 -3.68024e-05 -4.75942e-07
-5.133e-06 -4.75942e-07 -0.000186322
0.00270424 0.000456368 -4.51036e-05
0.000456368 0.000574447 -3.39015e-05
-4.51036e-05 -3.39015e-05 6.07722e-05
0.00273748 0.000695609 4.608e-05
0.000695609 0.000515256 3.1773e-05
4.608e-05 3.1773e-05 -0.00194489
0.00408024 6.4117e-05 -4.55477e-06
6.4117e-05 -0.00179952 -5.59057e-05
-4.55477e-06 -5.59057e-05 4.05775e-05
0.00072449 -0.000401315 -1.6837e-05
-0.000401315 -0.000437342 -2.0456e-06
-1.6837e-05 -2.0456e-06 -0.00103714
0.000994514 7.21799e-05 -3.04881e-06
7.21799e-05 0.000451758 -8.12269e-06
-3.04881e-06 -8.12269e-06 0.000372691
0.00103382 -3.85564e-05 -1.36015e-05
-3.85564e-05 0.000126728 -2.64112e-05
-1.36015e-05 -2.64112e-05 -0.000187488
0.00197929 5.11206e-06 1.26389e-05
5.11206e-06 0.000190321 -6.02791e-05
1.26389e-05 -6.02791e-05 -0.000677714
0.00157818 0.000427451 2.6881e-05
0.000427451 -0.00279388 -1.702e-05
2.6881e-05 -1.702e-05 -0.00155289
-0.000986807 4.4464e-05 1.63673e-06
4.4464e-05 -0.000346334 -1.09306e-05
1.63673e-06 -1.09306e-05 -0.000694617
0.0101228 0.000474234 9.88656e-05
0.000474234 0.00428732 4.0636e-05
9.88656e-05 4.0636e-05 0.00180843
-0.00732046 -0.000198452 4.02024e-05
-0.000198452 -0.00116306 5.53234e-05
4.02024e-05 5.53234e-05 -0.00222093
0.0015931 0.000142637 1.40425e-05
0.000142637 0.000552639 7.46698e-06
1.40425e-05 7.46698e-06 0.00048945
0.00121802 9.90135e-05 -3.30297e-06
9.90135e-05 0.000379164 1.0553e-06
-3.30297e-06 1.0553e-06 0.000323543
0.000571168 7.60238e-05 -1.33224e-05
7.60238e-05 0.000149005 -7.07328e-06
-1.33224e-05 -7.07328e-06 9.30081e-05
0.000813406 0.000106037 5.2056e-07
0.000106037 9.3076e-05 1.15741e-06
5.2056e-07 1.15741e-06 -5.67687e-06
0.000793831 2.80434e-05 1.41428e-07
2.80434e-05 6.78585e-05 2.20246e-06
1.41428e-07 2.20246e-06 -1.81487e-05
0.000495887 -1.21798e-05 -7.30045e-07
-1.21798e-05 -4.61683e-05 9.52229e-06
-7.30045e-07 9.52229e-06 -0.000115285
0.000779501 3.60463e-05 -1.71841e-07
3.60463e-05 6.6357e-05 -3.7763e-07
-1.71841e-07 -3.7763e-07 -2.41268e-05
0.000873753 -3.55753e-05 2.60922e-07
-3.55753e-05 0.000153675 -1.17562e-06
2.60922e-07 -1.17562e-06 7.70347e-05
0.000266534 -1.58068e-05 4.18468e-06
-1.58068e-05 -0.000103572 3.4799e-06
4.18468e-06 3.4799e-06 -0.000163411
0.000570175 -1.30156e-05 -1.89663e-06
-1.30156e-05 9.1929e-05 -8.00149e-06
-1.89663e-06 -8.00149e-06 4.3741e-05
0.000797209 -1.47098e-05 -1.25949e-06
-1.47098e-05 0.00010973 -4.78569e-06
-1.25949e-06 -4.78569e-06 3.92159e-05
0.000753289 -5.48155e-07 -4.82284e-07
-5.48155e-07 4.18979e-05 2.34613e-06
-4.82284e-07 2.34613e-06 -3.66245e-05
0.000799596 4.64574e-05 -4.00078e-07
4.64574e-05 9.17598e-05 4.60129e-07
-4.00078e-07 4.60129e-07 7.04206e-06
0.000914213 3.14855e-05 -2.72327e-06
3.14855e-05 0.000142355 2.5563e-06
-2.72327e-06 2.5563e-06 6.66681e-05
0.000768096 2.36517e-06 7.67665e-07
2.36517e-06 7.3445e-05 4.48703e-08
7.67665e-07 4.48703e-08 6.04551e-06
0.000829807 3.47513e-05 4.44825e-07
3.47513e-05 9.84292e-05 1.39448e-07
4.44825e-07 1.39448e-07 1.88693e-05
0.000678978 -4.2501e-05 2.34411e-06
-4.2501e-05 5.24573e-05 -5.34847e-08
2.34411e-06 -5.34847e-08 -2.90576e-05
0.000630051 -4.88453e-05 -1.04288e-06
-4.88453e-05 -1.05345e-05 -8.86771e-07
-1.04288e-06 -8.86771e-07 -9.35512e-05
0.000464977 -9.60808e-05 4.29667e-06
-9.60808e-05 -7.80627e-05 6.43899e-07
4.29667e-06 6.43899e-07 -0.000225056
0.00099622 -1.99789e-05 -1.5193e-06
-1.99789e-05 0.000196124 5.22811e-07
-1.5193e-06 5.22811e-07 0.000102406
0.00102008 -8.63251e-05 -9.32812e-07
-8.63251e-05 0.000231615 1.37989e-06
-9.32812e-07 1.37989e-06 0.000104944
0.000330381 -0.000125873 3.23233e-07
-0.000125873 -0.000183409 2.23146e-06
3.23233e-07 2.23146e-06 -0.000353911
0.000640256 -0.000138695 -4.38745e-06
-0.000138695 -9.73052e-06 -4.27302e-07
-4.38745e-06 -4.27302e-07 -0.00018292
0.000993219 -0.000126577 -1.16452e-06
-0.000126577 0.000233788 2.27018e-06
-1.16452e-06 2.27018e-06 9.88789e-05
0.000715025 -0.000139719 3.67872e-07
-0.000139719 4.9609e-05 5.22902e-07
3.67872e-07 5.22902e-07 -0.000117566
0.000853724 -1.92606e-05 5.98694e-07
-1.92606e-05 0.000130246 7.73581e-07
5.98694e-07 7.73581e-07 3.69239e-05
0.000986508 -4.61215e-05 -8.16891e-07
-4.61215e-05 0.000220648 -7.06531e-07
-8.16891e-07 -7.06531e-07 0.000107187
0.00062237 -6.3278e-05 6.4885e-07
-6.3278e-05 4.25745e-05 -5.23646e-06
6.4885e-07 -5.23646e-06 -8.45131e-05
0.00100402 2.61197e-05 -1.65888e-06
2.61197e-05 0.000214799 -1.06854e-06
-1.65888e-06 -1.06854e-06 0.000124064
0.000624761 2.07587e-05 1.60274e-07
2.07587e-05 -1.62803e-06 -2.57569e-08
1.60274e-07 -2.57569e-08 -8.39363e-05
0.000704156 3.51192e-05 -1.86228e-07
3.51192e-05 2.73737e-05 6.51823e-07
-1.86228e-07 6.51823e-07 -3.81649e-05
0.000820357 -1.91353e-05 -1.37173e-07
-1.91353e-05 0.000108594 2.43147e-07
-1.37173e-07 2.43147e-07 2.57744e-05
0.000742822 -3.43924e-06 -5.58546e-07
-3.43924e-06 4.69721e-05 -3.54182e-08
-5.58546e-07 -3.54182e-08 -1.71064e-05
0.000699166 3.46318e-05 -1.33401e-06
3.46318e-05 9.51325e-06 1.63758e-06
-1.33401e-06 1.63758e-06 -3.39195e-05
0.000775016 -3.75686e-05 1.15144e-06
-3.75686e-05 6.65824e-05 -4.99057e-07
1.15144e-06 -4.99057e-07 4.3295e-07
0.000708462 2.6413e-05 -3.26406e-07
2.6413e-05 1.00849e-05 -5.70323e-09
-3.26406e-07 -5.70323e-09 -3.21212e-05
0.00131763 4.25054e-05 -7.88838e-06
4.25054e-05 0.000353513 3.33006e-06
-7.88838e-06 3.33006e-06 0.000344863
0.000717973 6.04165e-06 1.58335e-06
6.04165e-06 1.25208e-05 -1.60368e-06
1.58335e-06 -1.60368e-06 -2.87347e-05
0.000995707 3.15752e-05 -4.04146e-06
3.15752e-05 0.000164579 6.31121e-07
-4.04146e-06 6.31121e-07 0.00015511
0.000831437 2.76247e-05 -1.48211e-06
2.76247e-05 7.60105e-05 1.80833e-06
-1.48211e-06 1.80833e-06 8.5073e-05
0.000632726 2.0904e-05 6.17212e-07
2.0904e-05 -4.66528e-05 -3.55787e-06
6.17212e-07 -3.55787e-06 -5.72064e-05
0.00154464 2.8163e-05 6.81923e-06
2.8163e-05 0.000477781 -1.32118e-06
6.81923e-06 -1.32118e-06 0.00049127
0.00227089 2.39868e-05 8.81111e-06
2.39868e-05 0.000889759 -4.63749e-06
8.81111e-06 -4.63749e-06 0.000907325
0.000544354 3.27129e-06 -2.33331e-07
3.27129e-06 -5.55125e-05 -1.63166e-06
-2.33331e-07 -1.63166e-06 -0.000132861
0.000449205 -7.08643e-06 -3.8494e-07
-7.08643e-06 -0.000136038 -2.79729e-06
-3.8494e-07 -2.79729e-06 -0.000177524
0.000825681 1.14696e-06 4.79942e-08
1.14696e-06 0.00010027 9.11071e-08
4.79942e-08 9.11071e-08 3.23551e-05
0.000666943 -1.24401e-05 -2.38844e-07
-1.24401e-05 -3.20493e-05 -3.64072e-06
-2.38844e-07 -3.64072e-06 -3.8528e-05
0.000569748 -1.52981e-06 4.47192e-07
-1.52981e-06 -6.77008e-05 -3.18825e-08
4.47192e-07 -3.18825e-08 -0.000105461
0.000530304 -5.62415e-05 4.42589e-08
-5.62415e-05 -6.22413e-05 1.43958e-06
4.42589e-08 1.43958e-06 -0.0001294
0.00209716 -1.15097e-05 -4.92564e-06
-1.15097e-05 0.000787695 -4.6742e-06
-4.92564e-06 -4.6742e-06 0.000807841
0.000670232 -5.6755e-06 -1.59699e-07
-5.6755e-06 -3.13334e-05 -6.62243e-09
-1.59699e-07 -6.62243e-09 -3.65457e-05
0.000691997 -6.51304e-06 -4.56234e-07
-6.51304e-06 1.71869e-06 1.91763e-06
-4.56234e-07 1.91763e-06 -3.30649e-05
0.00208549 1.74185e-07 -3.07769e-06
1.74185e-07 0.000780366 1.37639e-09
-3.07769e-06 1.37639e-09 0.000800818
0.000669342 8.32919e-07 1.2875e-07
8.32919e-07 -3.19414e-05 3.50524e-06
1.2875e-07 3.50524e-06 -3.68485e-05
0.00209422 1.191e-05 -4.56978e-06
1.191e-05 0.00078658 4.63434e-06
-4.56978e-06 4.63434e-06 0.000806643
0.00101077 -2.9683e-05 -7.00115e-05
-2.9683e-05 -6.59741e-05 2.72975e-05
-7.00115e-05 2.72975e-05 -0.000790179
0.00141726 0.000155594 -7.68807e-06
0.000155594 0.00192134 -7.66703e-06
-7.68807e-06 -7.66703e-06 0.0013681
0.00123217 -0.000205653 -8.46135e-05
-0.000205653 0.00125345 -1.506e-05
-8.46135e-05 -1.506e-05 0.000743456
0.000780549 4.63364e-05 -9.70773e-08
4.63364e-05 8.2683e-05 2.85264e-07
-9.70773e-08 2.85264e-07 -1.42154e-05
0.00275767 -6.37147e-05 -2.74066e-05
-6.37147e-05 0.00130767 6.74003e-05
-2.74066e-05 6.74003e-05 0.000530002
0.00271176 -8.89729e-05 -3.37106e-05
-8.89729e-05 0.000679537 3.59214e-06
-3.37106e-05 3.59214e-06 -0.000501554
0.00136389 0.000409636 9.65664e-05
0.000409636 0.0017301 -8.58816e-05
9.65664e-05 -8.58816e-05 0.0016704
0.002983 -0.000131165 -4.05494e-06
-0.000131165 8.33792e-05 -2.32389e-05
-4.05494e-06 -2.32389e-05 -0.000194944
0.0094069 0.00017823 5.12443e-05
0.00017823 0.00322755 -3.43554e-05
5.12443e-05 -3.43554e-05 0.00159395
-0.00335465 0.000644604 -3.40488e-05
0.000644604 -0.00324191 4.8911e-05
-3.40488e-05 4.8911e-05 -0.00242137
0.00357 0.000731241 2.30586e-05
0.000731241 -0.000471781 4.30451e-06
2.30586e-05 4.30451e-06 0.000472741
0.00424685 -0.000498232 -6.62783e-05
-0.000498232 0.000446742 2.63331e-07
-6.62783e-05 2.63331e-07 -0.00028554
0.00798426 -7.74336e-05 3.83073e-05
-7.74336e-05 0.00322165 -1.44221e-05
3.83073e-05 -1.44221e-05 0.00134396
0.00497761 0.000578703 2.15384e-05
0.000578703 0.000278996 -4.47514e-05
2.15384e-05 -4.47514e-05 0.000405961
0.00364522 0.00042841 -1.20362e-05
0.00042841 -0.00159536 1.98884e-06
-1.20362e-05 1.98884e-06 -0.000362544
0.00485829 -0.00086788 -2.5071e-06
-0.00086788 0.000865619 -1.13405e-05
-2.5071e-06 -1.13405e-05 -0.000163028
0.00985935 -0.000452897 5.218e-05
-0.000452897 0.00485012 -1.03839e-05
5.218e-05 -1.03839e-05 0.00188639
0.00162795 -3.17407e-05 3.11124e-05
-3.17407e-05 -0.000508507 -5.56832e-05
3.11124e-05 -5.56832e-05 -0.000651811
0.00516676 4.83062e-05 -1.37046e-05
4.83062e-05 -0.000670559 4.89795e-05
-1.37046e-05 4.89795e-05 0.000861023
0.000815507 -2.65984e-05 -7.96883e-09
-2.65984e-05 0.000111984 -3.32854e-07
-7.96883e-09 -3.32854e-07 -3.20736e-06
0.000807371 -3.56794e-05 4.74079e-07
-3.56794e-05 0.000117256 -2.41724e-08
4.74079e-07 -2.41724e-08 3.52789e-06
0.000931692 7.80925e-05 -9.16904e-07
7.80925e-05 0.000187988 5.26663e-07
-9.16904e-07 5.26663e-07 8.37667e-05
0.000761893 9.3756e-06 -6.68847e-07
9.3756e-06 6.19504e-05 -2.29129e-07
-6.68847e-07 -2.29129e-07 -3.51823e-05
0.000863337 6.64606e-05 -6.54054e-07
6.64606e-05 0.00013772 5.21477e-07
-6.54054e-07 5.21477e-07 2.82343e-05
0.000902092 4.85926e-05 9.17182e-07
4.85926e-05 0.000161312 1.92669e-06
9.17182e-07 1.92669e-06 6.08899e-05
0.000961621 8.67605e-05 -6.85755e-07
8.67605e-05 0.000196095 2.40247e-08
-6.85755e-07 2.40247e-08 9.64852e-05
0.00100008 9.45398e-05 9.93716e-07
9.45398e-05 0.000224965 1.84677e-06
9.93716e-07 1.84677e-06 0.000125612
0.00182198 -0.000197476 3.58241e-05
-0.000197476 0.000361283 -1.61865e-05
3.58241e-05 -1.61865e-05 0.00028388
0.00070352 -0.000233333 8.75389e-06
-0.000233333 -0.000252726 -9.21833e-06
8.75389e-06 -9.21833e-06 -0.000256259
0.000815311 -0.000132417 -3.32341e-07
-0.000132417 0.000133877 1.07564e-06
-3.32341e-07 1.07564e-06 1.06878e-05
0.00187356 -0.000130255 5.14815e-06
-0.000130255 0.000702987 -1.15744e-05
5.14815e-06 -1.15744e-05 0.000513604
0.00139952 -9.3964e-05 -1.33392e-06
-9.3964e-05 0.000467214 2.61019e-07
-1.33392e-06 2.61019e-07 0.000316307
0.000929571 -3.70106e-05 -1.06157e-06
-3.70106e-05 0.000194323 1.21555e-06
-1.06157e-06 1.21555e-06 6.91801e-05
0.000870344 1.67937e-05 1.45461e-07
1.67937e-05 0.000149443 -7.1548e-08
1.45461e-07 -7.1548e-08 2.97417e-05
0.00067258 -0.000321134 -8.41345e-06
-0.000321134 -0.000300787 5.89331e-07
-8.41345e-06 5.89331e-07 -0.000332039
0.000863594 2.34598e-05 -4.68751e-07
2.34598e-05 0.000169604 6.30478e-07
-4.68751e-07 6.30478e-07 2.20411e-05
0.000916519 -6.18803e-05 -1.28436e-07
-6.18803e-05 0.000169938 8.89856e-07
-1.28436e-07 8.89856e-07 3.50253e-05
0.000350612 -9.64256e-05 4.15294e-07
-9.64256e-05 -8.19181e-05 3.70646e-06
4.15294e-07 3.70646e-06 -0.000143446
0.000697683 1.33209e-05 5.1536e-07
1.33209e-05 2.80712e-05 6.47664e-07
5.1536e-07 6.47664e-07 -7.21717e-05
0.000722805 -0.000279094 4.27698e-05
-0.000279094 -0.00018925 -2.96584e-05
4.27698e-05 -2.96584e-05 -9.95536e-05
0.000819971 -7.63999e-05 -1.07506e-05
-7.63999e-05 0.000386274 2.11519e-05
-1.07506e-05 2.11519e-05 0.000274648
0.000739726 -2.78711e-06 -9.33492e-07
-2.78711e-06 9.00856e-05 8.62933e-06
-9.33492e-07 8.62933e-06 -3.56388e-05
0.00109451 0.000135208 1.38772e-06
0.000135208 0.000287095 -2.98536e-08
1.38772e-06 -2.98536e-08 0.000155268
0.00131924 -2.19661e-05 -2.27365e-05
-2.19661e-05 0.000304927 -1.06549e-06
-2.27365e-05 -1.06549e-06 7.60604e-05
0.00130815 -3.26416e-05 4.41253e-05
-3.26416e-05 0.000260942 -3.35237e-06
4.41253e-05 -3.35237e-06 -0.000401384
-0.00280538 -4.19666e-05 -2.66419e-05
-4.19666e-05 0.000406708 2.28856e-06
-2.66419e-05 2.28856e-06 -0.000759205
0.00105537 0.000133081 1.60448e-05
0.000133081 0.000403439 3.35852e-06
1.60448e-05 3.35852e-06 0.000312741
-0.000144715 0.000184106 1.846e-05
0.000184106 -0.000119239 1.12243e-05
1.846e-05 1.12243e-05 -0.000304032
0.00224651 -2.65432e-05 7.3115e-05
-2.65432e-05 0.000802151 1.21829e-05
7.3115e-05 1.21829e-05 0.000166164
0.00789744 9.16678e-06 9.5221e-05
9.16678e-06 0.00346424 4.67885e-05
9.5221e-05 4.67885e-05 0.000917993
0.00244741 0.000471331 -8.09448e-05
0.000471331 0.000637736 -8.47202e-05
-8.09448e-05 -8.47202e-05 -0.00026754
0.00312998 -0.000280018 1.79131e-05
-0.000280018 0.000379273 -4.47513e-05
1.79131e-05 -4.47513e-05 -0.000312717
0.00160649 7.01395e-05 2.9552e-05
7.01395e-05 0.000267591 9.07159e-05
2.9552e-05 9.07159e-05 -0.000767603
0.00309944 -1.08625e-05 3.67876e-06
-1.08625e-05 -0.00297878 -4.08635e-05
3.67876e-06 -4.08635e-05 -0.000780969
0.000676559 0.000102211 2.82481e-07
0.000102211 0.000282027 -1.21341e-06
2.82481e-07 -1.21341e-06 0.000190011
0.00114508 -3.53629e-05 -2.03121e-07
-3.53629e-05 0.000198052 -8.84033e-06
-2.03121e-07 -8.84033e-06 -0.00010058
0.00227895 1.25579e-05 2.10602e-05
1.25579e-05 0.000509375 6.42687e-06
2.10602e-05 6.42687e-06 -0.000232828
-0.000932826 7.64214e-05 -1.28707e-05
7.64214e-05 -0.000390904 -4.82323e-06
-1.28707e-05 -4.82323e-06 -0.000670278
0.00381788 0.000470153 9.45982e-06
0.000470153 -0.00157425 -1.49054e-06
9.45982e-06 -1.49054e-06 -0.000340565
0.00568499 0.000693345 6.2451e-05
0.000693345 0.00227009 2.19767e-05
6.2451e-05 2.19767e-05 -0.000265814
0.00309682 0.000184511 -4.23687e-05
0.000184511 0.00173171 2.0265e-06
-4.23687e-05 2.0265e-06 0.00116106
0.000212858 0.000125914 -2.28763e-05
0.000125914 0.000106168 -1.10881e-05
-2.28763e-05 -1.10881e-05 -4.38416e-05
0.00168829 8.67794e-06 -1.06385e-06
8.67794e-06 0.000278337 -2.67091e-05
-1.06385e-06 -2.67091e-05 3.2833e-05
0.00285932 -4.91952e-05 2.86063e-05
-4.91952e-05 0.00126346 -6.85639e-05
2.86063e-05 -6.85639e-05 0.000529572
0.00449973 0.000744517 8.27996e-05
0.000744517 -0.000183855 -6.89187e-05
8.27996e-05 -6.89187e-05 0.000822966
0.00352607 8.23119e-05 -4.57955e-05
8.23119e-05 6.77228e-05 5.12826e-05
-4.57955e-05 5.12826e-05 0.000148646
0.00199001 0.000234488 1.12079e-05
0.000234488 0.000297784 -2.90649e-05
1.12079e-05 -2.90649e-05 0.000331786
0.000786576 0.000273019 7.9551e-05
0.000273019 0.0016152 2.94851e-05
7.9551e-05 2.94851e-05 -0.00210829
0.000649448 0.000104073 4.72259e-06
0.000104073 6.15073e-05 6.36044e-06
4.72259e-06 6.36044e-06 2.22806e-06
0.000697424 5.76521e-05 7.71652e-06
5.76521e-05 0.000215519 1.20009e-06
7.71652e-06 1.20009e-06 0.000159245
0.000344925 1.20668e-05 -3.12849e-06
1.20668e-05 0.000229126 -1.61857e-05
-3.12849e-06 -1.61857e-05 0.00013997
0.00064884 2.66546e-06 3.0536e-07
2.66546e-06 -1.43445e-05 2.47213e-06
3.0536e-07 2.47213e-06 -9.77467e-05
0.000680263 -3.45991e-05 6.88344e-07
-3.45991e-05 4.58001e-05 4.38489e-06
6.88344e-07 4.38489e-06 -3.0533e-05
0.00041291 -2.4215e-05 -1.25054e-06
-2.4215e-05 -4.0924e-05 1.05962e-05
-1.25054e-06 1.05962e-05 -0.000104576
0.000721893 -2.6534e-05 4.42631e-09
-2.6534e-05 6.6739e-05 -3.90526e-07
4.42631e-09 -3.90526e-07 -4.67085e-06
0.000475358 -1.37544e-05 2.40386e-06
-1.37544e-05 3.35931e-05 2.48393e-06
2.40386e-06 2.48393e-06 -1.47966e-05
0.00058669 -0.000120555 4.49137e-06
-0.000120555 0.000186069 -5.67873e-06
4.49137e-06 -5.67873e-06 4.51639e-05
0.000952232 -3.4134e-06 -1.04634e-06
-3.4134e-06 0.000172112 2.81362e-06
-1.04634e-06 2.81362e-06 0.000103738
0.000704467 4.5819e-05 -1.21844e-06
4.5819e-05 3.03036e-05 1.87405e-06
-1.21844e-06 1.87405e-06 -4.93622e-05
0.00120666 -7.31338e-05 1.02693e-06
-7.31338e-05 0.000336167 1.19977e-06
1.02693e-06 1.19977e-06 0.000247379
0.000155692 -7.86023e-05 4.06943e-06
-7.86023e-05 -0.000146662 1.69871e-06
4.06943e-06 1.69871e-06 -0.000334742
0.000551258 -2.22821e-05 -4.63387e-06
-2.22821e-05 -3.72761e-05 7.54164e-07
-4.63387e-06 7.54164e-07 -0.000112582
0.000286558 -8.73442e-05 1.41022e-06
-8.73442e-05 -0.000174033 -6.39795e-07
1.41022e-06 -6.39795e-07 -0.00031049
0.00103893 -0.000187399 5.40364e-06
-0.000187399 0.000214281 -1.33583e-06
5.40364e-06 -1.33583e-06 1.01023e-05
0.00116101 -0.000206987 -1.32325e-06
-0.000206987 0.000173655 4.5731e-06
-1.32325e-06 4.5731e-06 -3.39843e-05
0.00149885 -0.000125383 -2.28065e-06
-0.000125383 0.000488813 -3.201e-07
-2.28065e-06 -3.201e-07 0.000356689
0.000629517 -0.000149582 -3.20863e-07
-0.000149582 -2.42362e-05 -4.41895e-08
-3.20863e-07 -4.41895e-08 -0.000201506
0.00166147 -0.00022375 1.26275e-06
-0.00022375 0.000529173 -1.45726e-06
1.26275e-06 -1.45726e-06 0.000358145
0.000336491 -9.42565e-05 -1.83885e-06
-9.42565e-05 -0.000132596 -4.19963e-07
-1.83885e-06 -4.19963e-07 -0.000285169
0.000908557 -0.000157662 -2.03407e-07
-0.000157662 0.00014065 8.3795e-07
-2.03407e-07 8.3795e-07 -3.05673e-05
0.000771893 -1.90103e-05 7.04196e-08
-1.90103e-05 9.29426e-05 7.53728e-07
7.04196e-08 7.53728e-07 -1.26599e-05
0.00102077 -0.000127332 -2.35634e-06
-0.000127332 0.000248238 1.84108e-06
-2.35634e-06 1.84108e-06 0.000111896
0.000481033 -0.000119328 -1.32049e-06
-0.000119328 -7.76793e-05 -1.03528e-06
-1.32049e-06 -1.03528e-06 -0.000240373
0.000708285 4.46194e-05 2.87216e-07
4.46194e-05 3.74206e-05 9.18746e-07
2.87216e-07 9.18746e-07 -3.67529e-05
0.000715112 -9.41364e-06 7.3815e-07
-9.41364e-06 5.53183e-05 -1.01038e-07
7.3815e-07 -1.01038e-07 -3.93347e-05
0.000827661 -4.10227e-05 1.47214e-06
-4.10227e-05 0.000136577 -2.76626e-06
1.47214e-06 -2.76626e-06 1.95948e-05
0.000776431 9.36521e-06 7.89485e-08
9.36521e-06 8.37531e-05 -5.78514e-07
7.89485e-08 -5.78514e-07 1.51881e-06
0.000749967 9.8837e-06 -5.2973e-07
9.8837e-06 5.37715e-05 -1.3933e-07
-5.2973e-07 -1.3933e-07 -1.31251e-05
0.000690804 4.01815e-05 -1.52772e-06
4.01815e-05 1.0234e-05 1.58348e-06
-1.52772e-06 1.58348e-06 -3.51171e-05
0.000779809 -2.4512e-05 8.31789e-07
-2.4512e-05 6.97174e-05 -6.58891e-07
8.31789e-07 -6.58891e-07 3.68581e-06
0.00070412 3.21485e-05 -1.83878e-07
3.21485e-05 1.14445e-05 -2.90955e-09
-1.83878e-07 -2.90955e-09 -3.16874e-05
0.000635217 4.10573e-05 -1.08298e-06
4.10573e-05 -2.93826e-05 3.64274e-06
-1.08298e-06 3.64274e-06 -4.30569e-05
0.000723027 1.64799e-05 1.59264e-06
1.64799e-05 1.68381e-05 -1.63709e-06
1.59264e-06 -1.63709e-06 -2.47002e-05
0.000643288 3.48054e-05 1.19023e-07
3.48054e-05 -3.1607e-05 3.07951e-08
1.19023e-07 3.07951e-08 -4.3704e-05
0.00214218 5.82606e-05 -4.62544e-06
5.82606e-05 0.000831146 1.70865e-06
-4.62544e-06 1.70865e-06 0.000845041
0.000632163 2.79959e-05 7.84734e-07
2.79959e-05 -4.3313e-05 -3.59587e-06
7.84734e-07 -3.59587e-06 -5.44325e-05
0.00153009 3.69561e-05 8.28092e-06
3.69561e-05 0.000474717 -1.18065e-06
8.28092e-06 -1.18065e-06 0.000487161
0.00225914 3.49489e-05 1.28146e-05
3.49489e-05 0.000887169 -4.41648e-06
1.28146e-05 -4.41648e-06 0.000903869
0.000557885 -1.16413e-05 -2.35637e-07
-1.16413e-05 -5.71192e-05 -1.33894e-06
-2.35637e-07 -1.33894e-06 -0.000131781
0.000428483 -9.50884e-06 -3.64896e-07
-9.50884e-06 -0.000148089 -2.71865e-06
-3.64896e-07 -2.71865e-06 -0.000193335
0.000697933 8.47964e-06 -3.91928e-07
8.47964e-06 2.98837e-05 -6.64098e-07
-3.91928e-07 -6.64098e-07 -4.57748e-05
0.000660962 -1.90789e-05 -2.66137e-07
-1.90789e-05 -3.29648e-05 -3.7441e-06
-2.66137e-07 -3.7441e-06 -4.15378e-05
0.000428735 -7.89255e-06 -1.5832e-07
-7.89255e-06 -0.00014753 -8.2371e-07
-1.5832e-07 -8.2371e-07 -0.000189506
0.000849192 1.16353e-05 -1.87265e-08
1.16353e-05 0.00011951 1.34534e-06
-1.87265e-08 1.34534e-06 4.7578e-05
0.00214038 -2.24294e-05 -9.03291e-06
-2.24294e-05 0.000814421 -4.63538e-06
-9.03291e-06 -4.63538e-06 0.000833569
0.000666812 -1.22156e-05 -1.27631e-07
-1.22156e-05 -3.20359e-05 -2.52991e-08
-1.27631e-07 -2.52991e-08 -3.84679e-05
0.000413817 -6.83147e-06 2.67572e-07
-6.83147e-06 -0.000155401 1.981e-06
2.67572e-07 1.981e-06 -0.000194457
0.00209327 -1.05263e-05 -3.12435e-06
-1.05263e-05 0.000785251 3.16133e-08
-3.12435e-06 3.16133e-08 0.000805496
0.000671618 -5.47483e-06 2.24802e-07
-5.47483e-06 -3.05323e-05 3.51404e-06
2.24802e-07 3.51404e-06 -3.57172e-05
0.00208958 1.16915e-06 -1.20509e-07
1.16915e-06 0.000782704 4.69235e-06
-1.20509e-07 4.69235e-06 0.000803117
0.00145854 1.83174e-05 -1.54085e-05
1.83174e-05 0.000465628 2.10246e-05
-1.54085e-05 2.10246e-05 0.000175161
0.00152559 -1.69274e-05 1.03778e-05
-1.69274e-05 0.000281543 -3.01343e-06
1.03778e-05 -3.01343e-06 -0.000440799
0.00173918 0.000114201 4.29468e-05
0.000114201 0.00210699 -2.74785e-05
4.29468e-05 -2.74785e-05 0.00163133
0.000833084 4.98074e-05 -2.06177e-08
4.98074e-05 0.000107292 2.21058e-07
-2.06177e-08 2.21058e-07 1.50727e-05
0.00072118 1.93626e-05 -6.57524e-09
1.93626e-05 3.35122e-05 3.81139e-07
-6.57524e-09 3.81139e-07 -5.17806e-05
0.000901046 7.13898e-05 -3.08414e-07
7.13898e-05 0.000142013 9.83448e-07
-3.08414e-07 9.83448e-07 4.50204e-05
0.00180603 -1.10066e-05 4.69236e-06
-1.10066e-05 0.00013839 0.000106421
4.69236e-06 0.000106421 -0.000744774
0.00266411 -4.75424e-05 -6.60371e-06
-4.75424e-05 0.00123741 8.01443e-07
-6.60371e-06 8.01443e-07 0.000438187
0.0030359 -0.00010492 5.23547e-05
-0.00010492 0.000924526 -7.82059e-05
5.23547e-05 -7.82059e-05 -0.000313258
0.00448962 -0.000521156 -4.65069e-05
-0.000521156 0.000801071 -1.25846e-06
-4.65069e-05 -1.25846e-06 3.2521e-05
0.00153289 -0.000263121 -7.24561e-05
-0.000263121 0.000193879 4.43491e-05
-7.24561e-05 4.43491e-05 -0.00198732
0.00660212 0.000750688 6.20367e-05
0.000750688 0.00189137 7.28058e-06
6.20367e-05 7.28058e-06 0.00177936
0.00141384 0.000221881 1.93064e-05
0.000221881 -0.00292043 -5.11584e-05
1.93064e-05 -5.11584e-05 -0.00165438
0.00516291 -0.000866592 -8.59617e-06
-0.000866592 0.00137754 5.25861e-06
-8.59617e-06 5.25861e-06 0.00063683
0.00580511 -0.000420319 7.53922e-06
-0.000420319 0.00256468 2.50297e-06
7.53922e-06 2.50297e-06 7.93723e-05
-0.00163043 0.000219075 -9.04038e-06
0.000219075 -0.000784724 -4.32196e-05
-9.04038e-06 -4.32196e-05 -0.00151067
0.0040423 -2.25494e-05 -1.03285e-05
-2.25494e-05 -0.00182365 1.80485e-05
-1.03285e-05 1.80485e-05 3.56016e-07
0.00274481 -0.000647043 -2.63757e-05
-0.000647043 0.000205964 -2.35975e-05
-2.63757e-05 -2.35975e-05 -0.000439816
0.0105375 -0.000707787 2.548e-05
-0.000707787 0.00489754 2.74444e-05
2.548e-05 2.74444e-05 0.00193015
-0.00736769 -1.9927e-05 4.96602e-05
-1.9927e-05 -0.00106927 -7.99806e-05
4.96602e-05 -7.99806e-05 -0.0022783
0.00232075 -0.000402537 8.65555e-08
-0.000402537 -0.00199369 -7.7856e-07
8.65555e-08 -7.7856e-07 -0.000659179
0.000808529 2.86989e-05 -4.82179e-07
2.86989e-05 8.97374e-05 7.84004e-07
-4.82179e-07 7.84004e-07 -1.61255e-05
0.000783476 -3.09171e-06 8.22868e-08
-3.09171e-06 9.38719e-05 -3.11638e-07
8.22868e-08 -3.11638e-07 -2.16551e-05
0.000789254 -5.04066e-05 6.98038e-07
-5.04066e-05 0.000108437 4.02847e-07
6.98038e-07 4.02847e-07 -7.26819e-06
0.000804359 3.25248e-05 -4.34425e-07
3.25248e-05 8.72253e-05 -4.0505e-07
-4.34425e-07 -4.0505e-07 -1.18068e-05
0.000968577 0.000106582 1.49394e-06
0.000106582 0.000196689 8.69754e-07
1.49394e-06 8.69754e-07 8.86495e-05
0.00104345 9.80067e-05 -4.02723e-07
9.80067e-05 0.000243121 5.81101e-07
-4.02723e-07 5.81101e-07 0.000142127
0.00158283 -0.000371675 5.95358e-06
-0.000371675 0.000161829 4.80509e-06
5.95358e-06 4.80509e-06 8.49939e-05
-0.000684755 -6.07697e-05 1.00561e-05
-6.07697e-05 -0.000653787 -1.29646e-05
1.00561e-05 -1.29646e-05 -0.000676061
0.000954358 5.93556e-05 2.77168e-07
5.93556e-05 0.000201468 6.61551e-07
2.77168e-07 6.61551e-07 7.69573e-05
0.0013141 -0.000110621 1.15929e-05
-0.000110621 0.000364892 -1.86217e-05
1.15929e-05 -1.86217e-05 0.000230679
0.00096104 -1.03709e-06 -4.93254e-07
-1.03709e-06 0.000224133 -1.47723e-06
-4.93254e-07 -1.47723e-06 7.90618e-05
0.000740363 1.39833e-05 4.18982e-07
1.39833e-05 5.39097e-05 2.5968e-09
4.18982e-07 2.5968e-09 -5.07194e-05
0.000841165 7.20364e-05 4.0471e-07
7.20364e-05 0.000139083 -3.61889e-07
4.0471e-07 -3.61889e-07 1.58354e-05
0.000396399 -0.000272365 -3.23692e-06
-0.000272365 -0.000361954 -2.54544e-06
-3.23692e-06 -2.54544e-06 -0.000361744
0.00095174 -3.76429e-05 1.55112e-06
-3.76429e-05 0.000214253 -2.94176e-06
1.55112e-06 -2.94176e-06 9.64266e-05
0.000444552 -3.61871e-05 1.77308e-05
-3.61871e-05 0.000189212 2.25909e-09
1.77308e-05 2.25909e-09 8.23448e-05
0.000944941 4.53369e-05 1.39479e-06
4.53369e-05 0.000176448 6.05401e-07
1.39479e-06 6.05401e-07 7.52574e-05
-0.00229786 7.60234e-05 -2.15957e-05
7.60234e-05 -0.00109302 -2.58984e-05
-2.15957e-05 -2.58984e-05 -0.00142406
0.000762772 -1.26359e-05 8.86072e-07
-1.26359e-05 0.000320024 2.38723e-05
8.86072e-07 2.38723e-05 0.000260388
0.00101218 6.63813e-06 1.24118e-06
6.63813e-06 0.000278994 2.9116e-06
1.24118e-06 2.9116e-06 0.000174148
0.00171479 -1.31967e-05 -2.44871e-06
-1.31967e-05 0.000235542 2.83955e-07
-2.44871e-06 2.83955e-07 9.34262e-05
0.00113328 -1.70573e-05 -9.64811e-06
-1.70573e-05 0.00019493 -2.63583e-06
-9.64811e-06 -2.63583e-06 -7.03755e-06
0.00114988 -3.51086e-05 0.000126628
-3.51086e-05 0.000197391 -1.45361e-06
0.000126628 -1.45361e-06 -0.000472757
0.00100079 0.000153399 1.97192e-05
0.000153399 0.000454722 1.25356e-05
1.97192e-05 1.25356e-05 0.000353023
0.00282334 0.000373302 1.23217e-06
0.000373302 0.0011085 -1.6329e-05
1.23217e-06 -1.6329e-05 0.000931532
0.00123625 -3.20016e-05 1.01844e-05
-3.20016e-05 0.000254352 8.21292e-06
1.01844e-05 8.21292e-06 -2.88853e-05
-0.00038121 0.000359249 4.50324e-06
0.000359249 -9.95094e-05 1.53473e-05
4.50324e-06 1.53473e-05 -0.00264882
-0.00942252 3.25837e-05 -3.79946e-05
3.25837e-05 -0.00365946 -7.4362e-05
-3.79946e-05 -7.4362e-05 -0.00486935
0.00252613 1.98939e-05 2.48189e-05
1.98939e-05 0.000810327 5.56981e-05
2.48189e-05 5.56981e-05 0.000197818
0.00161083 0.000301677 -1.86802e-05
0.000301677 -0.00287606 5.22377e-05
-1.86802e-05 5.22377e-05 -0.00159977
0.000502054 0.000107337 3.54935e-06
0.000107337 0.000286553 -1.04374e-06
3.54935e-06 -1.04374e-06 0.000153666
0.00142476 -3.38546e-06 6.06942e-06
-3.38546e-06 0.000128007 -1.15555e-05
6.06942e-06 -1.15555e-05 -7.84871e-05
0.00273402 -3.66543e-05 5.41144e-06
-3.66543e-05 0.00118694 -1.12721e-06
5.41144e-06 -1.12721e-06 0.000418199
0.00120613 0.000200977 2.066e-05
0.000200977 -0.000116369 -2.76416e-06
2.066e-05 -2.76416e-06 -0.000385072
0.0019924 0.000689738 2.83166e-05
0.000689738 -0.00158918 -6.32226e-05
2.83166e-05 -6.32226e-05 -0.000533558
-0.00154324 0.000220667 7.8725e-06
0.000220667 -0.00138139 3.99986e-05
7.8725e-06 3.99986e-05 -0.00165432
0.00671999 4.63861e-05 5.78911e-05
4.63861e-05 0.00411923 -1.89714e-05
5.78911e-05 -1.89714e-05 0.00036105
0.000491338 2.9147e-06 1.93305e-05
2.9147e-06 0.000529458 -1.07405e-05
1.93305e-05 -1.07405e-05 0.000252086
0.00144541 2.2286e-05 1.32685e-05
2.2286e-05 0.000424525 -2.09218e-05
1.32685e-05 -2.09218e-05 0.000143395
0.00263879 -5.42682e-05 0.0001193
-5.42682e-05 0.00047299 -9.84045e-05
0.0001193 -9.84045e-05 -0.000585768
0.00274444 0.00095537 -3.39663e-06
0.00095537 0.00137053 -1.17209e-05
-3.39663e-06 -1.17209e-05 0.00245201
-0.00592067 0.000311528 3.91425e-05
0.000311528 -0.00475904 0.000122053
3.91425e-05 0.000122053 -0.00447262
0.0108936 -0.000456057 4.93048e-05
-0.000456057 0.00464638 -6.67576e-05
4.93048e-05 -6.67576e-05 0.00176009
0.00476555 -0.000336678 -8.60325e-05
-0.000336678 0.00134803 0.000112615
-8.60325e-05 0.000112615 0.00133949
0.00120811 6.18574e-05 4.33717e-06
6.18574e-05 0.000502175 6.1865e-06
4.33717e-06 6.1865e-06 0.000441571
8.2555e-05 -1.49029e-05 -5.72459e-06
-1.49029e-05 5.98524e-05 -1.11572e-06
-5.72459e-06 -1.11572e-06 -3.83671e-05
-0.000109225 -0.000140192 4.30892e-06
-0.000140192 3.54134e-05 -1.30078e-05
4.30892e-06 -1.30078e-05 -0.000182705
0.000736267 -3.90584e-05 9.33286e-07
-3.90584e-05 7.59169e-05 1.65799e-06
9.33286e-07 1.65799e-06 2.06243e-06
0.000351114 -1.345e-05 1.05931e-05
-1.345e-05 -3.78511e-05 1.31637e-05
1.05931e-05 1.31637e-05 -8.61486e-05
0.000369235 -7.16543e-05 -1.33474e-06
-7.16543e-05 6.93773e-05 2.32601e-07
-1.33474e-06 2.32601e-07 -5.61328e-05
0.00108561 -0.000181056 1.97431e-05
-0.000181056 0.000451829 -1.28647e-05
1.97431e-05 -1.28647e-05 0.000207694
0.0017657 -0.000104466 -3.06281e-06
-0.000104466 0.000637266 2.54298e-06
-3.06281e-06 2.54298e-06 0.000541316
0.00136792 -0.000190735 1.33672e-06
-0.000190735 0.000472893 3.99919e-07
1.33672e-06 3.99919e-07 0.000279002
0.00102937 -0.000204187 8.13587e-06
-0.000204187 0.00029043 2.4363e-06
8.13587e-06 2.4363e-06 -2.00469e-05
8.63669e-05 -7.36726e-05 -2.10267e-06
-7.36726e-05 -0.000283007 -1.59385e-06
-2.10267e-06 -1.59385e-06 -0.000407633
0.00107532 -0.000187824 -4.16509e-07
-0.000187824 0.000223938 1.1405e-06
-4.16509e-07 1.1405e-06 1.34148e-05
0.00233007 -0.000319164 2.27249e-06
-0.000319164 0.00080248 1.54451e-06
2.27249e-06 1.54451e-06 0.000541628
0.00162988 -0.000271834 -2.99407e-06
-0.000271834 0.000292653 1.58697e-06
-2.99407e-06 1.58697e-06 6.12335e-05
0.000552842 -0.000154011 -1.8247e-07
-0.000154011 -0.000137754 5.98362e-06
-1.8247e-07 5.98362e-06 -0.000321616
0.00132589 -0.000219773 -2.36056e-06
-0.000219773 0.000265392 1.46545e-06
-2.36056e-06 1.46545e-06 5.44439e-05
0.000915612 -0.00017239 -3.67095e-06
-0.00017239 0.000127246 8.0698e-07
-3.67095e-06 8.0698e-07 -5.66328e-05
0.00144763 -0.000200435 3.29026e-06
-0.000200435 0.000436453 -2.89023e-06
3.29026e-06 -2.89023e-06 0.00027422
0.00118719 -0.000185003 2.66306e-06
-0.000185003 0.000271282 -2.25185e-06
2.66306e-06 -2.25185e-06 0.000111804
0.00044033 -4.20435e-05 1.30725e-06
-4.20435e-05 -8.28074e-05 1.10711e-06
1.30725e-06 1.10711e-06 -0.000213825
0.00074735 -0.000123753 1.08534e-06
-0.000123753 9.73565e-05 -3.57837e-07
1.08534e-06 -3.57837e-07 -5.70516e-05
0.00115614 -0.000174845 5.01743e-06
-0.000174845 0.000278915 -3.05525e-06
5.01743e-06 -3.05525e-06 0.000110383
0.000716214 5.4698e-05 1.00222e-06
5.4698e-05 5.19193e-05 1.33816e-06
1.00222e-06 1.33816e-06 -3.61231e-05
0.000875584 -4.28426e-05 -2.62947e-07
-4.28426e-05 0.000152723 -1.24426e-07
-2.62947e-07 -1.24426e-07 4.30337e-05
0.00100818 -0.000124213 -6.4787e-07
-0.000124213 0.000239551 -3.51753e-07
-6.4787e-07 -3.51753e-07 0.000102793
0.00066878 4.87293e-05 -9.88374e-07
4.87293e-05 6.09241e-06 1.67763e-06
-9.88374e-07 1.67763e-06 -4.38884e-05
0.000751871 1.85159e-05 -6.987e-07
1.85159e-05 6.01772e-05 -2.8163e-07
-6.987e-07 -2.8163e-07 -1.40036e-05
0.000580536 -5.67855e-07 -7.47345e-08
-5.67855e-07 -1.72939e-05 -8.8203e-07
-7.47345e-08 -8.8203e-07 -0.000113347
0.000787461 -1.30007e-05 7.23548e-07
-1.30007e-05 7.48952e-05 -9.89697e-07
7.23548e-07 -9.89697e-07 7.12761e-06
0.000701027 3.54392e-05 -2.76406e-07
3.54392e-05 1.51963e-05 -4.91456e-08
-2.76406e-07 -4.91456e-08 -2.98096e-05
0.000618622 4.75926e-05 -1.19485e-06
4.75926e-05 -3.02984e-05 3.69454e-06
-1.19485e-06 3.69454e-06 -4.63121e-05
0.000714141 2.60867e-05 1.6561e-06
2.60867e-05 1.58633e-05 -1.6556e-06
1.6561e-06 -1.6556e-06 -2.67255e-05
0.000637257 4.19282e-05 6.8159e-08
4.19282e-05 -2.81936e-05 1.21767e-08
6.8159e-08 1.21767e-08 -4.19249e-05
0.00217843 6.33703e-05 -2.27873e-05
6.33703e-05 0.000858754 3.68517e-06
-2.27873e-05 3.68517e-06 0.000871511
0.000636675 3.54211e-05 8.73473e-07
3.54211e-05 -3.55084e-05 -3.61656e-06
8.73473e-07 -3.61656e-06 -4.76083e-05
0.00151142 4.59278e-05 9.69398e-06
4.59278e-05 0.00047101 -1.03249e-06
9.69398e-06 -1.03249e-06 0.000482018
0.00223728 4.55018e-05 1.65031e-05
4.55018e-05 0.000880041 -4.13622e-06
1.65031e-05 -4.13622e-06 0.000895635
0.000750169 3.96845e-05 -6.35098e-07
3.96845e-05 4.9889e-05 -5.75626e-07
-6.35098e-07 -5.75626e-07 -2.55858e-05
0.000697201 -2.59625e-06 -7.26058e-07
-2.59625e-06 2.44866e-06 -1.99926e-06
-7.26058e-07 -1.99926e-06 -4.35232e-05
0.000650004 2.57751e-05 -8.55048e-07
2.57751e-05 9.41454e-07 -6.06004e-07
-8.55048e-07 -6.06004e-07 -7.75016e-05
0.000649107 -2.59663e-05 -1.22939e-07
-2.59663e-05 -3.59261e-05 -3.89159e-06
-1.22939e-07 -3.89159e-06 -4.71425e-05
0.000555496 -3.87348e-06 -6.51386e-07
-3.87348e-06 -7.66216e-05 -8.22313e-07
-6.51386e-07 -8.22313e-07 -0.000120817
0.000855219 1.71016e-05 2.86689e-07
1.71016e-05 0.000118837 3.2284e-07
2.86689e-07 3.2284e-07 4.38263e-05
0.00220553 -3.34945e-05 -1.33239e-05
-3.34945e-05 0.000854926 -4.53932e-06
-1.33239e-05 -4.53932e-06 0.000872546
0.000659497 -1.87245e-05 -2.08383e-07
-1.87245e-05 -3.38121e-05 -2.21743e-08
-2.08383e-07 -2.21743e-08 -4.22959e-05
0.000403224 -8.28584e-06 -1.59067e-07
-8.28584e-06 -0.000161929 1.25363e-06
-1.59067e-07 1.25363e-06 -0.000204332
0.00213157 -2.14348e-05 -2.98795e-06
-2.14348e-05 0.00080898 6.44241e-08
-2.98795e-06 6.44241e-08 0.000828339
0.000667494 -1.20116e-05 2.88558e-07
-1.20116e-05 -3.15491e-05 3.59413e-06
2.88558e-07 3.59413e-06 -3.79455e-05
0.00209353 -9.53462e-06 4.33948e-06
-9.53462e-06 0.000785179 4.68623e-06
4.33948e-06 4.68623e-06 0.000805475
0.00160173 -1.1531e-05 -2.94556e-06
-1.1531e-05 0.000247555 2.83685e-05
-2.94556e-06 2.83685e-05 -2.29103e-05
0.00140915 1.22649e-05 -5.04013e-06
1.22649e-05 0.000401803 1.6329e-07
-5.04013e-06 1.6329e-07 9.99208e-05
0.0016989 -9.41811e-06 9.08289e-05
-9.41811e-06 0.000444465 -2.41873e-05
9.08289e-05 -2.41873e-05 -0.000293884
0.000693735 -1.97626e-05 -9.19339e-08
-1.97626e-05 1.23969e-05 -2.26251e-07
-9.19339e-08 -2.26251e-07 -6.71497e-05
0.000876182 8.41106e-06 -8.43742e-07
8.41106e-06 0.000123723 -4.11604e-07
-8.43742e-07 -4.11604e-07 3.62264e-05
0.00085371 4.70268e-05 1.36545e-06
4.70268e-05 0.000117592 1.67912e-07
1.36545e-06 1.67912e-07 2.80873e-05
0.000725531 4.35887e-06 1.58212e-07
4.35887e-06 3.11592e-05 1.09783e-07
1.58212e-07 1.09783e-07 -5.04499e-05
0.000810712 2.89302e-05 -2.58479e-08
2.89302e-05 9.04969e-05 2.26588e-07
-2.58479e-08 2.26588e-07 -5.22201e-06
0.00082794 1.019e-05 -1.06485e-06
1.019e-05 9.61234e-05 4.32839e-07
-1.06485e-06 4.32839e-07 7.68148e-06
0.000917892 0.000140432 7.17563e-07
0.000140432 0.00016376 8.66735e-07
7.17563e-07 8.66735e-07 5.33971e-05
0.000848307 2.31573e-05 2.902e-05
2.31573e-05 0.000201627 0.000105996
2.902e-05 0.000105996 -0.000803502
0.00218982 -1.68212e-06 -4.15506e-06
-1.68212e-06 0.000532296 3.16278e-05
-4.15506e-06 3.16278e-05 -0.000203276
0.00252767 -2.95659e-05 1.30949e-05
-2.95659e-05 0.00113722 -5.95358e-05
1.30949e-05 -5.95358e-05 0.000320615
0.00289638 -7.34047e-05 -1.376e-05
-7.34047e-05 -0.00301757 7.76975e-06
-1.376e-05 7.76975e-06 -0.000894706
0.00356037 -0.000747808 -3.31398e-05
-0.000747808 0.000926005 5.56796e-05
-3.31398e-05 5.56796e-05 8.89468e-06
-0.00127568 -0.000609202 3.40982e-05
-0.000609202 -0.000735972 1.95304e-05
3.40982e-05 1.95304e-05 -0.00341853
0.00576123 0.000791676 4.15123e-05
0.000791676 0.0032605 -2.60055e-05
4.15123e-05 -2.60055e-05 0.00200354
0.00435123 -0.000785814 -1.56278e-05
-0.000785814 0.000982985 2.76111e-06
-1.56278e-05 2.76111e-06 0.000190269
0.000504464 -0.000361538 4.21355e-05
-0.000361538 0.000536937 -4.47937e-06
4.21355e-05 -4.47937e-06 -0.0023862
0.00384569 -8.46076e-05 -2.88434e-05
-8.46076e-05 0.0019657 1.15052e-06
-2.88434e-05 1.15052e-06 0.00134823
0.00662815 -0.000556354 -1.8673e-05
-0.000556354 0.000734409 -2.67751e-05
-1.8673e-05 -2.67751e-05 0.0020168
0.00228734 -6.92062e-05 -4.65346e-05
-6.92062e-05 -0.000118869 3.00829e-05
-4.65346e-05 3.00829e-05 -5.37136e-05
0.000425684 0.000306842 2.58797e-05
0.000306842 0.00021479 -7.19361e-05
2.58797e-05 -7.19361e-05 -0.00241495
-0.00646127 -0.0007441 4.08703e-05
-0.0007441 -0.00422597 -3.75525e-05
4.08703e-05 -3.75525e-05 -0.00533028
0.0017936 -0.000544656 1.88506e-05
-0.000544656 -0.0017057 -8.66386e-05
1.88506e-05 -8.66386e-05 -0.000282039
0.000822432 -1.45913e-05 -1.1403e-06
-1.45913e-05 9.62426e-05 1.40695e-06
-1.1403e-06 1.40695e-06 8.62938e-06
0.00078654 2.82231e-05 1.81594e-07
2.82231e-05 7.90782e-05 6.98603e-08
1.81594e-07 6.98603e-08 -2.69241e-05
0.000773087 1.16457e-05 -1.5867e-07
1.16457e-05 9.2833e-05 -6.9517e-07
-1.5867e-07 -6.9517e-07 -2.6197e-05
0.000834299 3.31862e-05 1.93598e-07
3.31862e-05 0.000111251 -1.18762e-06
1.93598e-07 -1.18762e-06 6.58721e-06
0.0010656 -0.000317119 -8.33791e-07
-0.000317119 -7.42899e-05 1.78699e-05
-8.33791e-07 1.78699e-05 -0.000133261
0.000629026 -2.1231e-05 -6.99814e-06
-2.1231e-05 0.000293125 -1.73135e-05
-6.99814e-06 -1.73135e-05 0.00019906
0.00068181 -6.42121e-07 1.26671e-08
-6.42121e-07 1.58079e-05 -1.59816e-06
1.26671e-08 -1.59816e-06 -8.59174e-05
0.000878767 8.5322e-05 -9.20225e-07
8.5322e-05 0.000163984 -2.64799e-07
-9.20225e-07 -2.64799e-07 3.64076e-05
0.00159762 -5.41726e-05 8.23854e-06
-5.41726e-05 0.000588712 -1.85025e-05
8.23854e-06 -1.85025e-05 0.0004661
0.000778643 2.58709e-05 -5.87807e-07
2.58709e-05 8.30002e-05 -1.48011e-07
-5.87807e-07 -1.48011e-07 -1.64772e-05
0.000831524 2.57486e-05 -1.05244e-06
2.57486e-05 0.000179854 -1.5594e-06
-1.05244e-06 -1.5594e-06 7.42536e-05
-0.000460435 1.16187e-05 -2.70736e-06
1.16187e-05 -0.000222308 -1.09526e-05
-2.70736e-06 -1.09526e-05 -0.00060615
0.00117708 -3.58416e-05 1.90241e-05
-3.58416e-05 0.000567051 -3.4055e-07
1.90241e-05 -3.4055e-07 0.000519919
0.000584105 2.74732e-05 6.63862e-07
2.74732e-05 3.17906e-05 5.30221e-07
6.63862e-07 5.30221e-07 -5.81048e-05
0.00042748 -4.97847e-06 -2.6006e-05
-4.97847e-06 0.000781194 -4.98162e-05
-2.6006e-05 -4.98162e-05 -0.000268767
0.00257115 3.953e-05 6.76702e-06
3.953e-05 0.00127808 1.58785e-05
6.76702e-06 1.58785e-05 0.00117811
0.00137078 -1.49675e-05 1.90662e-05
-1.49675e-05 0.000340698 1.93301e-06
1.90662e-05 1.93301e-06 0.000112703
0.00130485 -1.49263e-05 -6.30969e-07
-1.49263e-05 6.54975e-05 -6.93222e-08
-6.30969e-07 -6.93222e-08 -5.24591e-05
0.000953323 -1.38705e-05 2.9554e-06
-1.38705e-05 9.69541e-05 -3.22917e-06
2.9554e-06 -3.22917e-06 -7.974e-05
0.000379722 7.83101e-05 1.09159e-05
7.83101e-05 0.000238182 6.30624e-06
1.09159e-05 6.30624e-06 0.000123335
0.000650291 0.000172015 -3.2284e-05
0.000172015 -0.000286477 2.43742e-05
-3.2284e-05 2.43742e-05 -0.000357781
0.00123354 -1.14492e-05 9.57615e-06
-1.14492e-05 1.94374e-05 6.31775e-06
9.57615e-06 6.31775e-06 -0.000142597
0.00300477 -0.000527712 0.00014594
-0.000527712 0.0023865 -0.000115794
0.00014594 -0.000115794 -0.00107227
0.0066297 0.000844382 -3.81517e-05
0.000844382 0.00310801 2.72594e-05
-3.81517e-05 2.72594e-05 0.00215754
0.00262734 -2.54208e-05 -1.85247e-05
-2.54208e-05 0.00110847 6.1306e-05
-1.85247e-05 6.1306e-05 0.000316689
0.00366712 0.000737983 -1.66585e-05
0.000737983 -0.000505011 -1.44562e-06
-1.66585e-05 -1.44562e-06 0.000451205
-0.000568722 1.85438e-05 1.55442e-05
1.85438e-05 1.61797e-05 2.26994e-06
1.55442e-05 2.26994e-06 -0.000328283
0.00144182 1.66877e-05 5.11822e-06
1.66877e-05 0.000394346 -1.18934e-07
5.11822e-06 -1.18934e-07 0.000108307
0.00278764 -8.0653e-05 3.43392e-05
-8.0653e-05 0.000626586 -3.24448e-06
3.43392e-05 -3.24448e-06 -0.000514737
0.00112706 -0.000102971 -7.10379e-06
-0.000102971 -0.000553879 2.457e-05
-7.10379e-06 2.457e-05 -0.000342049
-0.00146817 0.00100592 4.044e-05
0.00100592 -0.0010552 -1.48797e-05
4.044e-05 -1.48797e-05 0.000458082
0.00497476 0.000596065 -1.69917e-05
0.000596065 0.000178628 4.20908e-05
-1.69917e-05 4.20908e-05 0.000433691
-0.00177076 -0.000562135 5.04672e-05
-0.000562135 -0.000348631 -3.86037e-05
5.04672e-05 -3.86037e-05 -0.00395211
0.000648639 -1.87071e-05 4.17866e-05
-1.87071e-05 0.00024294 -8.20634e-06
4.17866e-05 -8.20634e-06 0.000143661
0.00102932 -2.84875e-05 6.48075e-05
-2.84875e-05 -9.93017e-05 -2.68293e-05
6.48075e-05 -2.68293e-05 -0.000823238
-0.00164891 0.000207427 -7.58102e-05
0.000207427 0.000224742 -2.2002e-05
-7.58102e-05 -2.2002e-05 -0.000322959
0.000267013 0.00083706 -7.83377e-05
0.00083706 -0.000518603 0.000107706
-7.83377e-05 0.000107706 1.25278e-06
0.00828125 -0.00013047 1.26507e-05
-0.00013047 0.00375752 -3.0219e-05
1.26507e-05 -3.0219e-05 0.00102185
0.00298104 -0.000308561 -8.05597e-05
-0.000308561 0.000434459 7.02272e-05
-8.05597e-05 7.02272e-05 0.000100398
-0.000403716 -2.11344e-05 -1.04967e-05
-2.11344e-05 -0.000214173 1.14541e-05
-1.04967e-05 1.14541e-05 -0.000336
8.27591e-05 -9.60468e-05 8.61577e-07
-9.60468e-05 0.00014185 -4.90149e-07
8.61577e-07 -4.90149e-07 -6.05465e-05
0.000860778 -0.000192836 1.82166e-05
-0.000192836 0.000305047 -8.35697e-06
1.82166e-05 -8.35697e-06 0.000169461
8.48609e-05 -2.60197e-05 -3.38152e-06
-2.60197e-05 -8.49392e-05 4.0723e-06
-3.38152e-06 4.0723e-06 -0.000195947
-0.000276254 -9.39162e-05 3.72899e-07
-9.39162e-05 -0.000241016 -3.24523e-06
3.72899e-07 -3.24523e-06 -0.000490658
0.0019376 -0.000315924 2.14927e-05
-0.000315924 0.000585097 -4.67775e-06
2.14927e-05 -4.67775e-06 0.000348838
0.00258257 -0.000305908 -5.28355e-06
-0.000305908 0.00109406 1.01706e-06
-5.28355e-06 1.01706e-06 0.000892339
0.00160768 -0.000242542 2.2247e-06
-0.000242542 0.000568218 1.012e-06
2.2247e-06 1.012e-06 0.000270253
0.000749162 -0.000233118 4.71287e-06
-0.000233118 -9.42456e-05 -4.40344e-06
4.71287e-06 -4.40344e-06 -0.000372061
0.00115319 -0.000192123 -4.56235e-06
-0.000192123 0.000255533 3.33202e-07
-4.56235e-06 3.33202e-07 3.91572e-05
0.00201942 -0.000295765 1.59126e-06
-0.000295765 0.00062752 -2.1476e-08
1.59126e-06 -2.1476e-08 0.000366579
0.00168856 -0.000290891 2.9568e-06
-0.000290891 0.000293025 -4.26196e-06
2.9568e-06 -4.26196e-06 4.8993e-05
0.00152937 -0.000258251 7.30826e-07
-0.000258251 0.000123022 -3.28782e-06
7.30826e-07 -3.28782e-06 -7.21739e-05
0.00248073 -0.000321509 -5.38983e-06
-0.000321509 0.000782902 6.23062e-06
-5.38983e-06 6.23062e-06 0.000560053
0.00174174 -0.000280985 -1.21516e-06
-0.000280985 0.000344616 -7.50762e-08
-1.21516e-06 -7.50762e-08 0.000107497
0.000384481 -0.000135756 3.29166e-06
-0.000135756 -0.000214157 -3.73296e-07
3.29166e-06 -3.73296e-07 -0.000375144
0.000951159 -0.000181369 2.01129e-06
-0.000181369 8.42487e-05 -2.9629e-07
2.01129e-06 -2.9629e-07 -9.56006e-05
0.00155725 -0.000237573 -1.41112e-06
-0.000237573 0.000393781 -1.49215e-06
-1.41112e-06 -1.49215e-06 0.000179385
0.00111286 -0.000166107 1.23234e-06
-0.000166107 0.000268765 -3.19291e-07
1.23234e-06 -3.19291e-07 0.000109626
0.00116036 -0.000177029 -1.29902e-06
-0.000177029 0.000276561 -1.05652e-06
-1.29902e-06 -1.05652e-06 0.000116249
0.000746452 -0.000148919 3.60811e-06
-0.000148919 3.28979e-05 -2.4002e-06
3.60811e-06 -2.4002e-06 -0.000115577
0.000685437 -1.77557e-06 1.53563e-06
-1.77557e-06 4.44296e-05 1.42486e-06
1.53563e-06 1.42486e-06 -6.58079e-05
0.000673774 -6.02407e-05 1.28643e-07
-6.02407e-05 4.9708e-05 7.96943e-07
1.28643e-07 7.96943e-07 -8.2021e-05
0.00118417 -0.000155968 1.70726e-06
-0.000155968 0.000342252 -1.44921e-06
1.70726e-06 -1.44921e-06 0.000185147
0.000629557 6.48952e-05 9.3702e-08
6.48952e-05 -2.88497e-06 2.19101e-06
9.3702e-08 2.19101e-06 -6.45295e-05
0.000754163 1.29854e-05 -3.73954e-07
1.29854e-05 7.40295e-05 -2.31707e-07
-3.73954e-07 -2.31707e-07 -1.66834e-05
0.000959462 -6.11728e-05 -4.71125e-07
-6.11728e-05 0.000201428 -8.92999e-07
-4.71125e-07 -8.92999e-07 8.79391e-05
0.000601748 5.37517e-05 -2.03625e-06
5.37517e-05 -3.04096e-05 5.11478e-06
-2.03625e-06 5.11478e-06 -4.92964e-05
0.00068432 4.5904e-05 -2.83117e-07
4.5904e-05 1.42336e-05 -1.79392e-07
-2.83117e-07 -1.79392e-07 -3.56065e-05
0.000795306 -5.23361e-06 8.38088e-08
-5.23361e-06 8.40086e-05 -1.31299e-06
8.38088e-08 -1.31299e-06 9.08776e-06
0.000705475 3.38979e-05 1.23846e-06
3.38979e-05 1.71911e-05 -1.75738e-06
1.23846e-06 -1.75738e-06 -2.76482e-05
0.000629381 4.88721e-05 1.71859e-08
4.88721e-05 -2.39478e-05 -4.43613e-09
1.71859e-08 -4.43613e-09 -4.01459e-05
0.00218688 7.33305e-05 -2.58293e-05
7.33305e-05 0.000871859 3.34678e-06
-2.58293e-05 3.34678e-06 0.000882362
0.000640505 4.29051e-05 9.54169e-07
4.29051e-05 -2.63017e-05 -3.62703e-06
9.54169e-07 -3.62703e-06 -4.01106e-05
0.0021962 6.46535e-05 1.94198e-06
6.46535e-05 0.000869804 1.38349e-07
1.94198e-06 1.38349e-07 0.000882279
0.00221216 5.5684e-05 1.97809e-05
5.5684e-05 0.00087225 -3.82562e-06
1.97809e-05 -3.82562e-06 0.000886406
0.00078593 1.93092e-05 -2.0218e-07
1.93092e-05 7.97428e-05 -5.20171e-07
-2.0218e-07 -5.20171e-07 -1.02808e-05
0.00078941 5.2901e-05 -8.90002e-07
5.2901e-05 7.93766e-05 -1.01219e-06
-8.90002e-07 -1.01219e-06 -3.44676e-06
0.000699025 -1.10204e-05 -8.93649e-07
-1.10204e-05 3.3387e-06 -2.05704e-06
-8.93649e-07 -2.05704e-06 -4.54258e-05
0.000766913 4.55777e-05 -9.68494e-08
4.55777e-05 5.95418e-05 3.7318e-09
-9.68494e-08 3.7318e-09 -1.62097e-05
0.000634848 -3.28478e-05 -2.14944e-07
-3.28478e-05 -3.88042e-05 -4.06218e-06
-2.14944e-07 -4.06218e-06 -5.31076e-05
0.000702944 -3.62844e-06 -1.17334e-07
-3.62844e-06 6.16378e-06 -3.16723e-08
-1.17334e-07 -3.16723e-08 -3.98891e-05
0.000733613 2.87859e-05 -3.45431e-07
2.87859e-05 3.89587e-05 3.26855e-07
-3.45431e-07 3.26855e-07 -3.26586e-05
0.00227876 -4.46679e-05 -1.75349e-05
-4.46679e-05 0.000901184 -4.42094e-06
-1.75349e-05 -4.42094e-06 0.000916883
0.000650691 -2.54223e-05 -1.75415e-07
-2.54223e-05 -3.50611e-05 -2.95695e-08
-1.75415e-07 -2.95695e-08 -4.61789e-05
0.000686937 -5.8842e-08 -2.5584e-07
-5.8842e-08 -2.70248e-06 1.28334e-06
-2.5584e-07 1.28334e-06 -4.58655e-05
0.00218766 -3.25064e-05 -3.06958e-06
-3.25064e-05 0.000844179 9.78728e-08
-3.06958e-06 9.78728e-08 0.000862091
0.000659975 -1.8419e-05 2.15774e-07
-1.8419e-05 -3.35366e-05 3.68617e-06
2.15774e-07 3.68617e-06 -4.19429e-05
0.0021168 -2.03731e-05 8.70133e-06
-2.03731e-05 0.000800147 4.60352e-06
8.70133e-06 4.60352e-06 0.00081973
0.000946638 -4.95404e-05 1.07484e-05
-4.95404e-05 0.000122089 2.9567e-05
1.07484e-05 2.9567e-05 -0.000221094
0.001398 -1.66378e-05 -7.67723e-06
-1.66378e-05 0.000131339 1.20102e-05
-7.67723e-06 1.20102e-05 -9.18632e-05
0.00137351 2.5732e-06 9.41543e-06
2.5732e-06 0.000337949 -1.70995e-05
9.41543e-06 -1.70995e-05 2.91605e-05
0.000771981 1.80915e-05 -1.90021e-07
1.80915e-05 6.56691e-05 -6.52006e-08
-1.90021e-07 -6.52006e-08 -2.08845e-05
0.000771823 -6.79675e-06 -9.17027e-08
-6.79675e-06 6.58558e-05 2.18149e-07
-9.17027e-08 2.18149e-07 -2.1473e-05
0.000731713 -5.64819e-06 -1.07256e-06
-5.64819e-06 4.54451e-05 -1.62552e-06
-1.07256e-06 -1.62552e-06 -4.47261e-05
0.000654144 -2.20814e-05 -5.11991e-07
-2.20814e-05 -1.78016e-06 -6.49098e-07
-5.11991e-07 -6.49098e-07 -8.75554e-05
0.00096574 7.07887e-05 -1.13882e-06
7.07887e-05 0.000187106 -2.09761e-07
-1.13882e-06 -2.09761e-07 8.61203e-05
0.000737348 -1.49533e-05 1.54758e-08
-1.49533e-05 3.5267e-05 -1.43608e-07
1.54758e-08 -1.43608e-07 -4.42773e-05
0.000742236 7.08105e-06 8.57671e-07
7.08105e-06 4.61505e-05 -7.65665e-07
8.57671e-07 -7.65665e-07 -4.52657e-05
0.000802556 2.28038e-05 -9.49097e-08
2.28038e-05 8.51462e-05 -4.17273e-08
-9.49097e-08 -4.17273e-08 -5.34392e-06
0.000888766 5.53399e-05 1.53997e-07
5.53399e-05 0.000131244 1.83971e-07
1.53997e-07 1.83971e-07 3.24524e-05
0.000939897 2.52206e-05 -4.64317e-07
2.52206e-05 0.00017383 4.07666e-07
-4.64317e-07 4.07666e-07 7.81815e-05
0.00202846 2.49344e-05 9.2825e-05
2.49344e-05 0.000579332 0.00011897
9.2825e-05 0.00011897 -0.000587948
0.0012194 4.16872e-05 7.08864e-06
4.16872e-05 0.000258585 2.87294e-05
7.08864e-06 2.87294e-05 -0.000760778
0.00251956 8.5895e-06 -1.01908e-05
8.5895e-06 0.000903675 -2.37285e-05
-1.01908e-05 -2.37285e-05 0.000312868
0.0064036 -0.000500337 -3.75649e-05
-0.000500337 0.000807204 -7.10527e-05
-3.75649e-05 -7.10527e-05 0.00212666
-0.00942977 0.000305588 -4.85669e-05
0.000305588 -0.00344447 9.88832e-05
-4.85669e-05 9.88832e-05 -0.00476002
0.00465853 -0.000767797 -8.49898e-05
-0.000767797 0.00142216 5.10268e-05
-8.49898e-05 5.10268e-05 0.000621524
0.00836949 -0.000334943 -1.61972e-05
-0.000334943 0.00308554 -3.93416e-05
-1.61972e-05 -3.93416e-05 0.00073582
0.00314414 -0.000205034 -3.90606e-05
-0.000205034 0.000356729 4.57449e-05
-3.90606e-05 4.57449e-05 3.13467e-05
0.0102148 -0.000188984 4.93664e-05
-0.000188984 0.00457281 -1.61106e-05
4.93664e-05 -1.61106e-05 0.00164673
0.00138169 -0.000438297 2.83478e-05
-0.000438297 -0.000275373 1.68512e-05
2.83478e-05 1.68512e-05 -0.000788657
0.00152271 -0.00064418 -5.82743e-05
-0.00064418 -0.00198195 -0.000127474
-5.82743e-05 -0.000127474 -0.000519821
0.00444726 0.000110891 -9.75122e-05
0.000110891 0.000892826 -7.86874e-06
-9.75122e-05 -7.86874e-06 0.000551514
0.0080554 0.000145874 -1.02409e-05
0.000145874 0.00316118 3.82445e-05
-1.02409e-05 3.82445e-05 0.00100263
0.00788074 -0.00110307 -1.70326e-05
-0.00110307 0.00218837 -7.60608e-05
-1.70326e-05 -7.60608e-05 0.00230238
0.00408669 -0.00100111 3.00473e-05
-0.00100111 0.000483589 3.9598e-06
3.00473e-05 3.9598e-06 0.00207774
0.00055322 3.62205e-05 1.36615e-06
3.62205e-05 -9.00531e-08 1.27913e-06
1.36615e-06 1.27913e-06 -7.32854e-05
0.000910928 -1.41717e-05 -6.38908e-08
-1.41717e-05 0.000152595 5.98401e-07
-6.38908e-08 5.98401e-07 6.22977e-05
0.00079502 2.52866e-05 1.15169e-07
2.52866e-05 8.20553e-05 -8.21152e-07
1.15169e-07 -8.21152e-07 -2.21772e-05
0.000445649 3.63523e-05 -3.42989e-05
3.63523e-05 0.000200673 1.85735e-05
-3.42989e-05 1.85735e-05 -0.000244348
0.00108025 -7.37503e-05 -4.80685e-05
-7.37503e-05 0.000536956 -1.35291e-05
-4.80685e-05 -1.35291e-05 0.000505368
0.000696973 -3.0695e-06 -1.02692e-08
-3.0695e-06 4.02675e-05 -8.90869e-08
-1.02692e-08 -8.90869e-08 -6.02058e-05
0.000214406 5.26808e-06 -1.60376e-09
5.26808e-06 -0.000164799 -5.56131e-06
-1.60376e-09 -5.56131e-06 -0.000261407
0.000691464 2.67324e-05 -1.34038e-07
2.67324e-05 9.50904e-05 -2.01687e-06
-1.34038e-07 -2.01687e-06 2.26079e-06
0.000326935 2.27726e-05 -3.07968e-06
2.27726e-05 8.20177e-05 4.61829e-06
-3.07968e-06 4.61829e-06 -2.35935e-05
-1.2277e-05 -1.47655e-05 6.4407e-05
-1.47655e-05 0.000596518 -3.51857e-05
6.4407e-05 -3.51857e-05 -0.000421054
-0.00115833 -1.11561e-05 -1.49634e-05
-1.11561e-05 -0.00074127 9.85645e-06
-1.49634e-05 9.85645e-06 -0.000836261
0.00131086 0.000151837 -1.03475e-05
0.000151837 0.000654632 -3.3032e-05
-1.03475e-05 -3.3032e-05 5.19417e-05
0.00153866 -1.08343e-06 7.25694e-05
-1.08343e-06 0.000336426 8.08638e-06
7.25694e-05 8.08638e-06 -0.000345124
0.00116228 -1.55958e-05 1.02903e-05
-1.55958e-05 0.000214832 2.78116e-06
1.02903e-05 2.78116e-06 1.23433e-05
0.000951256 -1.46114e-05 1.19051e-06
-1.46114e-05 -8.01034e-05 -6.63387e-07
1.19051e-06 -6.63387e-07 -0.000173757
-0.00160616 -8.94596e-06 -2.08292e-05
-8.94596e-06 -0.000460576 1.14718e-05
-2.08292e-05 1.14718e-05 -0.00088911
0.00263102 4.97914e-07 2.06471e-06
4.97914e-07 8.4505e-05 -3.21281e-05
2.06471e-06 -3.21281e-05 -0.000161802
0.00140662 6.74148e-06 -7.09292e-06
6.74148e-06 0.000341833 1.63881e-05
-7.09292e-06 1.63881e-05 5.01681e-05
0.0143977 -0.000573481 0.000107042
-0.000573481 0.00636602 -1.0485e-05
0.000107042 -1.0485e-05 0.00350079
0.00636949 0.000783512 -4.36242e-05
0.000783512 0.00180245 -9.41579e-06
-4.36242e-05 -9.41579e-06 0.00167496
0.00311806 -9.72149e-05 -5.41201e-05
-9.72149e-05 0.000869411 7.91346e-05
-5.41201e-05 7.91346e-05 -0.00032463
-0.00565175 0.00108074 0.000184241
0.00108074 -0.00355066 -0.000160964
0.000184241 -0.000160964 -0.00159079
0.00049747 -4.35108e-05 -5.23467e-06
-4.35108e-05 0.000246379 -1.90688e-07
-5.23467e-06 -1.90688e-07 0.000106583
0.00155045 -2.39424e-05 -1.01705e-05
-2.39424e-05 0.000230522 3.3091e-06
-1.01705e-05 3.3091e-06 -0.000490588
-0.00215506 0.000250615 -0.000136851
0.000250615 0.00026005 5.96003e-05
-0.000136851 5.96003e-05 -0.000161148
0.00182033 -0.000287508 -2.17087e-05
-0.000287508 -0.000112367 2.99008e-05
-2.17087e-05 2.99008e-05 -0.000368428
0.00772926 0.00117531 3.25433e-05
0.00117531 0.00263252 3.07802e-05
3.25433e-05 3.07802e-05 0.00321444
0.00718719 -0.000535103 5.89453e-05
-0.000535103 0.00295171 -3.19935e-05
5.89453e-05 -3.19935e-05 0.000512261
0.00140174 -0.000214569 9.4891e-06
-0.000214569 0.00023768 1.98302e-05
9.4891e-06 1.98302e-05 0.000390494
-0.00223505 -2.67504e-05 4.71316e-05
-2.67504e-05 0.000303806 -9.85127e-06
4.71316e-05 -9.85127e-06 -0.000675523
0.00513944 0.000922557 -0.000118649
0.000922557 0.00259234 6.06551e-05
-0.000118649 6.06551e-05 0.00268187
0.00270256 -0.000162596 -0.00011213
-0.000162596 0.000527072 8.4473e-05
-0.00011213 8.4473e-05 -0.00196155
0.00279771 -0.000701213 3.88242e-05
-0.000701213 0.000318284 -1.00385e-05
3.88242e-05 -1.00385e-05 -0.000251595
0.000189206 -5.74124e-05 4.56847e-06
-5.74124e-05 0.000206602 1.09334e-05
4.56847e-06 1.09334e-05 2.08855e-05
0.000429114 -0.000177303 -2.65475e-06
-0.000177303 9.52656e-05 1.76167e-06
-2.65475e-06 1.76167e-06 -7.44421e-05
0.00331546 -0.00038684 2.67965e-05
-0.00038684 0.00115529 9.72173e-07
2.67965e-05 9.72173e-07 0.00110889
-0.00175592 -1.41709e-05 -6.09738e-06
-1.41709e-05 -0.00100255 7.33016e-06
-6.09738e-06 7.33016e-06 -0.00125707
0.000729587 -0.000219683 4.28357e-06
-0.000219683 -2.29197e-06 -3.36105e-07
4.28357e-06 -3.36105e-07 -0.000245661
0.000942697 -0.000299644 5.43734e-06
-0.000299644 -0.000201059 -1.05235e-06
5.43734e-06 -1.05235e-06 -0.000383973
0.00218053 -0.000279336 -7.18653e-06
-0.000279336 0.000839432 1.54432e-06
-7.18653e-06 1.54432e-06 0.00055666
0.00119341 -0.000260765 -3.27642e-06
-0.000260765 0.000128154 -2.47789e-06
-3.27642e-06 -2.47789e-06 -0.000136267
0.00166464 -0.000332273 4.81212e-06
-0.000332273 0.000159863 -1.79163e-06
4.81212e-06 -1.79163e-06 -2.83023e-05
0.00173373 -0.00027373 -2.94198e-06
-0.00027373 0.000463925 -8.47355e-07
-2.94198e-06 -8.47355e-07 0.000203698
0.00150604 -0.000277274 3.64546e-08
-0.000277274 0.000184378 -2.50185e-06
3.64546e-08 -2.50185e-06 -5.16808e-05
0.00174412 -0.000289584 8.91529e-07
-0.000289584 0.000170125 -4.26617e-06
8.91529e-07 -4.26617e-06 -6.37765e-06
0.0016116 -0.000232233 1.56195e-07
-0.000232233 0.000120338 -2.92151e-06
1.56195e-07 -2.92151e-06 -4.07131e-05
0.00165811 -0.000259504 2.94056e-07
-0.000259504 0.000230204 -5.34174e-07
2.94056e-07 -5.34174e-07 2.60902e-05
0.00157092 -0.000260757 1.10567e-06
-0.000260757 0.000144908 -5.64536e-07
1.10567e-06 -5.64536e-07 -4.94884e-05
0.00154367 -0.000238916 -7.74247e-07
-0.000238916 0.000320874 5.38912e-06
-7.74247e-07 5.38912e-06 0.000122828
0.00154475 -0.000256422 3.25503e-07
-0.000256422 0.000275997 3.47525e-07
3.25503e-07 3.47525e-07 5.33044e-05
0.0018128 -0.00028706 -1.09333e-06
-0.00028706 0.000374909 -2.56626e-06
-1.09333e-06 -2.56626e-06 0.000131905
0.000995186 -0.000170176 1.97962e-06
-0.000170176 0.000152398 -1.04366e-06
1.97962e-06 -1.04366e-06 -7.20193e-06
0.000591847 -0.000148706 -8.6129e-07
-0.000148706 -9.26052e-05 -1.89109e-06
-8.6129e-07 -1.89109e-06 -0.000249933
0.00137105 -0.000210499 4.55294e-06
-0.000210499 0.000317961 -5.01679e-06
4.55294e-06 -5.01679e-06 0.000142494
0.000774696 -9.42862e-05 4.3017e-07
-9.42862e-05 7.61041e-05 1.3111e-06
4.3017e-07 1.3111e-06 -5.51663e-05
0.000889373 -0.000139932 1.08058e-07
-0.000139932 0.000144833 4.83593e-07
1.08058e-07 4.83593e-07 -9.92073e-06
0.000841853 -0.000151097 -2.66248e-07
-0.000151097 9.88308e-05 1.25952e-06
-2.66248e-07 1.25952e-06 -5.91481e-05
0.000610792 6.97963e-05 1.47965e-06
6.97963e-05 -6.13156e-06 3.34909e-06
1.47965e-06 3.34909e-06 -8.39213e-05
0.0007998 -2.53945e-05 1.96212e-07
-2.53945e-05 0.000112607 -1.1826e-07
1.96212e-07 -1.1826e-07 -2.64235e-06
0.000906857 -8.54943e-05 -1.0247e-06
-8.54943e-05 0.00018244 1.87906e-07
-1.0247e-06 1.87906e-07 4.96554e-05
0.00131911 7.85777e-05 -1.39164e-05
7.85777e-05 0.000390386 3.2623e-06
-1.39164e-05 3.2623e-06 0.000369537
0.000663599 4.2442e-05 -5.44914e-07
4.2442e-05 1.10819e-05 -4.87409e-07
-5.44914e-07 -4.87409e-07 -4.81666e-05
0.00079503 -2.14607e-05 -8.29484e-08
-2.14607e-05 9.86084e-05 -1.74756e-06
-8.29484e-08 -1.74756e-06 4.72654e-06
0.00078078 4.28562e-05 -2.49352e-05
4.28562e-05 7.91313e-05 3.30718e-06
-2.49352e-05 3.30718e-06 8.2087e-05
0.000998172 6.45549e-05 -6.98913e-06
6.45549e-05 0.000196309 2.2338e-07
-6.98913e-06 2.2338e-07 0.000178312
0.000694313 4.18306e-05 5.06764e-07
4.18306e-05 1.8962e-05 -2.07244e-06
5.06764e-07 -2.07244e-06 -3.05652e-05
0.000642337 5.04825e-05 8.69094e-07
5.04825e-05 -1.62466e-05 -3.70524e-06
8.69094e-07 -3.70524e-06 -3.26895e-05
0.00221386 7.46626e-05 1.71452e-06
7.46626e-05 0.000888157 1.4844e-07
1.71452e-06 1.4844e-07 0.000898319
0.00221046 6.57192e-05 2.32668e-05
6.57192e-05 0.000878874 -3.51556e-06
2.32668e-05 -3.51556e-06 0.000891106
0.00072547 3.20253e-06 -4.69193e-08
3.20253e-06 3.98041e-05 -8.90956e-07
-4.69193e-08 -8.90956e-07 -4.89353e-05
0.000793904 3.37146e-05 -4.26381e-07
3.37146e-05 8.11117e-05 -1.43029e-06
-4.26381e-07 -1.43029e-06 -2.90045e-06
0.000758805 -6.96191e-07 1.12737e-07
-6.96191e-07 5.85916e-05 -3.90107e-08
1.12737e-07 -3.90107e-08 -2.72825e-05
0.000701904 -2.2478e-05 -1.06411e-06
-2.2478e-05 7.51491e-06 -2.23687e-06
-1.06411e-06 -2.23687e-06 -4.38835e-05
0.000771494 2.47616e-05 6.75541e-07
2.47616e-05 6.21314e-05 -1.9935e-08
6.75541e-07 -1.9935e-08 -1.5203e-05
0.000621787 -3.96561e-05 -2.98816e-07
-3.96561e-05 -4.01091e-05 -4.23633e-06
-2.98816e-07 -4.23633e-06 -5.7507e-05
0.000698396 -7.67053e-06 -1.54234e-07
-7.67053e-06 3.92669e-06 -1.67859e-08
-1.54234e-07 -1.67859e-08 -4.5068e-05
0.000785498 5.05132e-05 8.48926e-07
5.05132e-05 8.0385e-05 1.0074e-06
8.48926e-07 1.0074e-06 -2.51341e-06
0.00236595 -5.57101e-05 -2.25662e-05
-5.57101e-05 0.000956363 -4.23478e-06
-2.25662e-05 -4.23478e-06 0.000969855
0.000637232 -3.20353e-05 -3.24209e-07
-3.20353e-05 -3.76371e-05 -1.4744e-08
-3.24209e-07 -1.4744e-08 -5.17972e-05
0.000704699 -3.62434e-06 4.77957e-07
-3.62434e-06 7.64882e-06 2.12612e-06
4.77957e-07 2.12612e-06 -3.84862e-05
0.0022612 -4.37846e-05 -2.91575e-06
-4.37846e-05 0.00089052 1.25806e-07
-2.91575e-06 1.25806e-07 0.00090652
0.000650865 -2.49545e-05 2.49894e-07
-2.49545e-05 -3.49552e-05 3.82062e-06
2.49894e-07 3.82062e-06 -4.59863e-05
0.00217505 -3.15103e-05 1.26576e-05
-3.15103e-05 0.000836406 4.52824e-06
1.26576e-05 4.52824e-06 0.000854573
0.00229205 -3.55164e-05 6.98046e-05
-3.55164e-05 0.000662591 3.68393e-05
6.98046e-05 3.68393e-05 4.07956e-05
0.00103327 -4.49876e-05 5.32385e-07
-4.49876e-05 0.000174443 9.57534e-06
5.32385e-07 9.57534e-06 -0.000151249
0.00125334 -2.22644e-05 -7.56511e-06
-2.22644e-05 4.77525e-05 -7.81792e-06
-7.56511e-06 -7.81792e-06 -0.000124631
0.0008405 6.95607e-05 -2.11058e-06
6.95607e-05 0.000118104 -5.8056e-07
-2.11058e-06 -5.8056e-07 1.69511e-05
0.00083574 1.74255e-05 3.35976e-07
1.74255e-05 9.98248e-05 1.96592e-07
3.35976e-07 1.96592e-07 1.45824e-05
0.000716934 -1.44857e-05 4.25038e-07
-1.44857e-05 3.48698e-05 4.50022e-07
4.25038e-07 4.50022e-07 -5.21589e-05
0.000829828 -7.08651e-06 6.84485e-08
-7.08651e-06 9.32275e-05 -1.1835e-07
6.84485e-08 -1.1835e-07 8.87582e-06
0.00087375 2.61103e-05 6.51652e-09
2.61103e-05 0.000126834 -2.57736e-07
6.51652e-09 -2.57736e-07 3.40261e-05
0.00083351 5.15932e-05 3.54284e-07
5.15932e-05 0.000111233 7.13988e-07
3.54284e-07 7.13988e-07 1.27436e-05
0.000838917 3.84391e-05 -9.50876e-07
3.84391e-05 0.000115539 -1.77162e-06
-9.50876e-07 -1.77162e-06 1.19334e-05
0.000549109 -1.45636e-05 -1.65309e-07
-1.45636e-05 -5.27376e-05 -2.89588e-07
-1.65309e-07 -2.89588e-07 -0.000145095
0.000826386 7.5722e-05 3.89753e-07
7.5722e-05 0.000102265 -4.34882e-07
3.89753e-07 -4.34882e-07 8.50876e-06
0.000806828 -2.50417e-05 1.25004e-06
-2.50417e-05 6.85957e-05 -5.13022e-07
1.25004e-06 -5.13022e-07 -1.78449e-05
0.000834017 2.23753e-05 -2.30359e-07
2.23753e-05 0.000109851 1.23801e-07
-2.30359e-07 1.23801e-07 1.78591e-05
0.0013168 5.26651e-05 4.49425e-06
5.26651e-05 0.000411973 2.99933e-06
4.49425e-06 2.99933e-06 0.000323431
0.00110683 -0.000417322 7.10937e-05
-0.000417322 0.00126589 8.81627e-05
7.10937e-05 8.81627e-05 0.000862234
0.00234792 4.8941e-05 5.76401e-06
4.8941e-05 0.000748444 2.79081e-05
5.76401e-06 2.79081e-05 -0.000457324
0.00152341 5.3524e-05 -1.26296e-05
5.3524e-05 0.000329084 -4.74917e-05
-1.26296e-05 -4.74917e-05 -0.000703352
0.0057019 -0.000847084 -0.000106566
-0.000847084 0.000228069 -9.27431e-05
-0.000106566 -9.27431e-05 0.00176774
0.003687 -0.0002596 -4.16098e-07
-0.0002596 0.000287876 6.17754e-05
-4.16098e-07 6.17754e-05 -0.000282212
0.000577887 -0.000449543 -9.09746e-05
-0.000449543 0.000219946 6.97641e-05
-9.09746e-05 6.97641e-05 -0.0024273
0.00289279 -0.000186192 -5.53625e-05
-0.000186192 0.000453493 9.00395e-05
-5.53625e-05 9.00395e-05 -5.55323e-05
0.00399325 -0.000119783 1.20065e-05
-0.000119783 0.000691491 3.7534e-05
1.20065e-05 3.7534e-05 0.000517244
-0.00077625 -0.000988036 2.47809e-05
-0.000988036 -0.00149859 3.88751e-05
2.47809e-05 3.88751e-05 0.000242712
0.00568788 0.000305928 5.68146e-06
0.000305928 0.00278205 1.08628e-05
5.68146e-06 1.08628e-05 -0.000117371
0.00143186 -0.000573982 -1.23367e-05
-0.000573982 -0.00124535 1.86496e-05
-1.23367e-05 1.86496e-05 -0.000991017
0.00194563 0.000256014 -2.68389e-05
0.000256014 -9.81165e-05 3.23114e-06
-2.68389e-05 3.23114e-06 -0.000317179
0.00845408 -2.95474e-05 -4.24334e-05
-2.95474e-05 0.00401786 3.37233e-05
-4.24334e-05 3.37233e-05 0.00170956
-6.24115e-05 -0.000786273 -7.44861e-05
-0.000786273 -0.00075993 -6.92245e-05
-7.44861e-05 -6.92245e-05 -0.000207333
0.000475892 0.000174662 3.18137e-07
0.000174662 -6.9274e-05 -3.63106e-06
3.18137e-07 -3.63106e-06 -0.000147203
0.000879141 4.82183e-05 5.64698e-06
4.82183e-05 0.000173691 5.03542e-08
5.64698e-06 5.03542e-08 0.000101436
0.00098351 8.55531e-06 -6.34227e-07
8.55531e-06 0.000197727 2.75007e-07
-6.34227e-07 2.75007e-07 0.000106593
-0.000200388 -2.041e-06 -0.000101858
-2.041e-06 0.000383102 -2.03485e-05
-0.000101858 -2.03485e-05 -0.000581473
-0.000985791 6.11634e-05 7.48264e-06
6.11634e-05 -0.000633811 -7.34216e-06
7.48264e-06 -7.34216e-06 -0.000744336
0.000875563 6.19697e-05 2.16453e-06
6.19697e-05 0.000197361 -3.4889e-06
2.16453e-06 -3.4889e-06 0.000100852
0.000741128 0.000128506 4.67033e-06
0.000128506 0.000223145 2.59411e-06
4.67033e-06 2.59411e-06 0.000117478
0.000822562 0.000188358 -2.39386e-06
0.000188358 0.000365886 -2.52767e-05
-2.39386e-06 -2.52767e-05 -0.000122251
0.000498499 0.0002998 1.63865e-05
0.0002998 -0.000120736 4.93917e-06
1.63865e-05 4.93917e-06 -0.000324081
0.000378287 3.02482e-05 0.000115305
3.02482e-05 0.00179519 3.48072e-06
0.000115305 3.48072e-06 0.000855974
0.00154279 -2.19308e-05 -6.33667e-06
-2.19308e-05 0.000387906 8.33594e-06
-6.33667e-06 8.33594e-06 -0.000183623
0.000938943 -1.44805e-05 7.30323e-08
-1.44805e-05 8.71316e-05 2.22655e-06
7.30323e-08 2.22655e-06 -9.15301e-05
0.00130562 -7.42802e-05 -3.21639e-05
-7.42802e-05 0.000732968 6.56985e-06
-3.21639e-05 6.56985e-06 0.000598172
0.00101399 -0.000181796 -6.02539e-06
-0.000181796 -0.000837188 -1.4733e-05
-6.02539e-06 -1.4733e-05 -0.00080659
0.00177635 -2.02178e-05 -8.46665e-05
-2.02178e-05 0.000397517 2.43551e-05
-8.46665e-05 2.43551e-05 -0.00032852
-0.00106058 -0.00061167 4.82674e-05
-0.00061167 -0.000671264 -4.50353e-05
4.82674e-05 -4.50353e-05 -0.00334138
-0.00366491 0.000658031 5.16223e-05
0.000658031 -0.00337993 -6.68367e-05
5.16223e-05 -6.68367e-05 -0.00264546
0.00141391 0.000443401 -9.55009e-05
0.000443401 0.0017002 8.2257e-05
-9.55009e-05 8.2257e-05 0.00167729
0.00188468 -0.000104279 -1.57263e-06
-0.000104279 0.000301337 2.19621e-06
-1.57263e-06 2.19621e-06 0.000589561
0.00147768 0.000153897 6.8144e-06
0.000153897 0.00192893 7.15752e-06
6.8144e-06 7.15752e-06 0.00139143
-0.00362673 0.000483441 3.16645e-05
0.000483441 -0.00121492 3.00158e-06
3.16645e-05 3.00158e-06 -0.00178575
0.00392405 -0.000752084 4.97171e-06
-0.000752084 0.00118763 -9.60363e-07
4.97171e-06 -9.60363e-07 0.000208646
0.00956245 4.64499e-05 7.90308e-06
4.64499e-05 0.00372715 -5.30361e-06
7.90308e-06 -5.30361e-06 0.00196953
0.00099606 -0.000274306 3.1602e-06
-0.000274306 -8.83736e-05 1.64218e-05
3.1602e-06 1.64218e-05 8.67111e-06
-0.00655146 0.000195935 -9.49961e-05
0.000195935 -0.00325119 1.35117e-07
-9.49961e-05 1.35117e-07 -0.00357308
0.00776044 5.11965e-05 -2.7752e-05
5.11965e-05 0.00251805 1.49301e-05
-2.7752e-05 1.49301e-05 0.00106686
0.00517303 -0.000812628 3.87328e-06
-0.000812628 0.000683603 7.02223e-06
3.87328e-06 7.02223e-06 -0.000184565
0.000221081 -0.00014789 -1.85776e-05
-0.00014789 1.65882e-05 1.42726e-05
-1.85776e-05 1.42726e-05 -0.000196376
0.00144967 -0.000274284 -2.06167e-06
-0.000274284 0.000153718 7.33359e-07
-2.06167e-06 7.33359e-07 0.000166907
0.00215361 -0.000307277 1.75229e-05
-0.000307277 0.000296071 -2.96214e-06
1.75229e-05 -2.96214e-06 0.000330241
-0.000330729 -0.000132378 -5.75874e-06
-0.000132378 -0.000515223 1.10991e-06
-5.75874e-06 1.10991e-06 -0.000769258
0.00131467 -0.000321754 -3.70107e-06
-0.000321754 3.10418e-06 -1.10326e-06
-3.70107e-06 -1.10326e-06 -0.000187814
0.00203604 -0.000375658 2.43701e-06
-0.000375658 0.000216577 1.24401e-07
2.43701e-06 1.24401e-07 7.4017e-05
0.00165275 -0.000289206 -7.38182e-06
-0.000289206 0.000363376 -2.34636e-06
-7.38182e-06 -2.34636e-06 0.000109512
0.00153221 -0.000319584 1.80323e-06
-0.000319584 0.000105171 7.95722e-07
1.80323e-06 7.95722e-07 -8.56151e-05
0.00197289 -0.000308644 -8.56666e-07
-0.000308644 0.000215732 -3.7913e-06
-8.56666e-07 -3.7913e-06 7.37014e-05
0.00130025 -0.000262082 -5.20805e-06
-0.000262082 6.5927e-05 1.76958e-07
-5.20805e-06 1.76958e-07 -0.000162927
0.00164175 -0.000280517 -4.16009e-07
-0.000280517 0.000113552 3.94198e-07
-4.16009e-07 3.94198e-07 -6.146e-05
0.00176922 -0.000245836 -1.96341e-07
-0.000245836 0.000127723 -4.58223e-06
-1.96341e-07 -4.58223e-06 -2.72976e-06
0.00159578 -0.000197252 -9.59296e-07
-0.000197252 6.66622e-05 -3.14767e-06
-9.59296e-07 -3.14767e-06 -6.4138e-05
0.00163804 -0.000225561 -5.41914e-07
-0.000225561 0.000167707 -2.31477e-06
-5.41914e-07 -2.31477e-06 -6.00199e-06
0.00152431 -0.000224233 1.67607e-07
-0.000224233 7.17167e-05 1.23786e-06
1.67607e-07 1.23786e-06 -8.75264e-05
0.00120397 -0.000216076 -1.70863e-06
-0.000216076 1.95579e-05 1.27039e-06
-1.70863e-06 1.27039e-06 -0.000173755
0.00143795 -0.000241945 2.34613e-06
-0.000241945 0.000112287 -1.01249e-06
2.34613e-06 -1.01249e-06 -8.75437e-05
0.00159612 -0.000262005 1.64078e-06
-0.000262005 0.00015791 1.89016e-06
1.64078e-06 1.89016e-06 -3.54749e-05
0.00115105 -0.000193374 1.12408e-06
-0.000193374 0.000169288 3.16996e-06
1.12408e-06 3.16996e-06 -8.50929e-06
0.00111186 -0.000206474 1.7364e-06
-0.000206474 9.01582e-05 -9.21431e-07
1.7364e-06 -9.21431e-07 -0.000103686
0.000585354 -0.000189124 -7.29664e-07
-0.000189124 -0.000244285 -4.00206e-06
-7.29664e-07 -4.00206e-06 -0.000466993
0.000914045 -0.000144796 -1.44053e-06
-0.000144796 0.000109961 2.3875e-07
-1.44053e-06 2.3875e-07 -3.08716e-05
0.00107848 -0.000175432 -1.56656e-07
-0.000175432 0.000193756 -1.2916e-06
-1.56656e-07 -1.2916e-06 3.38652e-05
0.000794664 -0.000161273 -1.70573e-06
-0.000161273 2.64715e-05 -4.9329e-06
-1.70573e-06 -4.9329e-06 -0.00012782
0.000726335 -2.17018e-05 4.57805e-08
-2.17018e-05 4.63353e-05 3.63979e-06
4.57805e-08 3.63979e-06 -4.72558e-05
0.000914272 -0.000100438 1.04688e-06
-0.000100438 0.000152975 4.74009e-07
1.04688e-06 4.74009e-07 2.09072e-05
0.000673372 -0.00011034 -1.29408e-06
-0.00011034 2.44545e-05 1.54063e-06
-1.29408e-06 1.54063e-06 -0.000125726
0.000506656 7.44164e-05 1.24481e-06
7.44164e-05 -5.92721e-05 5.37936e-06
1.24481e-06 5.37936e-06 -9.34633e-05
0.000684331 8.5966e-06 -6.0103e-07
8.5966e-06 2.89631e-05 -4.53221e-07
-6.0103e-07 -4.53221e-07 -4.80265e-05
0.000918798 -5.51231e-05 -2.37084e-07
-5.51231e-05 0.000181567 -1.81526e-06
-2.37084e-07 -1.81526e-06 6.22089e-05
0.00230698 0.000103001 -9.28311e-06
0.000103001 0.000958791 1.29261e-06
-9.28311e-06 1.29261e-06 0.000961225
0.000608564 6.67439e-05 -9.68821e-08
6.67439e-05 -1.27222e-05 -1.15562e-07
-9.68821e-08 -1.15562e-07 -3.85302e-05
0.000693414 2.19905e-05 1.27886e-06
2.19905e-05 2.49138e-05 -2.62498e-06
1.27886e-06 -2.62498e-06 -3.34462e-05
0.00224604 8.36686e-05 1.79512e-06
8.36686e-05 0.000914499 1.49117e-07
1.79512e-06 1.49117e-07 0.000922336
0.000643185 5.92468e-05 2.65411e-07
5.92468e-05 -4.68884e-06 -3.97434e-06
2.65411e-07 -3.97434e-06 -2.50508e-05
0.00224747 7.58923e-05 2.70561e-05
7.58923e-05 0.000908207 -3.17184e-06
2.70561e-05 -3.17184e-06 0.000918044
0.000872422 6.3243e-05 -5.18992e-07
6.3243e-05 0.000127409 -1.01351e-08
-5.18992e-07 -1.01351e-08 2.97156e-05
0.000777982 1.59386e-05 -8.8763e-08
1.59386e-05 7.01496e-05 -2.88029e-07
-8.8763e-08 -2.88029e-07 -2.00787e-05
0.000783238 1.46975e-05 -2.30344e-07
1.46975e-05 8.14781e-05 -1.83916e-06
-2.30344e-07 -1.83916e-06 -9.67948e-06
0.000695456 -2.72548e-05 -1.11893e-06
-2.72548e-05 8.50945e-06 -2.57707e-06
-1.11893e-06 -2.57707e-06 -4.56869e-05
0.0007507 6.16085e-06 7.149e-07
6.16085e-06 5.52378e-05 -2.21769e-09
7.149e-07 -2.21769e-09 -2.66696e-05
0.000722954 9.49102e-06 7.93776e-07
9.49102e-06 4.27245e-05 6.56901e-07
7.93776e-07 6.56901e-07 -4.64085e-05
0.000617326 -4.66119e-05 -5.45218e-07
-4.66119e-05 -3.56429e-05 -4.43715e-06
-5.45218e-07 -4.43715e-06 -5.58579e-05
0.000693016 -1.55339e-05 -1.47155e-07
-1.55339e-05 2.88318e-06 -2.04097e-08
-1.47155e-07 -2.04097e-08 -4.84956e-05
0.000756268 1.94304e-05 1.33012e-06
1.94304e-05 5.16109e-05 9.86652e-07
1.33012e-06 9.86652e-07 -2.39611e-05
0.0024338 -6.62265e-05 -2.76919e-05
-6.62265e-05 0.00100122 -3.95858e-06
-2.76919e-05 -3.95858e-06 0.00101253
0.000622221 -3.83025e-05 -2.97536e-07
-3.83025e-05 -4.01942e-05 7.06653e-09
-2.97536e-07 7.06653e-09 -5.73792e-05
0.000700216 -5.75427e-06 9.25143e-07
-5.75427e-06 5.51247e-06 2.15919e-06
9.25143e-07 2.15919e-06 -4.35603e-05
0.0023392 -5.48963e-05 -3.14696e-06
-5.48963e-05 0.000940439 1.61389e-07
-3.14696e-06 1.61389e-07 0.00095424
0.000637212 -3.13086e-05 1.83844e-07
-3.13086e-05 -3.77458e-05 4.0148e-06
1.83844e-07 4.0148e-06 -5.17796e-05
0.00223737 -4.26951e-05 1.66973e-05
-4.26951e-05 0.000876257 4.41576e-06
1.66973e-05 4.41576e-06 0.0008926
-0.00304056 -6.77161e-05 3.20937e-05
-6.77161e-05 3.94807e-06 3.31042e-05
3.20937e-05 3.31042e-05 -0.00112319
0.00226522 -5.87171e-05 2.10236e-06
-5.87171e-05 0.000714638 1.12188e-05
2.10236e-06 1.12188e-05 9.67864e-05
0.00116853 -4.04891e-05 -6.84642e-06
-4.04891e-05 0.000248749 -9.78399e-06
-6.84642e-06 -9.78399e-06 -5.62626e-05
0.000734418 3.32737e-05 -7.13097e-07
3.32737e-05 5.5316e-05 5.4205e-07
-7.13097e-07 5.4205e-07 -4.1285e-05
0.00122781 0.000160866 -2.42712e-07
0.000160866 0.00034621 6.35086e-07
-2.42712e-07 6.35086e-07 0.000221683
0.000784753 3.37199e-05 -1.37455e-06
3.37199e-05 9.18852e-05 -6.77552e-08
-1.37455e-06 -6.77552e-08 -1.3645e-05
0.000941656 -1.33544e-05 4.91312e-07
-1.33544e-05 0.00015443 -2.20432e-07
4.91312e-07 -2.20432e-07 7.08546e-05
0.000987927 5.82542e-05 1.24954e-06
5.82542e-05 0.000189705 4.10379e-07
1.24954e-06 4.10379e-07 9.63807e-05
0.000642573 4.84822e-06 6.53539e-08
4.84822e-06 -2.86146e-06 1.67923e-06
6.53539e-08 1.67923e-06 -9.39063e-05
0.000694997 1.83691e-05 -9.48391e-07
1.83691e-05 3.49172e-05 3.11947e-08
-9.48391e-07 3.11947e-08 -6.42407e-05
0.000780574 2.35359e-05 1.91152e-08
2.35359e-05 8.12432e-05 -3.07829e-07
1.91152e-08 -3.07829e-07 -2.037e-05
0.000934621 6.54882e-05 8.81836e-07
6.54882e-05 0.000189603 -1.63098e-06
8.81836e-07 -1.63098e-06 6.837e-05
0.000715846 0.000110915 3.9441e-06
0.000110915 1.32923e-05 -5.71233e-06
3.9441e-06 -5.71233e-06 -8.12071e-05
0.000803638 4.62957e-05 1.76e-07
4.62957e-05 9.57159e-05 -6.8643e-07
1.76e-07 -6.8643e-07 -5.6079e-07
0.000897606 6.16028e-05 7.826e-07
6.16028e-05 0.000178974 1.42432e-06
7.826e-07 1.42432e-06 8.75363e-05
-0.00478207 -0.000465005 -0.000132478
-0.000465005 -0.00176158 2.04612e-05
-0.000132478 2.04612e-05 -0.00219191
-0.00144146 -0.0003663 6.53482e-05
-0.0003663 0.000274343 2.71956e-05
6.53482e-05 2.71956e-05 -0.00030429
0.00265274 4.92554e-05 -7.82936e-05
4.92554e-05 0.000911169 -6.36286e-05
-7.82936e-05 -6.36286e-05 -0.000333065
-0.0058429 -0.00100225 0.000126304
-0.00100225 -0.00349033 0.000137317
0.000126304 0.000137317 -0.00160453
0.00744656 -0.000790769 -1.48314e-05
-0.000790769 0.00217745 2.64426e-05
-1.48314e-05 2.64426e-05 0.00231188
0.000799745 0.000605291 4.0137e-05
0.000605291 2.39515e-05 -2.38975e-05
4.0137e-05 -2.38975e-05 -0.00273283
0.00347891 -0.000135404 -0.000145285
-0.000135404 0.000680836 6.82482e-05
-0.000145285 6.82482e-05 -3.35659e-06
0.00290788 0.00019956 -2.40812e-05
0.00019956 0.000441317 1.05059e-05
-2.40812e-05 1.05059e-05 0.000119023
0.00643372 -0.000991866 -4.49524e-05
-0.000991866 0.00303257 3.32558e-05
-4.49524e-05 3.32558e-05 0.00330615
0.00154601 0.000293748 9.24363e-06
0.000293748 0.000705067 2.15318e-06
9.24363e-06 2.15318e-06 -0.00163187
0.00255718 0.000503515 -0.000108969
0.000503515 0.000756007 -6.91081e-05
-0.000108969 -6.91081e-05 7.08583e-05
0.00319327 0.000703203 -0.000182437
0.000703203 0.00064142 -7.219e-05
-0.000182437 -7.219e-05 -0.00144152
0.00204715 0.000414969 1.06716e-05
0.000414969 0.000504643 -1.31011e-05
1.06716e-05 -1.31011e-05 0.000338052
0.000768636 0.000179129 -4.22973e-06
0.000179129 8.50544e-05 1.3367e-06
-4.22973e-06 1.3367e-06 7.69655e-06
0.00107136 4.97471e-05 -3.98631e-07
4.97471e-05 0.00027389 -2.48636e-06
-3.98631e-07 -2.48636e-06 0.000202479
-0.000375343 0.000146866 -3.05885e-05
0.000146866 -0.000179134 -2.55377e-05
-3.05885e-05 -2.55377e-05 -0.000569928
0.00196579 0.000206145 -7.86768e-06
0.000206145 0.00083475 -8.00933e-06
-7.86768e-06 -8.00933e-06 0.000719753
0.00117767 0.000358304 8.12257e-06
0.000358304 0.000132946 -2.12089e-06
8.12257e-06 -2.12089e-06 -6.1368e-05
0.00260382 0.00054794 7.4989e-05
0.00054794 0.000268111 3.46945e-05
7.4989e-05 3.46945e-05 0.000234778
-0.00387572 -3.95383e-05 -0.000177148
-3.95383e-05 -0.00218232 -1.07601e-05
-0.000177148 -1.07601e-05 -0.00174196
-0.00103496 1.97461e-05 5.77341e-05
1.97461e-05 0.00116975 1.23366e-06
5.77341e-05 1.23366e-06 0.000127676
0.00161364 -4.22187e-05 -6.48585e-05
-4.22187e-05 0.000457638 8.23055e-06
-6.48585e-05 8.23055e-06 -2.02585e-06
0.00241709 -0.000192331 -4.43955e-05
-0.000192331 0.000513836 -2.49937e-05
-4.43955e-05 -2.49937e-05 0.000790091
0.00309336 -0.000738568 -4.07191e-05
-0.000738568 0.000525664 4.91735e-06
-4.07191e-05 4.91735e-06 -0.000238689
0.00179929 0.000113901 -4.44528e-05
0.000113901 0.00212326 2.72625e-05
-4.44528e-05 2.72625e-05 0.00162179
-0.000562788 -0.000314879 9.42679e-05
-0.000314879 -0.000798872 -8.38308e-05
9.42679e-05 -8.38308e-05 -0.00308006
0.00861873 0.000580094 -1.60377e-05
0.000580094 0.00423908 4.77493e-06
-1.60377e-05 4.77493e-06 0.00402111
0.00208807 -0.000416611 -8.8257e-06
-0.000416611 0.000374521 3.1776e-06
-8.8257e-06 3.1776e-06 0.000355086
-0.001108 0.000331529 1.08897e-05
0.000331529 -0.000475528 -5.19852e-06
1.08897e-05 -5.19852e-06 -0.000756522
0.00372527 3.48219e-05 -2.14851e-05
3.48219e-05 0.000466789 3.11675e-05
-2.14851e-05 3.11675e-05 -0.00143383
0.00576298 -0.000796806 -3.48627e-05
-0.000796806 0.0014531 1.10762e-05
-3.48627e-05 1.10762e-05 0.000594568
-0.000792952 -0.00017107 2.51123e-05
-0.00017107 -0.000905823 -7.2758e-06
2.51123e-05 -7.2758e-06 -0.00113205
0.00824027 -0.00023065 4.41766e-05
-0.00023065 0.00226183 -1.41839e-05
4.41766e-05 -1.41839e-05 0.00119361
0.00372623 -0.000325713 3.67527e-05
-0.000325713 0.000452679 -2.21291e-05
3.67527e-05 -2.21291e-05 -8.64292e-05
-0.000391178 -0.000167273 -2.12166e-05
-0.000167273 -0.00083705 7.07707e-06
-2.12166e-05 7.07707e-06 -0.000764653
0.00102795 -0.000255842 -2.4426e-06
-0.000255842 -0.00029946 -9.38197e-07
-2.4426e-06 -9.38197e-07 -0.000250161
0.00236358 -0.000341798 1.68988e-05
-0.000341798 0.000243611 -1.4007e-05
1.68988e-05 -1.4007e-05 0.000281757
0.00139019 -0.000323562 -1.14128e-05
-0.000323562 5.7749e-05 -2.03265e-06
-1.14128e-05 -2.03265e-06 -0.0001365
0.00165261 -0.000350909 -6.94271e-07
-0.000350909 1.59058e-05 3.60548e-07
-6.94271e-07 3.60548e-07 -0.000117943
0.00209864 -0.000324752 -3.30382e-06
-0.000324752 0.000165147 -4.86523e-07
-3.30382e-06 -4.86523e-07 7.69191e-05
0.00139248 -0.000306879 3.26027e-08
-0.000306879 4.42031e-05 2.03367e-06
3.26027e-08 2.03367e-06 -0.000148698
0.00178558 -0.000299112 -2.29287e-06
-0.000299112 0.000115623 -6.35576e-07
-2.29287e-06 -6.35576e-07 -2.62733e-05
0.00187886 -0.00024569 -2.58113e-06
-0.00024569 9.1445e-05 -1.5122e-06
-2.58113e-06 -1.5122e-06 -6.97266e-06
0.00153158 -0.000271119 8.32683e-07
-0.000271119 5.29534e-05 3.58145e-06
8.32683e-07 3.58145e-06 -0.000120601
0.00169378 -0.000237899 -1.303e-07
-0.000237899 9.19587e-05 2.33618e-07
-1.303e-07 2.33618e-07 -3.69673e-05
0.00175088 -0.000200608 -7.00383e-08
-0.000200608 9.55621e-05 -1.98695e-06
-7.00383e-08 -1.98695e-06 -3.9741e-06
0.00177438 -0.000181472 -8.13256e-08
-0.000181472 0.000156694 -1.11904e-06
-8.13256e-08 -1.11904e-06 4.56755e-05
0.0015931 -0.000194225 -2.21613e-06
-0.000194225 6.55627e-05 2.35651e-06
-2.21613e-06 2.35651e-06 -6.18556e-05
0.00170844 -0.000195922 7.3744e-07
-0.000195922 0.000171119 -4.87909e-06
7.3744e-07 -4.87909e-06 2.77327e-05
0.00169675 -0.000220742 -3.4953e-06
-0.000220742 0.000228869 -1.44995e-06
-3.4953e-06 -1.44995e-06 5.65324e-05
0.00165487 -0.000225983 1.41721e-06
-0.000225983 0.00017598 2.39083e-07
1.41721e-06 2.39083e-07 1.91442e-06
0.00144697 -0.0002166 -3.01251e-07
-0.0002166 2.85643e-05 5.43607e-06
-3.01251e-07 5.43607e-06 -0.000128886
0.0011173 -0.000197436 -4.91124e-06
-0.000197436 3.34997e-05 3.20087e-06
-4.91124e-06 3.20087e-06 -0.000148964
0.00134915 -0.000224006 9.86719e-07
-0.000224006 0.00010107 -3.11106e-07
9.86719e-07 -3.11106e-07 -9.16546e-05
0.00118656 -0.000222431 2.17691e-06
-0.000222431 -2.36304e-05 -4.68127e-07
2.17691e-06 -4.68127e-07 -0.000219042
0.00100083 -0.000163102 -1.58293e-06
-0.000163102 0.00011482 1.99489e-06
-1.58293e-06 1.99489e-06 -3.96458e-05
0.0011855 -0.000194415 6.85542e-07
-0.000194415 0.00018291 1.25507e-07
6.85542e-07 1.25507e-07 5.49384e-06
0.000743258 -0.000178544 -2.89944e-07
-0.000178544 -0.000105843 -5.3081e-06
-2.89944e-07 -5.3081e-06 -0.000295153
0.000752492 -8.22024e-05 -3.71973e-06
-8.22024e-05 4.06154e-05 3.0378e-06
-3.71973e-06 3.0378e-06 -6.6055e-05
0.00103529 -0.000155197 5.98738e-08
-0.000155197 0.000175044 -3.6891e-07
5.98738e-08 -3.6891e-07 3.2793e-05
0.00114542 -0.000179483 -8.09893e-07
-0.000179483 0.00022647 -1.94804e-06
-8.09893e-07 -1.94804e-06 6.63795e-05
0.000495093 5.45322e-05 1.58168e-06
5.45322e-05 -6.91669e-05 7.14632e-06
1.58168e-06 7.14632e-06 -0.000110444
0.000748624 -3.93449e-05 3.8173e-07
-3.93449e-05 6.11795e-05 2.83633e-07
3.8173e-07 2.83633e-07 -3.6441e-05
0.00108394 -0.000113016 1.09267e-06
-0.000113016 0.000248396 -1.61939e-07
1.09267e-06 -1.61939e-07 0.00011358
0.00253356 0.000107355 -3.89002e-05
0.000107355 0.00109125 2.36893e-06
-3.89002e-05 2.36893e-06 0.00109254
0.00057802 6.87422e-05 -6.498e-08
6.87422e-05 -2.11735e-05 -3.25802e-07
-6.498e-08 -3.25802e-07 -5.46449e-05
0.000750554 -3.21431e-05 2.33958e-06
-3.21431e-05 6.33394e-05 -3.70877e-06
2.33958e-06 -3.70877e-06 -1.45784e-05
0.00162567 7.81183e-05 1.62747e-05
7.81183e-05 0.000568841 -3.25169e-07
1.62747e-05 -3.25169e-07 0.000569992
0.000641581 7.08431e-05 -1.70627e-06
7.08431e-05 7.52916e-06 -4.94131e-06
-1.70627e-06 -4.94131e-06 -1.93871e-05
0.00232879 8.6012e-05 3.23639e-05
8.6012e-05 0.000962365 -2.7767e-06
3.23639e-05 -2.7767e-06 0.00096962
0.00089249 7.93454e-05 9.08219e-07
7.93454e-05 0.000135077 4.26261e-07
9.08219e-07 4.26261e-07 3.08491e-05
0.000759132 2.49303e-05 -2.2228e-07
2.49303e-05 5.88731e-05 4.87116e-07
-2.2228e-07 4.87116e-07 -3.28062e-05
0.000745346 -1.52128e-05 1.54116e-07
-1.52128e-05 5.91034e-05 -1.71835e-06
1.54116e-07 -1.71835e-06 -3.33743e-05
0.00086411 3.75178e-05 4.97359e-07
3.75178e-05 0.000119696 5.9666e-07
4.97359e-07 5.9666e-07 2.7393e-05
0.00074868 -1.29927e-05 3.56627e-07
-1.29927e-05 5.44723e-05 -3.13389e-08
3.56627e-07 -3.13389e-08 -3.03921e-05
0.000678896 -2.78183e-05 -1.09624e-06
-2.78183e-05 4.58765e-06 -2.96969e-06
-1.09624e-06 -2.96969e-06 -5.38464e-05
0.000616208 -5.46959e-05 -3.9349e-07
-5.46959e-05 -2.74854e-05 -4.75307e-06
-3.9349e-07 -4.75307e-06 -5.06695e-05
0.000686092 -2.3802e-05 1.43415e-07
-2.3802e-05 3.6578e-06 -6.22745e-08
1.43415e-07 -6.22745e-08 -5.05131e-05
0.000717369 -2.79712e-05 4.38174e-08
-2.79712e-05 2.80096e-05 1.2265e-06
4.38174e-08 1.2265e-06 -4.70012e-05
0.0024738 -7.61334e-05 -3.26828e-05
-7.61334e-05 0.0010308 -3.59007e-06
-3.26828e-05 -3.59007e-06 0.00104007
0.000611519 -4.46489e-05 -2.91448e-07
-4.46489e-05 -3.9321e-05 3.761e-08
-2.91448e-07 3.761e-08 -5.92347e-05
0.000691937 -7.81887e-06 1.71682e-06
-7.81887e-06 2.79422e-06 2.2823e-06
1.71682e-06 2.2823e-06 -4.86936e-05
0.00241622 -6.56474e-05 -2.9802e-06
-6.56474e-05 0.000990562 1.85957e-07
-2.9802e-06 1.85957e-07 0.00100206
0.000624029 -3.72716e-05 4.20624e-07
-3.72716e-05 -3.93132e-05 4.21627e-06
4.20624e-07 4.21627e-06 -5.63624e-05
0.00231611 -5.40589e-05 2.06185e-05
-5.40589e-05 0.000926547 4.26306e-06
2.06185e-05 4.26306e-06 0.000940649
0.000727253 0.000206846 -1.13927e-05
0.000206846 0.00106592 4.34779e-05
-1.13927e-05 4.34779e-05 0.000351169
-0.000995036 -0.000134153 1.82162e-06
-0.000134153 0.000786834 9.58154e-06
1.82162e-06 9.58154e-06 -0.000257081
0.00218223 -7.58904e-05 -6.55879e-05
-7.58904e-05 0.000754516 -1.42545e-05
-6.55879e-05 -1.42545e-05 0.000140873
0.00066688 3.32569e-06 9.30288e-07
3.32569e-06 1.53951e-05 1.569e-07
9.30288e-07 1.569e-07 -7.77185e-05
0.000755703 1.27911e-05 3.79284e-07
1.27911e-05 7.35242e-05 6.53364e-07
3.79284e-07 6.53364e-07 -3.07879e-05
0.00100739 0.000139191 -6.07295e-07
0.000139191 0.000228541 3.72374e-07
-6.07295e-07 3.72374e-07 0.000108063
0.00121747 0.000182769 1.37193e-06
0.000182769 0.000309387 -4.349e-07
1.37193e-06 -4.349e-07 0.000166075
0.000929894 0.000102879 -2.68833e-06
0.000102879 0.000197956 -1.07256e-06
-2.68833e-06 -1.07256e-06 7.0103e-05
0.000836367 6.20489e-05 1.21478e-06
6.20489e-05 0.000113483 1.24721e-06
1.21478e-06 1.24721e-06 1.27139e-05
0.000754408 3.11662e-05 1.19564e-06
3.11662e-05 6.65035e-05 1.28647e-06
1.19564e-06 1.28647e-06 -3.48884e-05
0.00070069 7.76842e-05 -1.6211e-06
7.76842e-05 5.79747e-05 -1.55371e-06
-1.6211e-06 -1.55371e-06 -5.81192e-05
-0.000243299 7.18188e-05 -6.2731e-07
7.18188e-05 -0.000478542 1.68741e-07
-6.2731e-07 1.68741e-07 -0.000606735
0.0010671 0.000164889 1.65622e-07
0.000164889 0.000184067 -4.41874e-06
1.65622e-07 -4.41874e-06 7.33367e-05
0.00221237 0.00036303 4.39111e-06
0.00036303 0.000524551 -1.13192e-05
4.39111e-06 -1.13192e-05 0.000351454
0.000706532 0.000108852 -2.8673e-06
0.000108852 3.41009e-05 -6.07344e-07
-2.8673e-06 -6.07344e-07 -5.89918e-05
0.000680616 2.08058e-05 1.74975e-07
2.08058e-05 3.97451e-05 -1.08526e-06
1.74975e-07 -1.08526e-06 -4.50623e-05
0.0115624 0.000169695 -6.53882e-05
0.000169695 0.00372423 4.57016e-06
-6.53882e-05 4.57016e-06 0.00241422
-0.00153501 -0.000394923 -8.3847e-05
-0.000394923 9.99965e-05 -1.96816e-05
-8.3847e-05 -1.96816e-05 -0.000534148
0.000233979 -0.000460592 -8.79339e-06
-0.000460592 0.000693082 -3.30877e-05
-8.79339e-06 -3.30877e-05 7.40362e-05
-0.00407332 -0.000432134 1.70016e-05
-0.000432134 -0.00183076 5.33476e-05
1.70016e-05 5.33476e-05 -0.00160366
0.00914969 7.28495e-05 7.19914e-05
7.28495e-05 0.00446575 -1.34227e-05
7.19914e-05 -1.34227e-05 0.0015821
0.00227802 0.000260939 -2.51436e-05
0.000260939 0.000320321 -8.47229e-07
-2.51436e-05 -8.47229e-07 8.88373e-05
0.00167535 0.000471684 -4.04883e-05
0.000471684 0.00018623 -1.55653e-05
-4.04883e-05 -1.55653e-05 -0.000376754
0.0083842 6.57083e-06 4.50932e-05
6.57083e-06 0.0029956 1.4225e-05
4.50932e-05 1.4225e-05 0.00134555
0.00419554 0.000687494 8.24081e-06
0.000687494 0.000616825 -2.75033e-05
8.24081e-06 -2.75033e-05 -2.36329e-05
0.0020489 0.000468273 2.54365e-06
0.000468273 0.000305814 1.10508e-05
2.54365e-06 1.10508e-05 0.000146154
0.000908898 0.000303352 3.90681e-06
0.000303352 5.94671e-06 -3.89169e-06
3.90681e-06 -3.89169e-06 -0.000161213
0.00105295 0.000176527 -1.32673e-05
0.000176527 0.000242182 8.3502e-06
-1.32673e-05 8.3502e-06 0.000167501
0.00171344 0.000414097 -2.5967e-05
0.000414097 0.000300114 -1.5582e-05
-2.5967e-05 -1.5582e-05 0.000123629
0.00181724 0.000499844 -1.6056e-05
0.000499844 -9.34799e-05 1.45172e-05
-1.6056e-05 1.45172e-05 -0.000151653
0.000613336 -0.000164899 -2.58009e-05
-0.000164899 -0.00208195 -3.31444e-06
-2.58009e-05 -3.31444e-06 -0.00248684
0.00225655 -0.000166953 3.63874e-06
-0.000166953 0.00132594 -8.04491e-06
3.63874e-06 -8.04491e-06 0.0012664
-0.00271554 -4.19743e-06 3.3791e-05
-4.19743e-06 0.00045921 -3.7126e-06
3.3791e-05 -3.7126e-06 -0.000735087
0.00270196 -0.000508597 -5.00901e-05
-0.000508597 0.000607061 6.88037e-06
-5.00901e-05 6.88037e-06 0.000523943
0.00379199 -0.000733045 5.46625e-07
-0.000733045 0.000876948 -1.26675e-05
5.46625e-07 -1.26675e-05 -0.000332424
0.00101923 -0.000175524 5.57647e-05
-0.000175524 0.000997898 1.76723e-05
5.57647e-05 1.76723e-05 0.000558973
0.00967722 9.19082e-05 -6.9943e-05
9.19082e-05 0.00356602 3.48074e-05
-6.9943e-05 3.48074e-05 0.0018286
0.000705555 -0.000243356 -1.25831e-05
-0.000243356 -0.000259861 -1.07695e-06
-1.25831e-05 -1.07695e-06 -0.000388891
0.00696103 7.80149e-05 -5.73845e-06
7.80149e-05 0.00157721 2.34098e-05
-5.73845e-06 2.34098e-05 0.00068389
0.00433991 -0.000416853 5.3778e-05
-0.000416853 0.000461157 -4.76832e-07
5.3778e-05 -4.76832e-07 -0.000309779
0.00195615 -0.000257286 1.81822e-05
-0.000257286 0.000412244 -3.50958e-06
1.81822e-05 -3.50958e-06 0.000139068
0.0032176 -0.00010945 -7.12913e-05
-0.00010945 0.000508083 -1.21547e-05
-7.12913e-05 -1.21547e-05 0.000206645
-0.000267191 -0.00019461 -1.94477e-05
-0.00019461 -0.000997211 5.96177e-06
-1.94477e-05 5.96177e-06 -0.000920762
0.00149886 -0.000310585 2.53749e-07
-0.000310585 -0.000193202 -4.96626e-07
2.53749e-07 -4.96626e-07 -0.000166764
0.00191133 -0.000230177 7.35702e-06
-0.000230177 -4.3935e-05 -4.14984e-06
7.35702e-06 -4.14984e-06 -1.8089e-05
0.00141434 -0.000336431 -9.54527e-07
-0.000336431 -0.000106884 1.21079e-06
-9.54527e-07 1.21079e-06 -0.000235471
0.00178703 -0.000298237 -1.04228e-06
-0.000298237 2.29966e-05 -1.40305e-07
-1.04228e-06 -1.40305e-07 -6.24014e-05
0.00188766 -0.000214469 -1.52589e-06
-0.000214469 1.12683e-05 1.09782e-06
-1.52589e-06 1.09782e-06 -3.30408e-05
0.00152354 -0.000284592 -2.89586e-06
-0.000284592 -2.36469e-05 2.88996e-06
-2.89586e-06 2.88996e-06 -0.000164886
0.00180866 -0.000242576 3.59989e-07
-0.000242576 5.22964e-05 1.25875e-06
3.59989e-07 1.25875e-06 -4.58448e-05
0.00181375 -0.000202943 -1.61617e-07
-0.000202943 7.01213e-05 6.29155e-07
-1.61617e-07 6.29155e-07 -8.82435e-06
0.00162383 -0.000230593 1.51809e-06
-0.000230593 5.85407e-05 4.34574e-06
1.51809e-06 4.34574e-06 -6.89157e-05
0.00171877 -0.000201264 6.05033e-08
-0.000201264 7.82705e-05 1.09962e-06
6.05033e-08 1.09962e-06 -2.22662e-05
0.00193123 -0.000191312 1.80796e-06
-0.000191312 0.000215409 -4.53143e-07
1.80796e-06 -4.53143e-07 0.000120733
0.00169801 -0.000181211 -3.56425e-06
-0.000181211 0.000109667 2.87103e-06
-3.56425e-06 2.87103e-06 9.30127e-07
0.00173531 -0.000180461 2.87301e-06
-0.000180461 0.000166737 -2.90458e-06
2.87301e-06 -2.90458e-06 4.25137e-05
0.00158725 -0.000191554 -4.57255e-07
-0.000191554 6.226e-05 6.68543e-06
-4.57255e-07 6.68543e-06 -6.18669e-05
0.00169378 -0.000195996 7.72322e-07
-0.000195996 0.000163017 -7.9828e-07
7.72322e-07 -7.9828e-07 1.9398e-05
0.00162053 -0.000186655 -1.36254e-06
-0.000186655 0.000162981 -2.27522e-06
-1.36254e-06 -2.27522e-06 1.18555e-05
0.00135492 -0.000194537 -6.45526e-06
-0.000194537 8.47157e-05 1.4416e-07
-6.45526e-06 1.4416e-07 -8.08608e-05
0.00166716 -0.000218838 6.39874e-07
-0.000218838 0.000212717 -3.49879e-07
6.39874e-07 -3.49879e-07 4.0313e-05
0.001656 -0.00022588 1.63199e-06
-0.00022588 0.000176492 2.65254e-06
1.63199e-06 2.65254e-06 2.07889e-06
0.00122513 -0.000186464 -4.13046e-06
-0.000186464 0.000165507 3.65613e-06
-4.13046e-06 3.65613e-06 9.23674e-07
0.00116897 -0.000200111 -1.28934e-06
-0.000200111 6.4037e-05 1.35722e-06
-1.28934e-06 1.35722e-06 -0.000118478
0.00147087 -0.000230658 3.6189e-06
-0.000230658 0.000170216 -1.31634e-06
3.6189e-06 -1.31634e-06 -2.18423e-05
0.000732289 -0.000101792 -4.21667e-06
-0.000101792 -3.17083e-08 3.46007e-06
-4.21667e-06 3.46007e-06 -0.00011542
0.00108227 -0.000169617 3.15249e-07
-0.000169617 0.000157447 -4.33798e-07
3.15249e-07 -4.33798e-07 2.07195e-06
0.00128056 -0.00019995 1.2871e-06
-0.00019995 0.000230183 -3.16334e-06
1.2871e-06 -3.16334e-06 5.25663e-05
0.000496086 -1.17303e-06 -5.15205e-06
-1.17303e-06 -8.72318e-05 8.03005e-06
-5.15205e-06 8.03005e-06 -0.00013269
0.000813227 -9.12022e-05 -7.7606e-09
-9.12022e-05 7.41467e-05 2.05748e-07
-7.7606e-09 2.05748e-07 -3.37973e-05
0.00111932 -0.00015759 1.6374e-06
-0.00015759 0.0002187 -1.13403e-06
1.6374e-06 -1.13403e-06 7.65472e-05
0.00291029 0.000124195 -4.89624e-05
0.000124195 0.00130713 2.28434e-06
-4.89624e-05 2.28434e-06 0.00130391
0.000571499 3.37165e-05 4.05001e-07
3.37165e-05 -3.20284e-05 -3.75637e-07
4.05001e-07 -3.75637e-07 -7.13343e-05
0.000797801 -7.77513e-05 3.34224e-06
-7.77513e-05 8.6036e-05 -3.11967e-06
3.34224e-06 -3.11967e-06 -1.2779e-05
0.00263859 0.000107844 2.84694e-06
0.000107844 0.00114935 2.29986e-07
2.84694e-06 2.29986e-07 0.00115058
0.000642447 5.58854e-05 1.0776e-06
5.58854e-05 1.16609e-05 -5.83292e-06
1.0776e-06 -5.83292e-06 -2.03625e-05
0.00247329 9.59761e-05 4.01982e-05
9.59761e-05 0.00105055 -2.46064e-06
4.01982e-05 -2.46064e-06 0.00105519
0.00094492 0.000151925 9.00116e-07
0.000151925 0.000148316 -1.25746e-06
9.00116e-07 -1.25746e-06 1.49498e-05
0.000827771 0.000108312 6.25295e-07
0.000108312 0.000105382 -4.95459e-08
6.25295e-07 -4.95459e-08 -4.05068e-06
0.000654205 -2.14693e-06 -6.32332e-07
-2.14693e-06 6.23963e-06 -9.97253e-07
-6.32332e-07 -9.97253e-07 -9.42746e-05
0.000637015 -6.23852e-06 1.38908e-07
-6.23852e-06 -1.06643e-05 8.50389e-07
1.38908e-07 8.50389e-07 -9.93772e-05
0.000690509 -2.8744e-05 3.22133e-08
-2.8744e-05 2.48312e-05 1.84717e-07
3.22133e-08 1.84717e-07 -6.54796e-05
0.000661645 -2.68029e-05 -1.12771e-06
-2.68029e-05 -3.53258e-07 -3.23109e-06
-1.12771e-06 -3.23109e-06 -6.63122e-05
0.000702968 -3.0721e-05 -2.55055e-09
-3.0721e-05 2.46187e-05 1.60034e-06
-2.55055e-09 1.60034e-06 -5.64245e-05
0.000665551 -3.21248e-05 3.44817e-07
-3.21248e-05 -1.75079e-06 -1.86304e-07
3.44817e-07 -1.86304e-07 -6.04157e-05
0.000611577 -6.58181e-05 6.26255e-07
-6.58181e-05 -1.87062e-05 -5.29144e-06
6.26255e-07 -5.29144e-06 -4.6107e-05
0.0025054 -8.59145e-05 -3.71604e-05
-8.59145e-05 0.001056 -3.14627e-06
-3.71604e-05 -3.14627e-06 0.00106319
0.000604831 -5.21709e-05 -2.48918e-08
-5.21709e-05 -3.46602e-05 3.11811e-08
-2.48918e-08 3.11811e-08 -5.73511e-05
0.000668223 -2.13002e-05 1.92884e-06
-2.13002e-05 -5.93115e-06 2.48893e-06
1.92884e-06 2.48893e-06 -6.00366e-05
0.0024678 -7.57064e-05 -2.67864e-06
-7.57064e-05 0.00102676 2.0426e-07
-2.67864e-06 2.0426e-07 0.00103609
0.000609509 -4.29756e-05 6.83931e-07
-4.29756e-05 -4.07682e-05 4.42752e-06
6.83931e-07 4.42752e-06 -6.04533e-05
0.00239168 -6.48853e-05 2.54542e-05
-6.48853e-05 0.000975884 4.06411e-06
2.54542e-05 4.06411e-06 0.000987623
0.00975993 0.000293517 0.000124394
0.000293517 0.00286205 4.42342e-05
0.000124394 4.42342e-05 0.00193742
-0.00232125 -0.000327661 -5.35507e-05
-0.000327661 -0.00135359 -4.46544e-06
-5.35507e-05 -4.46544e-06 -0.00147136
-0.00271856 7.96045e-06 -5.51886e-05
7.96045e-06 -6.03851e-05 -1.83443e-05
-5.51886e-05 -1.83443e-05 -0.00133286
0.000711553 -1.61197e-05 2.18575e-06
-1.61197e-05 4.56401e-05 1.89077e-06
2.18575e-06 1.89077e-06 -5.65809e-05
0.000796301 0.00012969 -9.33331e-07
0.00012969 0.000115215 1.27269e-06
-9.33331e-07 1.27269e-06 -1.56921e-06
0.00108251 0.000116349 5.32669e-07
0.000116349 0.000281307 -3.66369e-09
5.32669e-07 -3.66369e-09 0.000153455
0.00105212 0.000169474 -1.73064e-06
0.000169474 0.000220686 1.77791e-07
-1.73064e-06 1.77791e-07 8.01782e-05
0.00115891 0.000186879 1.3299e-05
0.000186879 0.000237057 8.89082e-07
1.3299e-05 8.89082e-07 7.458e-05
0.000403291 0.000120763 -1.33976e-06
0.000120763 -0.000115723 -8.06727e-07
-1.33976e-06 -8.06727e-07 -0.000250166
0.000492816 8.10736e-05 -1.15392e-06
8.10736e-05 -5.32796e-05 -1.0137e-06
-1.15392e-06 -1.0137e-06 -0.000168021
0.00035387 0.000120328 4.84683e-07
0.000120328 -0.000156633 8.25251e-07
4.84683e-07 8.25251e-07 -0.000295632
0.00098095 0.000152792 -1.43743e-06
0.000152792 0.000141961 6.63682e-08
-1.43743e-06 6.63682e-08 2.72063e-05
0.000213617 0.000152176 1.52917e-06
0.000152176 -0.000360574 -1.21869e-06
1.52917e-06 -1.21869e-06 -0.000497635
0.0028858 0.00037874 -2.82983e-06
0.00037874 0.00089681 -3.75654e-06
-2.82983e-06 -3.75654e-06 0.000738202
0.00164354 0.000362692 -1.64387e-06
0.000362692 0.000102893 2.2586e-06
-1.64387e-06 2.2586e-06 -5.86696e-05
0.00150899 0.000315653 4.43146e-06
0.000315653 0.00017658 -2.76574e-06
4.43146e-06 -2.76574e-06 1.58999e-05
0.000673814 0.00011588 -4.60311e-06
0.00011588 3.65123e-05 5.29707e-06
-4.60311e-06 5.29707e-06 -5.62771e-05
0.0030523 0.000250362 9.15469e-06
0.000250362 -0.000249173 1.024e-05
9.15469e-06 1.024e-05 -0.000498033
0.00646844 0.000130023 2.22097e-05
0.000130023 0.00134753 2.1463e-05
2.22097e-05 2.1463e-05 3.27134e-05
0.00592507 -0.000833083 -9.89635e-06
-0.000833083 0.00310728 -4.27695e-05
-9.89635e-06 -4.27695e-05 0.00292806
0.00557771 0.000434836 0.000308653
0.000434836 0.00168585 8.93578e-05
0.000308653 8.93578e-05 -0.000727699
0.00104294 0.000416476 2.7751e-05
0.000416476 -0.00038496 2.57027e-05
2.7751e-05 2.57027e-05 -0.000526752
0.00293854 0.000551239 -7.22812e-05
0.000551239 0.000143399 -2.37503e-05
-7.22812e-05 -2.37503e-05 -0.000280155
0.0030954 0.000507731 5.60437e-05
0.000507731 0.00054975 2.38196e-05
5.60437e-05 2.38196e-05 0.000563538
0.00233472 0.000484983 1.58044e-06
0.000484983 0.0004104 5.68859e-06
1.58044e-06 5.68859e-06 0.000275928
0.000607364 0.000264263 -1.71198e-06
0.000264263 -0.000122276 8.29468e-06
-1.71198e-06 8.29468e-06 -0.000280329
0.00253809 0.000566679 -8.19227e-05
0.000566679 0.000254784 -4.72034e-05
-8.19227e-05 -4.72034e-05 0.000165585
0.00296937 -0.000152196 -0.000128791
-0.000152196 0.000421898 6.27852e-06
-0.000128791 6.27852e-06 3.90303e-05
0.00916508 -0.000153561 6.70096e-06
-0.000153561 0.00286187 -2.9876e-06
6.70096e-06 -2.9876e-06 0.00222605
-0.00715483 -0.000229052 0.000184932
-0.000229052 -0.00382414 1.59185e-06
0.000184932 1.59185e-06 -0.00368591
0.00152886 -0.000295171 -2.53621e-05
-0.000295171 8.17704e-05 9.28586e-06
-2.53621e-05 9.28586e-06 -1.69655e-06
0.00540637 -0.000464939 7.72754e-05
-0.000464939 0.00117433 1.07509e-05
7.72754e-05 1.07509e-05 0.000380764
0.00142114 -0.000367937 7.46636e-05
-0.000367937 -0.00124793 4.74252e-05
7.46636e-05 4.74252e-05 -0.00211376
0.00118431 -0.000189656 1.16064e-05
-0.000189656 2.75266e-07 -9.19684e-07
1.16064e-05 -9.19684e-07 -0.000182667
0.00195759 -2.51631e-05 -6.54359e-06
-2.51631e-05 -0.00029181 5.83409e-06
-6.54359e-06 5.83409e-06 -0.00056794
0.00411882 -0.000208228 1.44109e-05
-0.000208228 0.00128639 -4.02222e-06
1.44109e-05 -4.02222e-06 0.00121461
0.00305479 -1.54907e-05 5.73126e-05
-1.54907e-05 0.000622005 -4.50475e-06
5.73126e-05 -4.50475e-06 0.000606477
0.0006129 -0.000280389 -1.12068e-05
-0.000280389 -0.000634478 5.17344e-06
-1.12068e-05 5.17344e-06 -0.000622697
0.00178712 -0.000236887 -4.5024e-07
-0.000236887 -0.000100981 1.35602e-06
-4.5024e-07 1.35602e-06 -8.93712e-05
0.00181531 -0.000128739 7.38224e-06
-0.000128739 -3.93964e-05 -6.02422e-07
7.38224e-06 -6.02422e-07 -3.48837e-05
0.00156153 -0.000277136 2.93088e-06
-0.000277136 -7.86894e-05 -8.03867e-08
2.93088e-06 -8.03867e-08 -0.00016085
0.00188893 -0.000215512 1.83018e-06
-0.000215512 2.39284e-05 7.64534e-07
1.83018e-06 7.64534e-07 -2.60863e-05
0.00181022 -0.000150265 5.14782e-07
-0.000150265 4.69537e-05 9.98387e-07
5.14782e-07 9.98387e-07 -1.86486e-06
0.0017611 -0.000240512 6.13355e-06
-0.000240512 2.49246e-05 3.13748e-06
6.13355e-06 3.13748e-06 -7.31392e-05
0.00183978 -0.000200547 1.13323e-06
-0.000200547 9.26146e-05 3.68342e-07
1.13323e-06 3.68342e-07 1.37201e-05
0.00197838 -0.00016746 2.65704e-07
-0.00016746 0.000219693 6.74437e-07
2.65704e-07 6.74437e-07 0.000138505
0.00168733 -0.000201118 7.45997e-07
-0.000201118 6.20277e-05 3.67038e-06
7.45997e-07 3.67038e-06 -3.93834e-05
0.00177892 -0.000187716 -1.92048e-07
-0.000187716 0.000135541 4.64671e-07
-1.92048e-07 4.64671e-07 3.96302e-05
0.00163204 -0.000171543 4.38112e-06
-0.000171543 8.69786e-05 -1.53027e-06
4.38112e-06 -1.53027e-06 -2.49501e-05
0.00163147 -0.000181348 -4.10441e-06
-0.000181348 6.85728e-05 6.38189e-06
-4.10441e-06 6.38189e-06 -3.79521e-05
0.00176437 -0.000180316 -1.49395e-06
-0.000180316 0.000182677 -5.28375e-08
-1.49395e-06 -5.28375e-08 6.11274e-05
0.00171066 -0.000169389 6.38093e-07
-0.000169389 0.00020286 -1.42044e-06
6.38093e-07 -1.42044e-06 6.49488e-05
0.00168569 -0.000196176 8.52578e-07
-0.000196176 0.000158392 2.99259e-06
8.52578e-07 2.99259e-06 1.45489e-05
0.00166778 -0.000188982 8.57603e-07
-0.000188982 0.000190798 -7.37612e-07
8.57603e-07 -7.37612e-07 3.88033e-05
0.00156548 -0.000178474 -3.49302e-06
-0.000178474 0.00018008 -1.92952e-07
-3.49302e-06 -1.92952e-07 3.0916e-05
0.00111851 -0.000172897 -8.39315e-06
-0.000172897 1.77927e-05 2.07219e-06
-8.39315e-06 2.07219e-06 -0.000137215
0.00140646 -0.000197525 -1.28441e-06
-0.000197525 0.000115113 -5.47695e-09
-1.28441e-06 -5.47695e-09 -5.08992e-05
0.00166258 -0.000217828 4.13368e-06
-0.000217828 0.000210354 1.91089e-07
4.13368e-06 1.91089e-07 3.77728e-05
0.00089334 -0.000130066 -5.96349e-06
-0.000130066 4.08868e-05 5.1297e-06
-5.96349e-06 5.1297e-06 -8.54394e-05
0.00115025 -0.000180317 7.79627e-07
-0.000180317 0.0001221 8.64872e-07
7.79627e-07 8.64872e-07 -4.10419e-05
0.00121229 -0.000201795 2.15383e-06
-0.000201795 8.9689e-05 -3.88045e-07
2.15383e-06 -3.88045e-07 -9.27075e-05
0.00049222 -2.96284e-05 -8.36498e-06
-2.96284e-05 -9.89969e-05 8.9628e-06
-8.36498e-06 8.9628e-06 -0.000153623
0.000872126 -0.000114677 -2.24019e-09
-0.000114677 7.80961e-05 -2.8895e-07
-2.24019e-09 -2.8895e-07 -3.93051e-05
0.00114491 -0.000174799 2.72047e-06
-0.000174799 0.000189571 -3.05762e-06
2.72047e-06 -3.05762e-06 3.34651e-05
0.0034221 0.000137703 -7.05005e-05
0.000137703 0.00159677 2.37949e-06
-7.05005e-05 2.37949e-06 0.00158972
0.000603269 -8.26905e-06 3.94893e-07
-8.26905e-06 -2.90114e-05 -1.93326e-07
3.94893e-07 -1.93326e-07 -7.5607e-05
0.000892489 -9.97045e-05 4.65617e-06
-9.97045e-05 0.000117359 -3.00957e-06
4.65617e-06 -3.00957e-06 8.23262e-06
0.00306612 0.000118313 4.3916e-06
0.000118313 0.00139234 2.4652e-07
4.3916e-06 2.4652e-07 0.00139049
0.000658006 2.52229e-05 4.3898e-06
2.52229e-05 1.39487e-05 -6.79022e-06
4.3898e-06 -6.79022e-06 -2.508e-05
0.00276444 0.000102867 5.73787e-05
0.000102867 0.00121822 -2.44233e-06
5.73787e-05 -2.44233e-06 0.00122078
0.00110958 0.00017514 -3.85057e-07
0.00017514 0.000209594 -4.54343e-06
-3.85057e-07 -4.54343e-06 5.45607e-05
0.00113461 0.000166173 5.27856e-07
0.000166173 0.000255224 2.7925e-07
5.27856e-07 2.7925e-07 0.000120419
0.000832655 9.3052e-05 -1.43817e-06
9.3052e-05 8.95812e-05 -1.86671e-06
-1.43817e-06 -1.86671e-06 -2.76382e-05
0.000745703 0.000126146 -1.49805e-07
0.000126146 6.64732e-05 4.76706e-07
-1.49805e-07 4.76706e-07 -4.75067e-05
0.00065536 1.98659e-05 -5.63624e-07
1.98659e-05 6.02666e-06 -2.09581e-07
-5.63624e-07 -2.09581e-07 -9.65318e-05
0.000715614 2.75425e-05 -2.18283e-06
2.75425e-05 3.74808e-05 -2.91539e-06
-2.18283e-06 -2.91539e-06 -4.4872e-05
0.000641635 -4.38869e-05 5.19031e-08
-4.38869e-05 -3.5612e-06 1.55697e-06
5.19031e-08 1.55697e-06 -9.34292e-05
0.000659012 -2.90782e-05 3.54969e-07
-2.90782e-05 2.33513e-07 -3.37141e-07
3.54969e-07 -3.37141e-07 -6.65726e-05
0.000600937 -6.95933e-05 7.81948e-07
-6.95933e-05 -1.55098e-05 -5.86972e-06
7.81948e-07 -5.86972e-06 -4.71655e-05
0.000653627 -3.52284e-05 1.30978e-06
-3.52284e-05 -7.56818e-06 2.83002e-06
1.30978e-06 2.83002e-06 -6.63294e-05
0.000590798 -6.25622e-05 2.03292e-07
-6.25622e-05 -3.20249e-05 -1.9152e-08
2.03292e-07 -1.9152e-08 -5.85273e-05
0.00255221 -9.54297e-05 -4.22014e-05
-9.54297e-05 0.00108935 -2.65207e-06
-4.22014e-05 -2.65207e-06 0.00109446
0.00249922 -8.54861e-05 -1.83751e-06
-8.54861e-05 0.00105186 1.95741e-07
-1.83751e-06 1.95741e-07 0.00105908
0.000595583 -4.95914e-05 1.07916e-06
-4.95914e-05 -4.06613e-05 4.65809e-06
1.07916e-06 4.65809e-06 -6.28842e-05
0.0024522 -7.51312e-05 3.04671e-05
-7.51312e-05 0.0010173 3.77736e-06
3.04671e-05 3.77736e-06 0.00102673
0.00280527 1.70053e-06 -4.10183e-05
1.70053e-06 1.62474e-05 2.04708e-05
-4.10183e-05 2.04708e-05 -7.68813e-05
0.00152539 -0.000319188 2.7357e-05
-0.000319188 -0.00131307 1.03415e-05
2.7357e-05 1.03415e-05 -0.00222727
0.00435387 -0.000447675 -3.95493e-05
-0.000447675 0.0018264 -3.2023e-05
-3.95493e-05 -3.2023e-05 0.00192205
0.0016995 0.000235897 1.19407e-05
0.000235897 0.000417195 5.02785e-06
1.19407e-05 5.02785e-06 0.000241853
0.00125026 0.000135099 1.27748e-06
0.000135099 0.000373473 8.1086e-07
1.27748e-06 8.1086e-07 0.000245005
0.000905162 0.000157672 -1.51471e-06
0.000157672 0.000142637 2.01925e-06
-1.51471e-06 2.01925e-06 4.6439e-06
0.000733816 0.000147644 6.8822e-07
0.000147644 6.53352e-05 8.30253e-07
6.8822e-07 8.30253e-07 -7.44755e-05
0.00104279 0.000179732 -7.12055e-08
0.000179732 0.000178333 -2.35113e-06
-7.12055e-08 -2.35113e-06 1.43564e-05
0.000754941 0.000175318 -1.93952e-07
0.000175318 -4.34332e-05 7.45995e-07
-1.93952e-07 7.45995e-07 -0.000180177
0.000888535 0.000164999 -1.04545e-06
0.000164999 0.00013076 -3.88112e-07
-1.04545e-06 -3.88112e-07 -1.86035e-05
0.0010272 0.000148765 -1.49601e-06
0.000148765 0.000168431 5.6704e-06
-1.49601e-06 5.6704e-06 4.95372e-05
0.00103223 0.00020951 5.96716e-07
0.00020951 8.15776e-05 -1.37011e-07
5.96716e-07 -1.37011e-07 -5.96559e-05
0.00225819 0.000335311 1.60721e-06
0.000335311 0.000563617 6.09454e-06
1.60721e-06 6.09454e-06 0.000407114
0.00172481 0.000334345 -1.46456e-06
0.000334345 0.000154897 -4.15036e-07
-1.46456e-06 -4.15036e-07 -1.00176e-05
0.00139002 0.000284656 1.23168e-05
0.000284656 -4.41755e-05 9.72233e-06
1.23168e-05 9.72233e-06 -0.00015772
0.00131232 0.000342596 -1.97027e-06
0.000342596 -7.88089e-05 -2.63285e-06
-1.97027e-06 -2.63285e-06 -0.000243054
0.000754773 0.000259779 1.72267e-06
0.000259779 -0.00020339 3.92924e-06
1.72267e-06 3.92924e-06 -0.000349501
0.000577832 0.000189576 1.51141e-05
0.000189576 -0.000340306 9.85192e-06
1.51141e-05 9.85192e-06 -0.000337468
0.00521052 0.000397541 -2.66747e-05
0.000397541 0.000655964 6.46713e-07
-2.66747e-05 6.46713e-07 0.000299887
0.00157482 -2.82634e-05 8.95768e-05
-2.82634e-05 -0.00102555 2.64765e-05
8.95768e-05 2.64765e-05 -0.00234303
0.00185065 0.000510321 5.30626e-05
0.000510321 -0.000428074 2.36541e-06
5.30626e-05 2.36541e-06 -0.000967489
0.00178764 0.000383837 -2.13102e-05
0.000383837 0.000121045 -3.17473e-06
-2.13102e-05 -3.17473e-06 0.000106434
0.00122419 0.000388065 -3.41064e-05
0.000388065 -9.88749e-05 -2.45298e-05
-3.41064e-05 -2.45298e-05 -0.000233502
0.00224511 -0.000120125 1.53598e-05
-0.000120125 0.000180317 -1.34663e-07
1.53598e-05 -1.34663e-07 0.000112109
0.00110437 7.30341e-06 -1.18558e-05
7.30341e-06 -0.000493233 2.83667e-06
-1.18558e-05 2.83667e-06 -0.000687102
0.000636217 0.000414169 6.86737e-05
0.000414169 -0.00195364 -2.33181e-05
6.86737e-05 -2.33181e-05 -0.0026183
0.000635526 -0.000122279 -4.63954e-06
-0.000122279 -0.000318768 1.76948e-05
-4.63954e-06 1.76948e-05 -0.000388708
0.00276355 -5.21832e-05 -1.67272e-07
-5.21832e-05 -3.51348e-05 2.52359e-05
-1.67272e-07 2.52359e-05 -0.000383638
0.00163057 -0.00013295 -4.76622e-06
-0.00013295 -4.0165e-05 6.6805e-07
-4.76622e-06 6.6805e-07 -6.97906e-05
0.00230787 -4.79108e-05 -5.0584e-06
-4.79108e-05 0.000221339 -1.98582e-06
-5.0584e-06 -1.98582e-06 0.00017974
0.00164293 -7.06247e-05 2.07214e-05
-7.06247e-05 -0.000110348 -1.67289e-06
2.07214e-05 -1.67289e-06 -0.000120005
0.00285499 -3.90718e-05 1.81672e-05
-3.90718e-05 0.000687884 -5.95044e-07
1.81672e-05 -5.95044e-07 0.000646751
0.00175988 -0.000247386 -8.12488e-06
-0.000247386 -0.000105508 3.07048e-06
-8.12488e-06 3.07048e-06 -0.000111777
0.00183501 -0.000136381 2.53578e-06
-0.000136381 -4.16295e-05 6.85011e-07
2.53578e-06 6.85011e-07 -4.16648e-05
0.0018591 -0.000145388 4.54636e-07
-0.000145388 4.92157e-05 -3.10598e-07
4.54636e-07 -3.10598e-07 2.40714e-05
0.00184805 -0.000214414 3.21568e-06
-0.000214414 1.54231e-05 1.19582e-06
3.21568e-06 1.19582e-06 -4.02436e-05
0.00183331 -0.000163641 4.83679e-07
-0.000163641 5.11466e-05 1.18126e-08
4.83679e-07 1.18126e-08 -2.0809e-06
0.00184774 -0.000150672 1.63464e-06
-0.000150672 0.00012621 5.06501e-07
1.63464e-06 5.06501e-07 5.71873e-05
0.0018644 -0.000198995 6.23435e-07
-0.000198995 0.000113917 1.22856e-06
6.23435e-07 1.22856e-06 3.49884e-05
0.00185622 -0.000170003 -1.09761e-06
-0.000170003 0.000152441 7.02401e-08
-1.09761e-06 7.02401e-08 6.98586e-05
0.00165636 -0.000150785 2.60456e-06
-0.000150785 7.80389e-05 -1.37434e-07
2.60456e-06 -1.37434e-07 -2.43139e-05
0.00162471 -0.00018437 -3.2526e-06
-0.00018437 5.42646e-05 1.68854e-06
-3.2526e-06 1.68854e-06 -4.29146e-05
0.00164613 -0.000171741 4.08628e-07
-0.000171741 9.82177e-05 -4.70506e-07
4.08628e-07 -4.70506e-07 -1.37211e-05
0.00159136 -0.000154464 1.48e-06
-0.000154464 0.000112078 -9.79225e-07
1.48e-06 -9.79225e-07 -1.76953e-05
0.00179371 -0.000180055 -4.90531e-06
-0.000180055 0.00019862 3.84914e-06
-4.90531e-06 3.84914e-06 7.97754e-05
0.00169814 -0.000167404 -3.19072e-07
-0.000167404 0.000192851 -2.11554e-07
-3.19072e-07 -2.11554e-07 5.67424e-05
0.00144927 -0.000150648 -2.57103e-06
-0.000150648 0.000103486 2.14532e-07
-2.57103e-06 2.14532e-07 -3.84413e-05
0.00171018 -0.000191293 2.90677e-06
-0.000191293 0.000215995 6.74584e-07
2.90677e-06 6.74584e-07 6.31299e-05
0.00149422 -0.000175157 7.08384e-07
-0.000175157 0.000139163 -3.38325e-07
7.08384e-07 -3.38325e-07 -1.08866e-05
0.00128755 -0.000158239 -6.8254e-06
-0.000158239 7.8792e-05 1.5676e-06
-6.8254e-06 1.5676e-06 -6.14998e-05
0.00101765 -0.000140644 -8.89014e-06
-0.000140644 4.71937e-05 4.92994e-06
-8.89014e-06 4.92994e-06 -7.88048e-05
0.00113458 -0.000172679 -1.83578e-06
-0.000172679 3.05464e-05 5.38454e-07
-1.83578e-06 5.38454e-07 -0.000123971
0.00141913 -0.000198186 3.78102e-06
-0.000198186 0.000123848 -1.47052e-07
3.78102e-06 -1.47052e-07 -4.23044e-05
0.000532429 -0.000103657 -1.32715e-05
-0.000103657 -8.91017e-05 1.06729e-05
-1.32715e-05 1.06729e-05 -0.000156524
0.000915869 -0.000134286 6.08287e-07
-0.000134286 5.41257e-05 3.11434e-07
6.08287e-07 3.11434e-07 -7.29726e-05
0.00108532 -0.000175126 5.00923e-06
-0.000175126 8.45505e-05 -1.65582e-06
5.00923e-06 -1.65582e-06 -7.73521e-05
0.0038391 0.000149322 -8.84297e-05
0.000149322 0.0018379 3.26467e-06
-8.84297e-05 3.26467e-06 0.00182617
0.000629562 -6.47569e-05 1.4099e-07
-6.47569e-05 -2.49103e-05 -1.99577e-07
1.4099e-07 -1.99577e-07 -8.27835e-05
0.000972272 -0.000125998 5.55022e-06
-0.000125998 0.000134183 -4.4281e-06
5.55022e-06 -4.4281e-06 1.49009e-05
0.00352933 0.000123564 3.36862e-06
0.000123564 0.00165463 3.75641e-07
3.36862e-06 3.75641e-07 0.00164999
0.000700211 -2.54266e-05 8.67762e-06
-2.54266e-05 2.33175e-05 -7.85664e-06
8.67762e-06 -7.85664e-06 -2.45323e-05
0.0031943 0.000102221 8.17248e-05
0.000102221 0.00146071 -3.32716e-06
8.17248e-05 -3.32716e-06 0.00146181
0.0010566 0.000184379 -2.37098e-06
0.000184379 9.98134e-05 -1.2859e-06
-2.37098e-06 -1.2859e-06 -7.20125e-05
0.00103886 0.00016961 -8.09726e-08
0.00016961 0.000171684 -1.71355e-06
-8.09726e-08 -1.71355e-06 1.75973e-05
0.00112697 0.000158994 -1.24091e-06
0.000158994 0.000227264 -2.35883e-06
-1.24091e-06 -2.35883e-06 9.01625e-05
0.00132011 0.000180089 -4.51968e-07
0.000180089 0.000359636 6.01579e-07
-4.51968e-07 6.01579e-07 0.000223465
0.000878262 0.000100143 -1.14386e-06
0.000100143 0.000113897 -8.64227e-07
-1.14386e-06 -8.64227e-07 -2.952e-06
0.000800381 5.71547e-05 -2.78738e-06
5.71547e-05 8.33304e-05 -2.40355e-06
-2.78738e-06 -2.40355e-06 -1.21738e-05
0.000665126 4.177e-05 -6.22377e-08
4.177e-05 9.94962e-06 3.90255e-07
-6.22377e-08 3.90255e-07 -9.42902e-05
0.000677131 -1.19095e-05 -3.80942e-07
-1.19095e-05 1.44527e-05 -7.67991e-08
-3.80942e-07 -7.67991e-08 -6.44584e-05
0.000590704 -5.98472e-05 -1.04435e-06
-5.98472e-05 -1.83407e-05 -6.17277e-06
-1.04435e-06 -6.17277e-06 -5.46994e-05
0.00063284 -4.42061e-05 8.50877e-07
-4.42061e-05 -1.21258e-05 3.20413e-06
8.50877e-07 3.20413e-06 -7.9366e-05
0.000570028 -7.28247e-05 3.20192e-07
-7.28247e-05 -3.23885e-05 -1.50427e-07
3.20192e-07 -1.50427e-07 -6.44629e-05
0.00265292 -0.000104417 -4.96947e-05
-0.000104417 0.00115173 -2.22748e-06
-4.96947e-05 -2.22748e-06 0.0011547
0.000576468 -5.90604e-05 9.2853e-07
-5.90604e-05 -4.1734e-05 4.95154e-06
9.2853e-07 4.95154e-06 -6.73356e-05
0.00253707 -9.53556e-05 -1.31373e-06
-9.53556e-05 0.00108041 1.80849e-07
-1.31373e-06 1.80849e-07 0.00108543
0.00249115 -8.47936e-05 3.55049e-05
-8.47936e-05 0.00104676 3.39682e-06
3.55049e-05 3.39682e-06 0.00105404
0.000602369 2.71125e-05 1.2316e-05
2.71125e-05 -0.000473037 5.88637e-06
1.2316e-05 5.88637e-06 -0.000482205
0.00419131 6.17026e-05 2.32384e-05
6.17026e-05 0.000520575 9.65343e-06
2.32384e-05 9.65343e-06 0.000234367
0.00778326 0.000367034 -9.3153e-05
0.000367034 0.00228005 -3.42317e-05
-9.3153e-05 -3.42317e-05 0.00124868
0.000970858 0.000189831 3.27619e-06
0.000189831 -4.34239e-05 1.65921e-06
3.27619e-06 1.65921e-06 -0.000188846
0.00151916 0.000232422 3.24595e-06
0.000232422 0.000138286 -1.45404e-06
3.24595e-06 -1.45404e-06 -1.52648e-05
0.0010877 0.00019968 -6.78721e-07
0.00019968 8.67334e-05 -1.72333e-06
-6.78721e-07 -1.72333e-06 -8.23655e-05
0.0010556 0.000173628 -1.35263e-06
0.000173628 0.000241803 -2.70165e-08
-1.35263e-06 -2.70165e-08 9.67475e-05
0.000934786 0.000172905 -1.56155e-06
0.000172905 0.000122916 -3.54596e-07
-1.56155e-06 -3.54596e-07 -4.26354e-05
0.0012539 0.000214251 6.09155e-06
0.000214251 0.000213004 2.62819e-06
6.09155e-06 2.62819e-06 7.00105e-05
0.00232552 0.000340698 -8.59999e-06
0.000340698 0.000513041 -4.91544e-06
-8.59999e-06 -4.91544e-06 0.000353872
0.00175678 0.000260853 -2.73385e-07
0.000260853 0.000475419 1.98054e-06
-2.73385e-07 1.98054e-06 0.000330411
0.00130334 0.000271905 7.87752e-06
0.000271905 5.86137e-05 1.37254e-05
7.87752e-06 1.37254e-05 -9.41952e-05
0.00184662 0.000337133 -1.48318e-06
0.000337133 0.000227919 1.03742e-06
-1.48318e-06 1.03742e-06 6.55884e-05
0.00217119 0.000326156 -7.70875e-06
0.000326156 0.000303988 2.9967e-06
-7.70875e-06 2.9967e-06 0.00016006
0.000849375 0.00013367 1.62711e-05
0.00013367 -0.000392925 5.52688e-06
1.62711e-05 5.52688e-06 -0.000457736
0.00140067 0.00027998 8.78148e-06
0.00027998 -3.63301e-05 1.78161e-06
8.78148e-06 1.78161e-06 -0.000152604
0.00111701 0.000326326 -6.83758e-06
0.000326326 -0.000192361 -7.55166e-06
-6.83758e-06 -7.55166e-06 -0.000357799
0.00108615 0.000183245 -5.70938e-06
0.000183245 -9.41951e-05 2.58218e-06
-5.70938e-06 2.58218e-06 -0.000100499
0.00493102 0.000198486 3.97417e-05
0.000198486 0.000443602 2.63978e-07
3.97417e-05 2.63978e-07 2.90789e-05
0.00128385 0.000310587 3.38281e-06
0.000310587 5.8983e-05 -1.38524e-05
3.38281e-06 -1.38524e-05 3.74366e-05
0.00125242 -3.25419e-05 1.91486e-05
-3.25419e-05 -0.000131303 2.0713e-06
1.91486e-05 2.0713e-06 -0.00016547
0.00197649 -5.67658e-05 -1.15543e-05
-5.67658e-05 8.13878e-05 -5.91576e-07
-1.15543e-05 -5.91576e-07 1.77281e-05
0.00183727 0.000132075 5.6471e-05
0.000132075 -0.000349987 -9.21791e-06
5.6471e-05 -9.21791e-06 -0.000609766
-6.7338e-05 -9.46984e-05 -1.9779e-05
-9.46984e-05 -0.000943313 1.28934e-05
-1.9779e-05 1.28934e-05 -0.000936953
0.00223749 -9.11142e-05 -6.36955e-05
-9.11142e-05 0.000172593 6.18398e-06
-6.36955e-05 6.18398e-06 0.000125572
0.0015993 -9.95108e-05 6.45625e-07
-9.95108e-05 -0.000149589 5.99319e-07
6.45625e-07 5.99319e-07 -0.000146153
0.00227004 -4.99105e-05 -3.37555e-06
-4.99105e-05 0.000320917 5.37157e-07
-3.37555e-06 5.37157e-07 0.000276277
0.00194463 -0.000134502 6.88347e-06
-0.000134502 3.99684e-05 -1.25036e-07
6.88347e-06 -1.25036e-07 1.84242e-05
0.00194174 -2.84298e-05 4.67733e-06
-2.84298e-05 6.66544e-05 -4.51605e-07
4.67733e-06 -4.51605e-07 1.61831e-05
0.00186948 -0.000144928 -1.66299e-06
-0.000144928 -3.91355e-05 1.3763e-06
-1.66299e-06 1.3763e-06 -4.08401e-05
0.00177692 -0.000141876 -1.71595e-06
-0.000141876 5.19421e-06 -1.3047e-07
-1.71595e-06 -1.3047e-07 -1.94597e-05
0.00181943 -0.000133595 2.06621e-06
-0.000133595 4.63371e-05 4.40232e-07
2.06621e-06 4.40232e-07 -6.58741e-06
0.00185398 -0.000175631 -9.62486e-07
-0.000175631 5.50962e-05 -6.47238e-07
-9.62486e-07 -6.47238e-07 -2.52884e-06
0.00176853 -0.000148902 2.81119e-07
-0.000148902 8.34076e-05 -2.13257e-08
2.81119e-07 -2.13257e-08 1.17552e-05
0.00167271 -0.000132975 1.7774e-06
-0.000132975 5.03251e-05 2.25634e-07
1.7774e-06 2.25634e-07 -4.07295e-05
0.00173735 -0.000171857 -4.62938e-06
-0.000171857 8.73734e-05 1.35215e-07
-4.62938e-06 1.35215e-07 3.49726e-06
0.00168116 -0.000150917 1.72008e-07
-0.000150917 9.40308e-05 -1.53743e-07
1.72008e-07 -1.53743e-07 -8.22568e-06
0.00164513 -0.000138669 1.63837e-06
-0.000138669 0.000109233 -3.456e-07
1.63837e-06 -3.456e-07 -1.36177e-05
0.00166091 -0.000171927 -3.0216e-06
-0.000171927 0.000109838 5.30904e-07
-3.0216e-06 5.30904e-07 -2.10341e-06
0.00159618 -0.000153992 -3.65276e-08
-0.000153992 0.0001139 -2.05977e-07
-3.65276e-08 -2.05977e-07 -1.56347e-05
0.00145995 -0.000136608 -1.73436e-06
-0.000136608 9.56112e-05 3.20543e-07
-1.73436e-06 3.20543e-07 -4.25923e-05
0.00167951 -0.000165237 -6.18934e-07
-0.000165237 0.000179427 1.7587e-06
-6.18934e-07 1.7587e-06 4.51299e-05
0.00143737 -0.000150455 -4.16197e-07
-0.000150455 9.50673e-05 -1.40521e-07
-4.16197e-07 -1.40521e-07 -4.66295e-05
0.00132983 -0.000141783 -6.30672e-06
-0.000141783 8.84535e-05 2.06002e-06
-6.30672e-06 2.06002e-06 -4.76987e-05
0.00142895 -0.000172204 4.84367e-06
-0.000172204 0.000101791 -7.09575e-07
4.84367e-06 -7.09575e-07 -4.92249e-05
0.00116529 -0.000152003 7.88105e-09
-0.000152003 9.85868e-06 -1.87745e-07
7.88105e-09 -1.87745e-07 -0.000131057
0.00105045 -0.000130492 -1.04891e-05
-0.000130492 2.79237e-05 4.30548e-06
-1.04891e-05 4.30548e-06 -9.02478e-05
0.000486173 -0.000133168 -1.75372e-05
-0.000133168 -0.000139346 1.09119e-05
-1.75372e-05 1.09119e-05 -0.000210579
0.000982552 -0.000139033 4.72017e-07
-0.000139033 2.90274e-05 3.82674e-07
4.72017e-07 3.82674e-07 -9.68689e-05
0.0011679 -0.000173548 4.35902e-06
-0.000173548 5.27359e-05 -7.18134e-07
4.35902e-06 -7.18134e-07 -0.00010139
0.00427926 0.000171106 -9.52704e-05
0.000171106 0.00209838 5.02822e-06
-9.52704e-05 5.02822e-06 0.00207848
0.000635906 -9.84663e-05 -1.09878e-07
-9.84663e-05 -3.49932e-05 2.44726e-07
-1.09878e-07 2.44726e-07 -0.000103221
0.000953561 -0.000139477 6.98645e-06
-0.000139477 7.66652e-05 -4.34448e-06
6.98645e-06 -4.34448e-06 -5.13525e-05
0.0039861 0.000138503 6.21176e-06
0.000138503 0.00191936 6.04205e-07
6.21176e-06 6.04205e-07 0.00190876
0.000774974 -6.74395e-05 1.16761e-05
-6.74395e-05 5.13475e-05 -9.58766e-06
1.16761e-05 -9.58766e-06 -7.40952e-06
0.00364892 0.000110385 9.76785e-05
0.000110385 0.00171912 -4.05756e-06
9.76785e-05 -4.05756e-06 0.00171629
0.000839636 0.000175446 -3.20417e-06
0.000175446 -0.000145822 1.73727e-06
-3.20417e-06 1.73727e-06 -0.000309109
0.000782024 0.000166597 -1.06177e-06
0.000166597 -5.64871e-05 1.49794e-06
-1.06177e-06 1.49794e-06 -0.000226705
0.00110225 0.000168354 -3.34152e-06
0.000168354 0.000154539 -2.07687e-06
-3.34152e-06 -2.07687e-06 1.4e-06
0.000953934 0.000163155 -4.05357e-07
0.000163155 0.000125631 8.58996e-07
-4.05357e-07 8.58996e-07 -2.7346e-05
0.000988005 0.000147767 -3.41593e-07
0.000147767 0.000151733 -6.92852e-07
-3.41593e-07 -6.92852e-07 1.64706e-05
0.000939203 9.75799e-05 -4.26834e-06
9.75799e-05 0.000147345 -2.98276e-06
-4.26834e-06 -2.98276e-06 3.88114e-05
0.000903781 0.000105614 5.30916e-08
0.000105614 0.000127111 -3.75388e-07
5.30916e-08 -3.75388e-07 1.0768e-05
0.000739437 3.95515e-05 -2.8915e-07
3.95515e-05 5.15588e-05 1.1429e-07
-2.8915e-07 1.1429e-07 -4.31708e-05
0.000634363 -2.33446e-05 -5.14542e-06
-2.33446e-05 -7.72456e-07 -6.60265e-06
-5.14542e-06 -6.60265e-06 -4.30287e-05
0.000653159 -3.88732e-05 6.01042e-07
-3.88732e-05 2.57127e-06 3.24224e-06
6.01042e-07 3.24224e-06 -7.5462e-05
0.000549766 -6.78286e-05 3.68414e-08
-6.78286e-05 -3.95857e-05 -2.54675e-07
3.68414e-08 -2.54675e-07 -7.67948e-05
0.00286519 -0.000112886 -6.18929e-05
-0.000112886 0.00127563 -2.04429e-06
-6.18929e-05 -2.04429e-06 0.00127609
0.000542645 -7.20563e-05 -1.22494e-07
-7.20563e-05 -4.90019e-05 5.46185e-06
-1.22494e-07 5.46185e-06 -8.04602e-05
0.0026144 -0.000105388 -1.34261e-06
-0.000105388 0.00113025 1.74663e-07
-1.34261e-06 1.74663e-07 0.00113288
0.00252558 -9.47564e-05 3.95085e-05
-9.47564e-05 0.00107355 2.94071e-06
3.95085e-05 2.94071e-06 0.0010786
0.00108928 5.08054e-05 1.18698e-05
5.08054e-05 -0.00027327 2.0409e-06
1.18698e-05 2.0409e-06 -0.000309483
0.00168585 -4.26135e-06 -3.86136e-06
-4.26135e-06 -3.08138e-05 2.88727e-06
-3.86136e-06 2.88727e-06 -6.08046e-05
0.00292596 -4.84495e-06 7.19738e-05
-4.84495e-06 -0.00019596 -4.84576e-06
7.19738e-05 -4.84576e-06 -0.00032221
0.00184516 0.000268272 -1.33633e-06
0.000268272 0.000251657 -5.08957e-06
-1.33633e-06 -5.08957e-06 0.000104746
0.000793851 0.000186387 -1.51173e-06
0.000186387 -0.00012133 -4.65381e-07
-1.51173e-06 -4.65381e-07 -0.000254806
0.00178152 0.000230674 -1.79368e-06
0.000230674 0.000198378 9.89519e-07
-1.79368e-06 9.89519e-07 5.23009e-05
0.00170372 0.000243089 9.58944e-07
0.000243089 0.000245929 4.73333e-07
9.58944e-07 4.73333e-07 8.93614e-05
0.000416317 0.000159657 -4.18609e-06
0.000159657 -0.000275585 1.20392e-06
-4.18609e-06 1.20392e-06 -0.000437964
0.00179864 0.000264536 -4.18793e-06
0.000264536 0.000113824 1.89834e-06
-4.18793e-06 1.89834e-06 -2.91162e-05
0.00166372 0.000247204 -5.31465e-07
0.000247204 0.000421813 3.76736e-07
-5.31465e-07 3.76736e-07 0.000273351
0.00213766 0.000327995 -2.32288e-07
0.000327995 0.000405929 -2.32665e-06
-2.32288e-07 -2.32665e-06 0.000244707
0.00181398 0.000179263 -4.19331e-06
0.000179263 6.06789e-05 2.01128e-06
-4.19331e-06 2.01128e-06 -4.12423e-05
0.00213212 0.000351202 4.35805e-06
0.000351202 0.00038743 3.32526e-06
4.35805e-06 3.32526e-06 0.000226397
0.00205107 0.000321005 -1.09929e-06
0.000321005 0.000238187 3.7334e-07
-1.09929e-06 3.7334e-07 9.38901e-05
0.00113948 0.00015245 4.16119e-07
0.00015245 -0.000215094 9.72983e-07
4.16119e-07 9.72983e-07 -0.000281669
0.00100041 0.000252866 -4.33586e-06
0.000252866 -0.000227983 -4.03054e-06
-4.33586e-06 -4.03054e-06 -0.000346853
0.00108975 0.000175782 -2.71483e-05
0.000175782 -9.67701e-05 -6.68126e-06
-2.71483e-05 -6.68126e-06 -0.000111154
0.00170581 2.12153e-05 4.94624e-06
2.12153e-05 -5.70916e-05 3.6822e-07
4.94624e-06 3.6822e-07 -0.000118175
0.00195307 -1.15718e-05 -1.68344e-06
-1.15718e-05 0.000270379 1.62454e-07
-1.68344e-06 1.62454e-07 0.000237515
0.00139312 1.8475e-06 -4.5573e-05
1.8475e-06 -0.000187498 -3.15179e-06
-4.5573e-05 -3.15179e-06 -0.000266424
0.00144592 -0.000125948 -1.56089e-05
-0.000125948 -0.000259225 1.41549e-06
-1.56089e-05 1.41549e-06 -0.000243686
0.00149327 -5.99728e-05 -9.69546e-06
-5.99728e-05 -0.000151016 1.2474e-06
-9.69546e-06 1.2474e-06 -0.000198399
0.00196236 -0.00012851 -4.57904e-07
-0.00012851 5.43468e-05 -2.51275e-07
-4.57904e-07 -2.51275e-07 3.17e-05
0.00194477 -2.95702e-05 -2.59412e-07
-2.95702e-05 5.96283e-05 3.09292e-07
-2.59412e-07 3.09292e-07 1.12978e-05
0.00188032 -5.38103e-05 -9.0398e-07
-5.38103e-05 5.13663e-05 -8.00232e-07
-9.0398e-07 -8.00232e-07 -4.4553e-06
0.00171473 -0.000138072 -2.08453e-06
-0.000138072 -2.68897e-05 -3.26206e-07
-2.08453e-06 -3.26206e-07 -5.1574e-05
0.00187635 -0.000129543 8.47158e-07
-0.000129543 8.7637e-05 -9.69435e-08
8.47158e-07 -9.69435e-08 3.10739e-05
0.00183128 -0.000105024 7.31291e-07
-0.000105024 9.05133e-05 -2.22504e-07
7.31291e-07 -2.22504e-07 8.20943e-06
0.00169511 -0.000148128 -2.14272e-06
-0.000148128 4.30911e-05 -4.9942e-07
-2.14272e-06 -4.9942e-07 -3.10617e-05
0.00167304 -0.000133073 1.56513e-07
-0.000133073 5.60657e-05 -2.3633e-08
1.56513e-07 -2.3633e-08 -3.68973e-05
0.00170198 -0.000114944 1.4731e-06
-0.000114944 0.000103716 -2.12902e-07
1.4731e-06 -2.12902e-07 -1.22518e-05
0.00170476 -0.000150949 -2.39272e-06
-0.000150949 0.000109323 -1.46299e-07
-2.39272e-06 -1.46299e-07 7.16853e-06
0.00164674 -0.000137364 -6.60573e-08
-0.000137364 0.000111497 -5.0365e-08
-6.60573e-08 -5.0365e-08 -1.1125e-05
0.00151802 -0.000118826 -1.08868e-06
-0.000118826 0.000106931 3.76737e-07
-1.08868e-06 3.76737e-07 -2.77457e-05
0.00160015 -0.000153527 -1.23443e-06
-0.000153527 0.000115283 4.92931e-07
-1.23443e-06 4.92931e-07 -1.40141e-05
0.00148664 -0.000137451 -1.11657e-07
-0.000137451 0.000108109 -5.75835e-08
-1.11657e-07 -5.75835e-08 -2.99047e-05
0.00135475 -0.0001259 -5.57811e-06
-0.0001259 8.9904e-05 1.80855e-06
-5.57811e-06 1.80855e-06 -4.46033e-05
0.00142797 -0.000150349 2.38128e-06
-0.000150349 8.79569e-05 -2.29403e-07
2.38128e-06 -2.29403e-07 -5.3513e-05
0.00132633 -0.000140884 -6.57349e-08
-0.000140884 8.71344e-05 3.92461e-08
-6.57349e-08 3.92461e-08 -4.88379e-05
0.0010705 -0.000115555 -1.10439e-05
-0.000115555 2.41667e-05 4.41731e-06
-1.10439e-05 4.41731e-06 -8.94226e-05
0.001038 -0.000145425 6.0436e-06
-0.000145425 -6.19886e-05 -1.73742e-06
6.0436e-06 -1.73742e-06 -0.000203472
0.0010318 -0.000128517 1.64805e-07
-0.000128517 1.75071e-05 -3.93336e-08
1.64805e-07 -3.93336e-08 -0.000100465
0.00223925 -5.41749e-05 -1.47645e-05
-5.41749e-05 0.000849036 7.03578e-06
-1.47645e-05 7.03578e-06 0.00078213
0.00131044 -1.57451e-05 -0.000124308
-1.57451e-05 0.00038277 1.23888e-05
-0.000124308 1.23888e-05 0.000363055
0.0014788 -9.01552e-05 6.96382e-08
-9.01552e-05 0.00042621 3.56926e-08
6.96382e-08 3.56926e-08 0.000353923
0.000950571 -0.000137787 8.97529e-06
-0.000137787 1.28179e-05 -3.88956e-06
8.97529e-06 -3.88956e-06 -0.000113077
0.00448435 0.000145129 1.0437e-05
0.000145129 0.00220956 1.00031e-06
1.0437e-05 1.00031e-06 0.00219253
0.00076981 -0.000120481 1.63724e-05
-0.000120481 3.449e-05 -1.06699e-05
1.63724e-05 -1.06699e-05 -3.51339e-05
0.00410174 0.000108118 0.000116837
0.000108118 0.00197989 -5.88948e-06
0.000116837 -5.88948e-06 0.00197304
0.00187953 0.00019093 -6.1028e-08
0.00019093 0.000239009 3.77663e-07
-6.1028e-08 3.77663e-07 0.000103867
0.00136838 0.000195965 -9.34117e-07
0.000195965 6.28334e-05 1.39046e-06
-9.34117e-07 1.39046e-06 -8.64686e-05
0.0011149 0.000193083 -1.50293e-07
0.000193083 6.69305e-06 -2.49693e-09
-1.50293e-07 -2.49693e-09 -0.000158373
0.00108501 0.00017116 -4.99487e-06
0.00017116 6.39638e-05 -1.08408e-06
-4.99487e-06 -1.08408e-06 -9.26429e-05
0.000505882 0.000148885 9.14777e-07
0.000148885 -0.000213486 3.50745e-06
9.14777e-07 3.50745e-06 -0.000382152
0.00106077 0.000164359 -8.27963e-07
0.000164359 0.0001346 2.25888e-07
-8.27963e-07 2.25888e-07 -1.81228e-05
0.000981957 0.000126386 -5.70994e-06
0.000126386 0.000132896 -3.65591e-06
-5.70994e-06 -3.65591e-06 1.38761e-05
0.000859904 0.000137272 1.28593e-06
0.000137272 8.23408e-05 1.35568e-06
1.28593e-06 1.35568e-06 -5.11922e-05
0.000800923 8.6816e-05 -1.74667e-07
8.6816e-05 7.06899e-05 -1.35668e-07
-1.74667e-07 -1.35668e-07 -3.55736e-05
0.000735102 3.40434e-05 -8.88504e-06
3.40434e-05 4.45101e-05 -7.86495e-06
-8.88504e-06 -7.86495e-06 -7.30473e-06
0.000692101 2.287e-05 1.24068e-06
2.287e-05 2.40053e-05 2.32954e-06
1.24068e-06 2.32954e-06 -6.78015e-05
0.000555484 -3.52845e-05 -4.74978e-07
-3.52845e-05 -4.28039e-05 -2.8715e-07
-4.74978e-07 -2.8715e-07 -8.48256e-05
0.00317841 -0.000117003 -7.99377e-05
-0.000117003 0.00145694 -2.33423e-06
-7.99377e-05 -2.33423e-06 0.00145476
0.000501663 -7.78247e-05 -1.48942e-06
-7.78247e-05 -6.29358e-05 6.34342e-06
-1.48942e-06 6.34342e-06 -0.000102061
0.00279096 -0.000116965 -1.76447e-06
-0.000116965 0.00123497 2.0569e-07
-1.76447e-06 2.0569e-07 0.00123449
0.00259187 -0.000105391 4.35927e-05
-0.000105391 0.00111752 2.43721e-06
4.35927e-05 2.43721e-06 0.00112011
0.00183169 9.94269e-05 2.31074e-06
9.94269e-05 1.73874e-05 1.63669e-06
2.31074e-06 1.63669e-06 -5.67471e-05
0.00188421 4.48912e-05 5.29794e-06
4.48912e-05 0.000146117 -4.17365e-07
5.29794e-06 -4.17365e-07 0.000110351
0.00331087 -3.0599e-05 -4.59219e-05
-3.0599e-05 0.000683206 -9.95403e-06
-4.59219e-05 -9.95403e-06 0.000622527
0.00174378 0.000225906 -3.24281e-06
0.000225906 0.00010161 7.04905e-07
-3.24281e-06 7.04905e-07 -3.6924e-05
0.00166243 0.000254933 -3.30322e-06
0.000254933 0.000176215 -5.94608e-08
-3.30322e-06 -5.94608e-08 3.20967e-05
0.000804841 0.000195556 -1.34227e-05
0.000195556 -9.79655e-05 -1.03218e-07
-1.34227e-05 -1.03218e-07 -0.000220898
0.00183927 0.000226737 1.77085e-06
0.000226737 0.000228937 3.57722e-07
1.77085e-06 3.57722e-07 8.40719e-05
0.00189938 0.000254432 -7.97637e-07
0.000254432 0.000359665 -1.3202e-06
-7.97637e-07 -1.3202e-06 0.000200127
0.00211998 0.000178561 -2.29679e-06
0.000178561 0.000233377 1.70323e-06
-2.29679e-06 1.70323e-06 0.000133539
0.00170479 0.000263148 -1.38121e-06
0.000263148 6.37373e-05 7.0685e-07
-1.38121e-06 7.0685e-07 -8.06269e-05
0.00201717 0.000319595 2.59499e-06
0.000319595 0.000333506 2.20007e-07
2.59499e-06 2.20007e-07 0.000169722
0.00180839 0.000179261 -6.20766e-07
0.000179261 5.61474e-05 1.10939e-07
-6.20766e-07 1.10939e-07 -4.59145e-05
0.00206704 0.000322725 8.68372e-06
0.000322725 0.000235397 -4.92186e-07
8.68372e-06 -4.92186e-07 9.0603e-05
0.00160891 0.000170776 -2.06919e-05
0.000170776 3.89676e-05 -5.21721e-06
-2.06919e-05 -5.21721e-06 -2.84546e-05
0.00195305 2.4383e-05 1.92805e-07
2.4383e-05 0.000102718 2.61412e-07
1.92805e-07 2.61412e-07 4.38169e-05
0.00190678 2.71736e-05 -1.39729e-06
2.71736e-05 5.64062e-05 -2.58519e-07
-1.39729e-06 -2.58519e-07 -2.89147e-06
0.00265903 9.54291e-06 -2.86014e-05
9.54291e-06 0.000674744 -3.02803e-06
-2.86014e-05 -3.02803e-06 0.000640975
0.0019945 -0.000123671 -1.15044e-05
-0.000123671 7.49003e-05 -2.62195e-07
-1.15044e-05 -2.62195e-07 5.12194e-05
0.00195672 -3.114e-05 -7.55518e-07
-3.114e-05 5.70448e-05 3.44055e-07
-7.55518e-07 3.44055e-07 9.8054e-06
0.00185931 -5.56363e-05 8.54088e-07
-5.56363e-05 2.85347e-05 1.84616e-08
8.54088e-07 1.84616e-08 -2.20509e-05
0.00187527 -3.81376e-05 -7.8702e-08
-3.81376e-05 0.000103656 -9.95125e-08
-7.8702e-08 -9.95125e-08 2.30479e-05
0.00193003 -0.000125882 5.39465e-07
-0.000125882 0.000126907 -8.56124e-08
5.39465e-07 -8.56124e-08 6.64031e-05
0.0018585 -0.000104918 -5.24421e-07
-0.000104918 0.000111389 -2.66149e-07
-5.24421e-07 -2.66149e-07 2.81175e-05
0.001781 -8.48212e-05 2.32693e-06
-8.48212e-05 0.000113093 -1.22757e-06
2.32693e-06 -1.22757e-06 4.00006e-06
0.00166704 -0.000133073 -2.02562e-06
-0.000133073 5.82954e-05 -3.26019e-07
-2.02562e-06 -3.26019e-07 -3.65637e-05
0.0017157 -0.000115066 -1.05668e-07
-0.000115066 0.000111877 7.38652e-08
-1.05668e-07 7.38652e-08 -4.05227e-06
0.00158313 -9.54003e-05 -7.92367e-07
-9.54003e-05 0.000113712 1.22392e-07
-7.92367e-07 1.22392e-07 -1.69566e-05
0.00164943 -0.000136018 -1.26435e-06
-0.000136018 0.000114282 1.89225e-07
-1.26435e-06 1.89225e-07 -8.09943e-06
0.00151962 -0.00011866 -1.38311e-07
-0.00011866 0.000105112 9.20835e-08
-1.38311e-07 9.20835e-08 -2.94043e-05
0.00137123 -0.000106242 -5.11425e-06
-0.000106242 8.61376e-05 1.65069e-06
-5.11425e-06 1.65069e-06 -4.73947e-05
0.00151515 -0.000138399 1.50595e-06
-0.000138399 0.000121633 -4.20412e-07
1.50595e-06 -4.20412e-07 -1.62003e-05
0.00134892 -0.000124813 -6.21904e-08
-0.000124813 8.68628e-05 1.19214e-08
-6.21904e-08 1.19214e-08 -4.74083e-05
0.00108652 -0.000102088 -1.12103e-05
-0.000102088 2.18646e-05 4.08474e-06
-1.12103e-05 4.08474e-06 -9.09247e-05
0.00132247 -0.000139982 5.83491e-06
-0.000139982 8.561e-05 -1.84557e-06
5.83491e-06 -1.84557e-06 -5.0184e-05
0.00106392 -0.000113771 2.0743e-07
-0.000113771 1.95819e-05 8.95905e-09
2.0743e-07 8.95905e-09 -9.37121e-05
0.00227849 -6.8274e-05 -2.14581e-05
-6.8274e-05 0.000855732 5.83917e-06
-2.14581e-05 5.83917e-06 0.000797313
0.00100909 -0.000126632 1.03193e-05
-0.000126632 4.88152e-06 -4.34688e-06
1.03193e-05 -4.34688e-06 -0.000112931
0.00240552 -0.000104972 3.10562e-05
-0.000104972 0.000931569 -2.91733e-06
3.10562e-05 -2.91733e-06 0.000872194
0.00161471 -5.6794e-05 -0.000140024
-5.6794e-05 0.000556758 1.57922e-05
-0.000140024 1.57922e-05 0.00053684
0.00309417 2.36447e-05 -0.000131044
2.36447e-05 0.00140902 4.77612e-06
-0.000131044 4.77612e-06 0.00139222
0.00251367 -0.000138902 8.20178e-05
-0.000138902 0.00100287 -1.03907e-05
8.20178e-05 -1.03907e-05 0.000944683
0.00467863 0.000104573 0.0001324
0.000104573 0.00231491 -9.54132e-06
0.0001324 -9.54132e-06 0.00230074
0.00184074 0.000183332 -2.09919e-06
0.000183332 0.000182425 -1.41344e-07
-2.09919e-06 -1.41344e-07 5.10228e-05
0.00178825 0.000187203 1.30511e-06
0.000187203 0.00026773 5.07784e-08
1.30511e-06 5.07784e-08 0.00013035
0.00174929 0.000188895 8.35283e-07
0.000188895 0.000168971 2.7068e-07
8.35283e-07 2.7068e-07 3.48017e-05
0.00117467 0.000170273 -5.94787e-06
0.000170273 3.51263e-05 -1.19604e-07
-5.94787e-06 -1.19604e-07 -0.000112053
0.00142232 0.000197769 -1.99204e-08
0.000197769 8.97451e-05 3.89154e-07
-1.99204e-08 3.89154e-07 -5.92045e-05
0.00134676 0.000208117 1.87785e-06
0.000208117 0.000136095 -6.78737e-08
1.87785e-06 -6.78737e-08 -3.05776e-05
0.00115487 0.000176711 -5.39808e-07
0.000176711 0.000102915 4.24508e-07
-5.39808e-07 4.24508e-07 -5.49544e-05
0.000948871 0.000136153 -7.72189e-06
0.000136153 5.57694e-05 -3.97745e-06
-7.72189e-06 -3.97745e-06 -7.01019e-05
0.00101555 0.000159999 2.05339e-06
0.000159999 0.00011252 2.75017e-06
2.05339e-06 2.75017e-06 -3.97209e-05
0.000862083 0.000116922 -3.91535e-07
0.000116922 6.64683e-05 -6.04506e-08
-3.91535e-07 -6.04506e-08 -5.09579e-05
0.000787525 8.46996e-05 -1.26633e-05
8.46996e-05 6.24436e-05 -9.37193e-06
-1.26633e-05 -9.37193e-06 -9.63796e-07
0.000657665 7.49482e-05 2.31257e-06
7.49482e-05 -8.30147e-06 2.10634e-06
2.31257e-06 2.10634e-06 -0.000112445
0.000592927 1.10933e-05 1.65175e-07
1.10933e-05 -3.01059e-05 -2.51063e-07
1.65175e-07 -2.51063e-07 -8.09679e-05
0.00359755 -0.000108921 -0.000102461
-0.000108921 0.00170132 -4.18813e-06
-0.000102461 -4.18813e-06 0.00169617
0.000473725 -5.9525e-05 -3.08885e-08
-5.9525e-05 -8.157e-05 7.03403e-06
-3.08885e-08 7.03403e-06 -0.000126209
0.00310113 -0.000130472 -3.05043e-06
-0.000130472 0.00141544 3.25413e-07
-3.05043e-06 3.25413e-07 0.00141076
0.00273816 -0.000117753 4.88789e-05
-0.000117753 0.00120551 2.00739e-06
4.88789e-05 2.00739e-06 0.00120496
0.0018769 9.88233e-05 -6.20619e-07
9.88233e-05 6.46123e-05 1.45077e-06
-6.20619e-07 1.45077e-06 -1.22696e-05
0.00181751 9.86513e-05 6.64717e-07
9.86513e-05 1.80042e-05 -2.92718e-07
6.64717e-07 -2.92718e-07 -5.61599e-05
0.00239568 3.83686e-05 -3.97357e-05
3.83686e-05 0.000432947 -6.65483e-06
-3.97357e-05 -6.65483e-06 0.000399516
0.00191689 0.000159568 4.39407e-07
0.000159568 0.000148393 1.44075e-06
4.39407e-07 1.44075e-06 3.69343e-05
0.00171692 0.00021945 -5.70226e-07
0.00021945 9.4103e-05 -3.30204e-07
-5.70226e-07 -3.30204e-07 -4.30031e-05
0.00145643 0.000239935 -1.66219e-07
0.000239935 8.82929e-05 -4.02425e-07
-1.66219e-07 -4.02425e-07 -5.289e-05
0.00191186 0.000223533 8.39379e-07
0.000223533 0.000267908 -7.57298e-07
8.39379e-07 -7.57298e-07 0.000124137
0.00193414 0.000170414 -2.0616e-07
0.000170414 0.000131394 -8.65902e-08
-2.0616e-07 -8.65902e-08 3.04012e-05
0.00160574 0.000261302 4.0533e-07
0.000261302 1.2339e-05 -9.74797e-07
4.0533e-07 -9.74797e-07 -0.000133385
0.00176496 0.000176565 5.29203e-06
0.000176565 4.7384e-05 -1.65891e-06
5.29203e-06 -1.65891e-06 -5.46299e-05
0.00188192 2.36441e-05 1.43359e-06
2.36441e-05 0.000101827 7.06726e-07
1.43359e-06 7.06726e-07 2.53027e-05
0.001869 2.42148e-05 -3.948e-07
2.42148e-05 5.84269e-05 -2.28962e-08
-3.948e-07 -2.28962e-08 -2.84914e-06
0.00210789 3.33909e-05 -7.67133e-06
3.33909e-05 0.000171096 -1.0488e-06
-7.67133e-06 -1.0488e-06 0.000114224
0.00161789 -8.40547e-06 -8.68738e-07
-8.40547e-06 -1.75953e-05 2.42671e-07
-8.68738e-07 2.42671e-07 -0.000107359
0.00183853 -5.73625e-05 6.89549e-08
-5.73625e-05 6.23497e-06 4.47727e-07
6.89549e-08 4.47727e-07 -3.88212e-05
0.00184077 -3.97752e-05 -5.8105e-07
-3.97752e-05 8.26519e-05 5.4347e-07
-5.8105e-07 5.4347e-07 1.73292e-06
0.00194141 -4.41179e-05 7.63155e-07
-4.41179e-05 0.000189638 -6.63489e-07
7.63155e-07 -6.63489e-07 8.87004e-05
0.00188819 -0.00010511 -2.13367e-06
-0.00010511 0.000133309 2.71227e-07
-2.13367e-06 2.71227e-07 4.90903e-05
0.00178557 -8.50467e-05 9.13324e-07
-8.50467e-05 0.000114692 -5.21015e-07
9.13324e-07 -5.21015e-07 5.64936e-06
0.00163224 -6.66034e-05 -5.82832e-07
-6.66034e-05 0.000108485 -5.47683e-07
-5.82832e-07 -5.47683e-07 -1.76041e-05
0.00173655 -0.000114699 -9.20374e-07
-0.000114699 0.00012408 3.1778e-07
-9.20374e-07 3.1778e-07 8.25824e-06
0.00156792 -9.39309e-05 -1.12146e-07
-9.39309e-05 0.000103588 9.11657e-08
-1.12146e-07 9.11657e-08 -2.69135e-05
0.00139172 -8.25519e-05 -4.88832e-06
-8.25519e-05 8.19183e-05 1.29007e-06
-4.88832e-06 1.29007e-06 -5.02551e-05
0.00151998 -0.000118376 1.04653e-06
-0.000118376 0.00010267 -2.22274e-07
1.04653e-06 -2.22274e-07 -3.1674e-05
0.00136573 -0.000105221 -6.59811e-08
-0.000105221 8.24771e-05 1.01404e-07
-6.59811e-08 1.01404e-07 -5.08141e-05
0.00110066 -8.66923e-05 -1.10845e-05
-8.66923e-05 1.83972e-05 3.45793e-06
-1.10845e-05 3.45793e-06 -9.46513e-05
0.00134188 -0.000123624 5.40021e-06
-0.000123624 8.31494e-05 -1.76094e-06
5.40021e-06 -1.76094e-06 -5.08722e-05
0.0010893 -9.99779e-05 1.31546e-07
-9.99779e-05 2.22044e-05 1.17798e-07
1.31546e-07 1.17798e-07 -9.00989e-05
0.00233631 -8.59388e-05 -2.85606e-05
-8.59388e-05 0.00087741 5.15219e-06
-2.85606e-05 5.15219e-06 0.000822914
0.00105127 -0.000111804 1.09942e-05
-0.000111804 1.15773e-05 -4.44593e-06
1.09942e-05 -4.44593e-06 -0.000101393
0.00239516 -0.000106505 2.75863e-05
-0.000106505 0.000915846 -2.78875e-06
2.75863e-05 -2.78875e-06 0.000861761
0.00165596 -5.00203e-05 -0.000135647
-5.00203e-05 0.000579097 1.43558e-05
-0.000135647 1.43558e-05 0.000559546
0.00254038 -0.000131719 8.5776e-05
-0.000131719 0.00100207 -1.23622e-05
8.5776e-05 -1.23622e-05 0.00094656
0.00146539 1.47248e-05 -6.88993e-05
1.47248e-05 0.000486785 5.35504e-06
-6.88993e-05 5.35504e-06 0.000456194
0.00473764 0.000294085 -9.17719e-06
0.000294085 0.00239104 -5.17728e-06
-9.17719e-06 -5.17728e-06 0.00234046
0.00174007 0.000147861 5.19898e-07
0.000147861 0.000109573 7.56468e-07
5.19898e-07 7.56468e-07 -1.6884e-05
0.00168298 0.000159347 -1.12026e-06
0.000159347 0.000172364 -5.37501e-07
-1.12026e-06 -5.37501e-07 3.69665e-05
0.00176531 0.000181813 -2.3322e-06
0.000181813 0.000140039 -1.25845e-08
-2.3322e-06 -1.25845e-08 7.64033e-06
0.00174309 0.000177384 -3.72862e-06
0.000177384 0.000315013 -6.95797e-07
-3.72862e-06 -6.95797e-07 0.000179881
0.00151974 0.000178101 5.81451e-07
0.000178101 0.000116211 -2.18027e-07
5.81451e-07 -2.18027e-07 -2.04076e-05
0.00161451 0.000186797 2.60171e-06
0.000186797 9.64348e-05 -4.75074e-07
2.60171e-06 -4.75074e-07 -3.66727e-05
0.000970518 0.000136966 -1.00706e-05
0.000136966 3.17137e-06 -3.4363e-06
-1.00706e-05 -3.4363e-06 -0.000120479
0.00125028 0.000176138 -1.44213e-07
0.000176138 7.61166e-05 4.74647e-07
-1.44213e-07 4.74647e-07 -7.21361e-05
0.00147714 0.00019976 3.72084e-06
0.00019976 0.000116918 -9.43564e-07
3.72084e-06 -9.43564e-07 -3.17103e-05
0.00123599 0.000183219 4.85729e-06
0.000183219 0.000148173 2.33776e-06
4.85729e-06 2.33776e-06 -1.11125e-05
0.000931042 0.000133771 -6.9147e-07
0.000133771 4.48623e-05 1.10587e-07
-6.9147e-07 1.10587e-07 -8.04636e-05
0.000743507 0.000139277 -1.84539e-05
0.000139277 2.40783e-05 -1.01492e-05
-1.84539e-05 -1.01492e-05 -4.87714e-05
0.000746038 0.000107272 4.19612e-06
0.000107272 2.31553e-06 3.39778e-06
4.19612e-06 3.39778e-06 -0.000113503
0.000634273 7.85399e-05 -2.55286e-07
7.85399e-05 -1.60429e-05 3.11756e-08
-2.55286e-07 3.11756e-08 -7.90285e-05
0.00417643 -9.67334e-05 -0.000121563
-9.67334e-05 0.00204 -8.02908e-06
-0.000121563 -8.02908e-06 0.00202792
0.000486708 1.15003e-07 4.97834e-06
1.15003e-07 -8.73968e-05 7.63915e-06
4.97834e-06 7.63915e-06 -0.000136148
0.00350128 -0.000142018 -5.68015e-06
-0.000142018 0.00165042 4.80972e-07
-5.68015e-06 4.80972e-07 0.00164073
0.00301194 -0.000134103 5.66549e-05
-0.000134103 0.00136554 1.76366e-06
5.66549e-05 1.76366e-06 0.0013603
0.00175907 8.6252e-05 3.01019e-07
8.6252e-05 3.51021e-05 1.45037e-06
3.01019e-07 1.45037e-06 -5.64964e-05
0.00179701 0.000100062 -2.26523e-07
0.000100062 1.70092e-05 3.8967e-07
-2.26523e-07 3.8967e-07 -5.9341e-05
0.00185151 0.000100429 -1.95653e-06
0.000100429 3.36277e-05 -1.80983e-06
-1.95653e-06 -1.80983e-06 -4.089e-05
0.00189755 0.000157546 7.43957e-07
0.000157546 0.000138803 -1.4308e-07
7.43957e-07 -1.4308e-07 2.85488e-05
0.00167871 0.000212361 -3.15108e-07
0.000212361 8.01856e-05 -1.39264e-06
-3.15108e-07 -1.39264e-06 -5.54207e-05
0.00175433 0.00016235 1.54531e-06
0.00016235 3.01117e-05 -1.82458e-06
1.54531e-06 -1.82458e-06 -7.2024e-05
0.00185619 2.60202e-05 -1.91773e-07
2.60202e-05 0.000118729 5.17911e-07
-1.91773e-07 5.17911e-07 2.89506e-05
0.00186987 2.51775e-05 1.47163e-07
2.51775e-05 9.67422e-05 -3.15963e-07
1.47163e-07 -3.15963e-07 1.88034e-05
0.00175797 2.46852e-05 6.24835e-07
2.46852e-05 -3.58388e-08 -1.96036e-07
6.24835e-07 -1.96036e-07 -6.37529e-05
0.00173521 -1.44988e-05 -1.51885e-06
-1.44988e-05 4.79263e-05 2.95248e-08
-1.51885e-06 2.95248e-08 -4.07007e-05
0.00171405 -2.1477e-05 9.08536e-07
-2.1477e-05 7.26159e-05 -3.73505e-07
9.08536e-07 -3.73505e-07 -3.04248e-05
0.00180918 -4.13092e-05 -4.63391e-07
-4.13092e-05 6.39641e-05 5.21076e-07
-4.63391e-07 5.21076e-07 -1.72913e-05
0.00181342 -4.43082e-05 -5.33891e-07
-4.43082e-05 0.000118379 3.69367e-07
-5.33891e-07 3.69367e-07 1.46602e-05
0.00170899 -3.65514e-05 2.46703e-07
-3.65514e-05 0.000132131 -4.41347e-07
2.46703e-07 -4.41347e-07 1.30543e-05
0.00178028 -8.57251e-05 2.03191e-07
-8.57251e-05 0.000110974 1.35786e-07
2.03191e-07 1.35786e-07 1.90747e-06
0.00160827 -6.78582e-05 6.27927e-08
-6.78582e-05 9.63834e-05 -2.6681e-07
6.27927e-08 -2.6681e-07 -2.97411e-05
0.00140911 -5.16813e-05 -5.42436e-06
-5.16813e-05 7.31104e-05 8.86715e-07
-5.42436e-06 8.86715e-07 -5.70441e-05
0.00154479 -9.39571e-05 5.51517e-07
-9.39571e-05 8.89619e-05 2.8214e-08
5.51517e-07 2.8214e-08 -4.15095e-05
0.00138179 -8.13522e-05 3.83717e-08
-8.13522e-05 7.45749e-05 1.183e-07
3.83717e-08 1.183e-07 -5.7422e-05
0.00111161 -6.7345e-05 -1.1099e-05
-6.7345e-05 1.17919e-05 2.8847e-06
-1.1099e-05 2.8847e-06 -0.000101206
0.00136015 -0.000104141 4.90046e-06
-0.000104141 7.87542e-05 -1.42687e-06
4.90046e-06 -1.42687e-06 -5.42899e-05
0.00110409 -8.43017e-05 -2.59087e-09
-8.43017e-05 1.92375e-05 1.35821e-07
-2.59087e-09 1.35821e-07 -9.33165e-05
0.00234112 -9.63328e-05 -3.17023e-05
-9.63328e-05 0.000874349 4.52142e-06
-3.17023e-05 4.52142e-06 0.00081868
0.00108766 -9.78274e-05 1.12606e-05
-9.78274e-05 1.99922e-05 -3.94032e-06
1.12606e-05 -3.94032e-06 -9.18064e-05
0.00240253 -0.000100907 2.64051e-05
-0.000100907 0.000911722 -2.24212e-06
2.64051e-05 -2.24212e-06 0.000859568
0.00169566 -4.40188e-05 -0.00013538
-4.40188e-05 0.000595962 1.245e-05
-0.00013538 1.245e-05 0.000576706
0.00250348 -0.000115907 8.45345e-05
-0.000115907 0.000973116 -1.09509e-05
8.45345e-05 -1.09509e-05 0.000921927
0.00146249 -3.10538e-06 -6.17416e-05
-3.10538e-06 0.000477281 5.3188e-06
-6.17416e-05 5.3188e-06 0.000451634
0.00138635 3.92083e-05 1.42604e-05
3.92083e-05 0.000444621 -4.1505e-06
1.42604e-05 -4.1505e-06 0.000411015
0.00186665 8.82513e-05 6.81302e-08
8.82513e-05 0.000150994 1.73585e-06
6.81302e-08 1.73585e-06 4.37466e-05
0.00159361 0.000127096 -1.84932e-06
0.000127096 9.88175e-05 1.70481e-07
-1.84932e-06 1.70481e-07 -3.45603e-05
0.00176603 0.000149238 -1.0211e-06
0.000149238 0.000118809 -1.20116e-07
-1.0211e-06 -1.20116e-07 -5.65437e-06
0.00163156 0.000145827 -4.44372e-06
0.000145827 0.000223014 -1.54117e-06
-4.44372e-06 -1.54117e-06 9.13662e-05
0.00169551 0.000158578 1.07806e-06
0.000158578 0.000183046 2.74379e-07
1.07806e-06 2.74379e-07 4.71128e-05
0.00169101 0.000180333 1.81711e-06
0.000180333 9.89994e-05 4.55565e-07
1.81711e-06 4.55565e-07 -3.44598e-05
0.00104081 0.000128557 -1.09212e-05
0.000128557 5.07828e-06 -3.74178e-06
-1.09212e-05 -3.74178e-06 -0.000112169
0.0014218 0.000164871 3.14366e-06
0.000164871 0.000133873 3.20296e-07
3.14366e-06 3.20296e-07 -1.99151e-06
0.00127018 0.000169937 2.73752e-06
0.000169937 -2.52085e-05 -1.1772e-07
2.73752e-06 -1.1772e-07 -0.000161159
0.000645622 0.000146567 -1.99519e-05
0.000146567 -5.12614e-05 -9.30098e-06
-1.99519e-05 -9.30098e-06 -0.000124898
0.00100744 0.000138754 -7.73788e-07
0.000138754 2.35e-05 3.64137e-07
-7.73788e-07 3.64137e-07 -0.000100314
0.00133208 0.000182207 6.44851e-06
0.000182207 0.000120456 1.25194e-06
6.44851e-06 1.25194e-06 -2.88583e-05
0.000921533 0.000132062 7.11675e-06
0.000132062 3.90604e-05 4.51281e-06
7.11675e-06 4.51281e-06 -8.58786e-05
0.000637054 0.000125374 5.90718e-07
0.000125374 -3.1119e-05 2.12664e-07
5.90718e-07 2.12664e-07 -0.000103284
0.00482446 -9.28208e-05 -0.00012981
-9.28208e-05 0.00241908 -1.27805e-05
-0.00012981 -1.27805e-05 0.00239523
0.000496855 6.65042e-05 9.17859e-06
6.65042e-05 -8.89081e-05 8.97498e-06
9.17859e-06 8.97498e-06 -0.000149815
0.0040003 -0.000143711 -9.20017e-06
-0.000143711 0.00194502 7.22668e-07
-9.20017e-06 7.22668e-07 0.00192927
0.00338125 -0.000153711 6.8548e-05
-0.000153711 0.00158311 1.78781e-06
6.8548e-05 1.78781e-06 0.00157155
0.00176341 6.43949e-05 -3.83925e-07
6.43949e-05 6.92978e-05 3.64553e-07
-3.83925e-07 3.64553e-07 -2.54836e-05
0.00176185 8.56376e-05 5.10888e-07
8.56376e-05 3.89838e-05 4.81468e-07
5.10888e-07 4.81468e-07 -5.19548e-05
0.00171869 0.000100561 2.01746e-06
0.000100561 -2.73296e-05 -9.1716e-07
2.01746e-06 -9.1716e-07 -0.000103085
0.00188343 0.000155501 2.61122e-07
0.000155501 0.00013214 -1.35192e-06
2.61122e-07 -1.35192e-06 2.3132e-05
0.00173994 -4.48544e-06 1.2057e-06
-4.48544e-06 8.52362e-05 1.08312e-07
1.2057e-06 1.08312e-07 -1.93175e-05
0.00187719 2.22659e-05 -5.54913e-08
2.22659e-05 0.000127834 -1.56622e-07
-5.54913e-08 -1.56622e-07 3.83534e-05
0.00185553 2.62136e-05 -7.21931e-07
2.62136e-05 9.01239e-05 -2.17074e-07
-7.21931e-07 -2.17074e-07 1.07852e-05
0.00185875 -1.78745e-05 -2.76812e-06
-1.78745e-05 0.000116884 -6.82359e-07
-2.76812e-06 -6.82359e-07 2.94143e-05
0.0017041 -1.45462e-05 -1.10537e-06
-1.45462e-05 6.67858e-05 -1.17756e-07
-1.10537e-06 -1.17756e-07 -3.52163e-05
0.00176244 -1.03748e-05 1.05253e-06
-1.03748e-05 0.000164956 -3.80907e-07
1.05253e-06 -3.80907e-07 4.91815e-05
0.0016881 -4.45687e-05 -1.5672e-06
-4.45687e-05 4.83224e-05 1.24948e-06
-1.5672e-06 1.24948e-06 -5.81707e-05
0.00167601 -3.63102e-05 4.20532e-07
-3.63102e-05 0.000116589 1.56077e-07
4.20532e-07 1.56077e-07 -4.40533e-06
0.00137703 -2.3163e-05 -4.38187e-06
-2.3163e-05 3.63216e-05 3.21613e-07
-4.38187e-06 3.21613e-07 -9.05977e-05
0.00159315 -6.76262e-05 6.33051e-07
-6.76262e-05 8.92678e-05 -5.25907e-09
6.33051e-07 -5.25907e-09 -3.67557e-05
0.00139615 -4.9446e-05 -3.81622e-07
-4.9446e-05 6.34028e-05 7.62789e-08
-3.81622e-07 7.62789e-08 -6.65043e-05
0.00111831 -4.33686e-05 -1.13236e-05
-4.33686e-05 3.51756e-06 2.29291e-06
-1.13236e-05 2.29291e-06 -0.000109438
0.00136693 -7.80869e-05 4.59464e-06
-7.80869e-05 6.45182e-05 -1.01793e-06
4.59464e-06 -1.01793e-06 -6.71392e-05
0.0011122 -6.64042e-05 1.34859e-08
-6.64042e-05 1.16717e-05 1.7773e-07
1.34859e-08 1.7773e-07 -0.000101115
0.000664742 -5.51198e-05 -1.67178e-05
-5.51198e-05 -8.6876e-05 4.14434e-06
-1.67178e-05 4.14434e-06 -0.000150961
0.00111552 -8.22089e-05 1.11366e-05
-8.22089e-05 2.42774e-05 -3.26041e-06
1.11366e-05 -3.26041e-06 -8.77617e-05
0.00154042 -6.7179e-05 3.43938e-05
-6.7179e-05 0.000415136 -1.97347e-06
3.43938e-05 -1.97347e-06 0.000358942
0.00503689 -0.000111435 -0.000166816
-0.000111435 0.00249038 9.42036e-06
-0.000166816 9.42036e-06 0.00248749
0.00248748 -9.53983e-05 8.44478e-05
-9.53983e-05 0.000954501 -9.06802e-06
8.44478e-05 -9.06802e-06 0.000905699
0.00147835 -2.26646e-05 -5.53738e-05
-2.26646e-05 0.00047863 4.326e-06
-5.53738e-05 4.326e-06 0.000455052
0.00129618 -1.34318e-05 2.50037e-05
-1.34318e-05 0.00038684 -3.82726e-06
2.50037e-05 -3.82726e-06 0.000358048
0.00188599 6.3857e-05 7.35405e-07
6.3857e-05 0.000169496 1.01395e-06
7.35405e-07 1.01395e-06 6.7017e-05
0.00168542 8.32011e-05 -5.97669e-07
8.32011e-05 0.000133703 1.16705e-06
-5.97669e-07 1.16705e-06 1.05498e-05
0.00188184 8.58682e-05 2.54579e-07
8.58682e-05 0.000164054 -3.53261e-09
2.54579e-07 -3.53261e-09 5.60181e-05
0.00125608 0.000106695 -5.63141e-06
0.000106695 -1.30699e-05 -9.86146e-07
-5.63141e-06 -9.86146e-07 -0.000144514
0.00168361 0.000128432 7.33914e-08
0.000128432 0.000149613 -1.24072e-08
7.33914e-08 -1.24072e-08 1.75183e-05
0.00179394 0.000150989 -8.56098e-07
0.000150989 0.0001287 -9.14868e-07
-8.56098e-07 -9.14868e-07 6.17301e-06
0.000649385 9.32387e-05 -1.30954e-05
9.32387e-05 -0.000238175 -4.13742e-06
-1.30954e-05 -4.13742e-06 -0.000353259
0.00167182 0.000149433 1.47262e-06
0.000149433 0.00024601 3.80773e-07
1.47262e-06 3.80773e-07 0.000113788
0.00170344 0.000157915 2.86676e-06
0.000157915 0.000191135 8.23647e-07
2.86676e-06 8.23647e-07 5.46331e-05
0.00059526 0.000118519 -1.79856e-05
0.000118519 -9.65328e-05 -7.81566e-06
-1.79856e-05 -7.81566e-06 -0.000166253
0.000828533 0.000119528 5.06465e-07
0.000119528 -0.000115186 -7.82096e-08
5.06465e-07 -7.82096e-08 -0.000233286
0.00108471 0.000151357 7.99995e-06
0.000151357 -5.60911e-05 1.27902e-06
7.99995e-06 1.27902e-06 -0.000192567
0.0051402 -5.5274e-05 -0.000135759
-5.5274e-05 0.00258336 -1.30039e-05
-0.000135759 -1.30039e-05 0.00256388
0.000604351 0.000135543 1.44444e-06
0.000135543 -7.27702e-05 5.1433e-07
1.44444e-06 5.1433e-07 -0.000146372
0.00102887 0.000139813 9.93176e-06
0.000139813 3.53884e-05 4.46022e-06
9.93176e-06 4.46022e-06 -8.8565e-05
0.000496712 0.000118084 1.47751e-05
0.000118084 -0.000107099 9.97401e-06
1.47751e-05 9.97401e-06 -0.000177496
0.00455178 -0.000107272 -4.55759e-06
-0.000107272 0.00225669 -5.59947e-08
-4.55759e-06 -5.59947e-08 0.0022399
0.00379215 -0.000171512 8.22448e-05
-0.000171512 0.00183027 2.88373e-06
8.22448e-05 2.88373e-06 0.00181134
0.00180096 4.01556e-05 -8.47359e-07
4.01556e-05 0.000113349 -2.56588e-07
-8.47359e-07 -2.56588e-07 9.2735e-06
0.00178361 6.36374e-05 -1.39049e-07
6.36374e-05 7.70028e-05 3.63821e-07
-1.39049e-07 3.63821e-07 -1.76753e-05
0.00176215 8.54133e-05 4.46779e-07
8.54133e-05 4.13128e-05 -6.61012e-07
4.46779e-07 -6.61012e-07 -4.89919e-05
0.00168161 5.34818e-06 1.2182e-06
5.34818e-06 0.000113292 -1.97818e-07
1.2182e-06 -1.97818e-07 -3.50757e-06
0.00172822 -1.68709e-06 2.95551e-08
-1.68709e-06 8.24878e-05 7.26749e-08
2.95551e-08 7.26749e-08 -2.10641e-05
0.00189699 1.64994e-05 -9.58495e-07
1.64994e-05 0.000136401 -1.11719e-07
-9.58495e-07 -1.11719e-07 4.72046e-05
0.00168538 -8.85915e-06 -1.97775e-06
-8.85915e-06 5.59703e-05 4.24899e-07
-1.97775e-06 4.24899e-07 -4.49953e-05
0.00174867 -7.3556e-06 1.10705e-06
-7.3556e-06 0.000156493 -1.52389e-07
1.10705e-06 -1.52389e-07 4.08444e-05
0.00172396 -5.76324e-06 -2.46248e-06
-5.76324e-06 0.000224343 -6.94194e-08
-2.46248e-06 -6.94194e-08 0.000103148
0.00164295 -3.60268e-05 7.53585e-07
-3.60268e-05 0.000101048 6.36857e-07
7.53585e-07 6.36857e-07 -2.18692e-05
0.00156461 -2.24348e-05 -1.38468e-08
-2.24348e-05 0.000141229 6.7944e-08
-1.38468e-08 6.7944e-08 1.52442e-05
0.000788099 -1.78817e-05 -1.31338e-05
-1.78817e-05 -0.000191617 1.76151e-06
-1.31338e-05 1.76151e-06 -0.000307361
0.00139011 -4.94498e-05 4.22358e-06
-4.94498e-05 5.743e-05 -7.11915e-07
4.22358e-06 -7.11915e-07 -7.23953e-05
0.00111366 -4.046e-05 1.21973e-08
-4.046e-05 5.81933e-07 9.28719e-08
1.21973e-08 9.28719e-08 -0.000112098
0.000661454 -2.02407e-05 -1.64413e-05
-2.02407e-05 -9.63286e-05 2.82996e-06
-1.64413e-05 2.82996e-06 -0.000161242
0.00111601 -6.4428e-05 1.12719e-05
-6.4428e-05 1.32535e-05 -2.55891e-06
1.12719e-05 -2.55891e-06 -9.92125e-05
0.000670786 -4.09499e-05 -2.03441e-07
-4.09499e-05 -8.33291e-05 2.58288e-07
-2.03441e-07 2.58288e-07 -0.000147844
0.00510096 -1.21453e-05 -0.000155593
-1.21453e-05 0.00251874 5.8153e-06
-0.000155593 5.8153e-06 0.00251965
0.000701668 -5.55919e-05 1.59758e-05
-5.55919e-05 -6.21667e-05 -5.91629e-06
1.59758e-05 -5.91629e-06 -0.000126313
0.00323074 -5.73917e-05 7.40703e-05
-5.73917e-05 0.00146699 -1.24994e-06
7.40703e-05 -1.24994e-06 0.00145121
0.0012321 -4.19511e-05 3.05841e-05
-4.19511e-05 0.000349176 -3.94884e-06
3.05841e-05 -3.94884e-06 0.000319244
0.00180777 5.62221e-05 5.83075e-08
5.62221e-05 0.000143469 2.2908e-07
5.83075e-08 2.2908e-07 3.65326e-05
0.0015837 4.61515e-05 4.0814e-07
4.61515e-05 7.45364e-05 1.25231e-06
4.0814e-07 1.25231e-06 -4.45667e-05
0.00186131 6.12655e-05 -2.22501e-07
6.12655e-05 0.000156026 -1.9519e-07
-2.22501e-07 -1.9519e-07 5.37819e-05
0.00141547 7.54767e-05 -4.37085e-06
7.54767e-05 6.5796e-05 -3.28277e-07
-4.37085e-06 -3.28277e-07 -6.111e-05
0.00164106 8.14462e-05 4.51239e-07
8.14462e-05 0.000107028 1.12227e-07
4.51239e-07 1.12227e-07 -1.71514e-05
0.00189543 8.31425e-05 -6.10878e-07
8.31425e-05 0.000176254 -1.56835e-06
-6.10878e-07 -1.56835e-06 6.74524e-05
0.000672248 7.4506e-05 -1.31399e-05
7.4506e-05 -0.000242368 -3.18164e-06
-1.31399e-05 -3.18164e-06 -0.000355955
0.0015218 0.000115164 -1.21326e-06
0.000115164 0.00013781 -1.86007e-07
-1.21326e-06 -1.86007e-07 7.65786e-06
0.00177253 0.000129566 2.11454e-06
0.000129566 0.000199934 -3.34715e-07
2.11454e-06 -3.34715e-07 6.91465e-05
0.000602766 8.48838e-05 -1.65392e-05
8.48838e-05 -0.000107743 -6.14512e-06
-1.65392e-05 -6.14512e-06 -0.000173521
0.00065078 9.41164e-05 -2.76656e-06
9.41164e-05 -0.000237689 -6.1044e-07
-2.76656e-06 -6.1044e-07 -0.000353397
0.00171335 0.000153136 7.74021e-06
0.000153136 0.000269729 1.92065e-06
7.74021e-06 1.92065e-06 0.000136923
0.00518851 3.05057e-05 -0.000153641
3.05057e-05 0.002582 -1.11563e-05
-0.000153641 -1.11563e-05 0.00257707
0.000583474 0.000110029 8.44245e-07
0.000110029 -0.000102327 2.80442e-07
8.44245e-07 2.80442e-07 -0.000172778
0.000617384 0.000110768 1.11514e-05
0.000110768 -0.000234963 3.44354e-06
1.11514e-05 3.44354e-06 -0.000353942
0.00497283 -4.07276e-05 1.02127e-05
-4.07276e-05 0.00248521 -6.41644e-07
1.02127e-05 -6.41644e-07 0.00246977
0.000533357 0.000121556 1.65948e-05
0.000121556 -0.00010895 9.59465e-06
1.65948e-05 9.59465e-06 -0.000183552
0.00430323 -0.000171632 9.60447e-05
-0.000171632 0.00213014 6.36288e-06
9.60447e-05 6.36288e-06 0.00210535
0.00176972 2.9333e-05 -9.38585e-08
2.9333e-05 0.000156721 -2.16399e-07
-9.38585e-08 -2.16399e-07 4.20899e-05
0.00174828 3.84141e-05 -4.49988e-07
3.84141e-05 8.8418e-05 1.51094e-07
-4.49988e-07 1.51094e-07 -1.64827e-05
0.00180328 6.26982e-05 2.15531e-07
6.26982e-05 8.42019e-05 -9.86729e-08
2.15531e-07 -9.86729e-08 -1.03784e-05
0.00170187 -2.33069e-06 -2.39243e-06
-2.33069e-06 0.000215378 -1.32814e-07
-2.39243e-06 -1.32814e-07 9.61379e-05
0.00171115 4.32493e-06 6.117e-07
4.32493e-06 0.000129403 2.28992e-08
6.117e-07 2.28992e-08 1.37319e-05
0.00172796 3.03908e-06 6.67413e-07
3.03908e-06 8.57619e-05 -9.63226e-08
6.67413e-07 -9.63226e-08 -1.67922e-05
0.00173642 -5.07189e-06 7.47443e-07
-5.07189e-06 0.000148884 3.27919e-07
7.47443e-07 3.27919e-07 3.33463e-05
0.00172852 -5.43993e-06 1.90782e-06
-5.43993e-06 0.000226647 -2.15258e-07
1.90782e-06 -2.15258e-07 0.000105423
0.000795631 -6.26439e-06 -1.23572e-05
-6.26439e-06 -0.00019097 7.16769e-07
-1.23572e-05 7.16769e-07 -0.000305596
0.00175487 -2.18723e-05 5.34293e-06
-2.18723e-05 0.00024772 -4.09044e-07
5.34293e-06 -4.09044e-07 0.00012267
0.000957712 -1.66821e-05 -2.569e-06
-1.66821e-05 -9.62257e-05 3.81875e-07
-2.569e-06 3.81875e-07 -0.000210496
0.000678822 -6.61073e-06 -1.68306e-05
-6.61073e-06 -9.39466e-05 1.89461e-06
-1.68306e-05 1.89461e-06 -0.000159546
0.00111306 -3.88745e-05 1.11142e-05
-3.88745e-05 -8.52217e-08 -2.11625e-06
1.11142e-05 -2.11625e-06 -0.000112585
0.000663585 -2.08436e-05 4.42893e-07
-2.08436e-05 -9.6185e-05 -1.18691e-09
4.42893e-07 -1.18691e-09 -0.00016061
0.0051649 -7.57098e-05 -0.000162081
-7.57098e-05 0.00255705 4.77967e-06
-0.000162081 4.77967e-06 0.00255596
0.000663397 -2.65966e-05 1.54601e-05
-2.65966e-05 -8.89291e-05 -3.32618e-06
1.54601e-05 -3.32618e-06 -0.000152695
0.00511115 -2.45227e-05 1.14808e-05
-2.45227e-05 0.00252885 -1.67942e-07
1.14808e-05 -1.67942e-07 0.00252707
0.00150032 -1.52492e-05 0.000140938
-1.52492e-05 0.000484903 -6.70005e-06
0.000140938 -6.70005e-06 0.000467942
0.0016839 3.69461e-05 6.0365e-07
3.69461e-05 0.00013145 2.93262e-07
6.0365e-07 2.93262e-07 1.46094e-05
0.00176837 5.96756e-05 -1.42358e-06
5.96756e-05 0.000116629 -1.88189e-07
-1.42358e-06 -1.88189e-07 1.08775e-05
0.00143452 4.0755e-05 -3.92496e-06
4.0755e-05 7.58818e-05 -5.51881e-08
-3.92496e-06 -5.51881e-08 -4.71144e-05
0.00158333 4.53893e-05 3.87781e-07
4.53893e-05 7.52772e-05 -2.22766e-09
3.87781e-07 -2.22766e-09 -4.3881e-05
0.00183496 5.88444e-05 -6.8754e-07
5.88444e-05 0.000141539 -1.68876e-06
-6.8754e-07 -1.68876e-06 3.9534e-05
0.00112526 6.17783e-05 -1.12004e-05
6.17783e-05 3.84041e-06 -2.04773e-06
-1.12004e-05 -2.04773e-06 -0.000105241
0.0013992 7.51417e-05 4.38932e-08
7.51417e-05 5.7183e-05 1.52094e-07
4.38932e-08 1.52094e-07 -6.984e-05
0.00159572 7.97446e-05 7.89627e-07
7.97446e-05 7.99277e-05 -7.01888e-07
7.89627e-07 -7.01888e-07 -4.52879e-05
0.000621744 5.88865e-05 -1.61349e-05
5.88865e-05 -0.000111569 -4.54063e-06
-1.61349e-05 -4.54063e-06 -0.000175291
0.000871973 8.212e-05 -3.23416e-06
8.212e-05 -0.000129605 -4.83438e-07
-3.23416e-06 -4.83438e-07 -0.000242426
0.00179446 0.000123804 5.3079e-06
0.000123804 0.000292594 9.94055e-07
5.3079e-06 9.94055e-07 0.000163732
0.00519035 9.27693e-05 -0.000172016
9.27693e-05 0.00257226 -1.05019e-05
-0.000172016 -1.05019e-05 0.00257134
0.00060241 8.17627e-05 9.31267e-08
8.17627e-05 -0.000107878 1.22577e-07
9.31267e-08 1.22577e-07 -0.000173829
0.000650439 9.5095e-05 7.85211e-06
9.5095e-05 -0.000238297 2.72067e-06
7.85211e-06 2.72067e-06 -0.000354624
0.00510194 4.8408e-05 1.00015e-05
4.8408e-05 0.00253797 1.08402e-06
1.00015e-05 1.08402e-06 0.0025314
0.000573457 0.000100651 1.63771e-05
0.000100651 -0.000107632 7.68736e-06
1.63771e-05 7.68736e-06 -0.000178414
0.00481181 -5.08414e-05 0.000132543
-5.08414e-05 0.00238471 8.24002e-06
0.000132543 8.24002e-06 0.00237683
0.00171244 2.09474e-05 -2.39062e-06
2.09474e-05 0.000224784 -1.78372e-07
-2.39062e-06 -1.78372e-07 0.000106786
0.00174044 2.48807e-05 -1.27384e-07
2.48807e-05 0.000142824 9.17652e-08
-1.27384e-07 9.17652e-08 2.74842e-05
0.00169743 3.64692e-05 -5.58403e-07
3.64692e-05 6.51065e-05 1.59097e-07
-5.58403e-07 1.59097e-07 -4.05889e-05
0.000784268 -1.0293e-05 -1.28373e-05
-1.0293e-05 -0.000194447 -1.58517e-07
-1.28373e-05 -1.58517e-07 -0.000307306
0.0017232 4.04017e-06 2.03209e-06
4.04017e-06 0.000227401 -5.46369e-08
2.03209e-06 -5.46369e-08 0.000108163
0.00173486 3.24005e-06 9.41821e-07
3.24005e-06 0.000142505 9.83238e-08
9.41821e-07 9.83238e-08 2.79723e-05
0.00173336 -5.42842e-06 6.15143e-06
-5.42842e-06 0.000229151 -8.23176e-08
6.15143e-06 -8.23176e-08 0.000107894
0.000784928 -6.21673e-06 -1.92658e-06
-6.21673e-06 -0.000197477 1.47514e-07
-1.92658e-06 1.47514e-07 -0.00031227
0.000692855 -1.48337e-05 -1.69852e-05
-1.48337e-05 -9.00363e-05 7.03746e-07
-1.69852e-05 7.03746e-07 -0.000155605
0.00111702 -1.46771e-05 8.90062e-06
-1.46771e-05 -6.60066e-06 -1.24577e-06
8.90062e-06 -1.24577e-06 -0.000119383
0.000665496 2.75931e-06 1.74941e-07
2.75931e-06 -0.000101902 9.89644e-08
1.74941e-07 9.89644e-08 -0.00016728
0.0052592 -6.49011e-05 -0.000171075
-6.49011e-05 0.00260826 3.07809e-06
-0.000171075 3.07809e-06 0.00260751
0.000666519 -1.37175e-05 1.62341e-05
-1.37175e-05 -9.45467e-05 -2.29824e-06
1.62341e-05 -2.29824e-06 -0.000159204
0.00520108 1.37958e-05 4.29027e-07
1.37958e-05 0.00257252 6.91953e-07
4.29027e-07 6.91953e-07 0.00257415
0.00513426 -5.44092e-05 0.000168588
-5.44092e-05 0.00253701 -4.91099e-06
0.000168588 -4.91099e-06 0.00253818
0.00144904 2.59359e-05 -3.96537e-06
2.59359e-05 8.56317e-05 -3.1412e-07
-3.96537e-06 -3.1412e-07 -3.573e-05
0.00166052 3.95747e-05 8.08625e-08
3.95747e-05 0.000117437 -4.51949e-07
8.08625e-08 -4.51949e-07 2.04969e-06
0.00173027 6.32749e-05 -2.43803e-06
6.32749e-05 9.05752e-05 -2.46177e-07
-2.43803e-06 -2.46177e-07 -1.3998e-05
0.00112174 3.20226e-05 -1.10427e-05
3.20226e-05 -9.13274e-07 -1.52847e-06
-1.10427e-05 -1.52847e-06 -0.00010853
0.00140684 4.08243e-05 2.19565e-07
4.08243e-05 5.95222e-05 7.75429e-08
2.19565e-07 7.75429e-08 -6.3721e-05
0.00158274 4.45956e-05 7.5506e-08
4.45956e-05 7.60665e-05 -1.21197e-06
7.5506e-08 -1.21197e-06 -4.31451e-05
0.000651086 3.51647e-05 -1.57267e-05
3.51647e-05 -0.000103321 -3.48126e-06
-1.57267e-05 -3.48126e-06 -0.000166568
0.00111579 6.33331e-05 9.72008e-08
6.33331e-05 -1.05066e-06 1.82491e-07
9.72008e-08 1.82491e-07 -0.000110485
0.00138288 7.4802e-05 4.73263e-06
7.4802e-05 4.8381e-05 6.97709e-07
4.73263e-06 6.97709e-07 -7.87655e-05
0.00517923 0.00010913 -0.000183401
0.00010913 0.00256469 -9.22401e-06
-0.000183401 -9.22401e-06 0.00256345
0.000640406 5.97479e-05 1.60857e-07
5.97479e-05 -0.000100819 1.61736e-07
1.60857e-07 1.61736e-07 -0.000164741
0.00106499 8.96282e-05 8.13622e-06
8.96282e-05 -2.06349e-05 2.32049e-06
8.13622e-06 2.32049e-06 -0.000132653
0.00513575 0.000105104 5.07484e-06
0.000105104 0.00254771 1.53397e-06
5.07484e-06 1.53397e-06 0.00254445
0.000606285 7.89532e-05 1.56173e-05
7.89532e-05 -0.000105557 6.20173e-06
1.56173e-05 6.20173e-06 -0.0001715
0.00504802 6.63663e-05 0.000159204
6.63663e-05 0.00250315 1.09882e-05
0.000159204 1.09882e-05 0.00250026
0.00115438 9.37209e-06 -1.1662e-05
9.37209e-06 1.48992e-05 -6.73798e-07
-1.1662e-05 -6.73798e-07 -9.38495e-05
0.00153601 1.57217e-05 2.27761e-06
1.57217e-05 0.000125746 8.86296e-08
2.27761e-06 8.86296e-08 6.32792e-06
0.00170944 1.94464e-05 1.27039e-07
1.94464e-05 0.000127594 1.70664e-07
1.27039e-07 1.70664e-07 1.15387e-05
0.000695262 2.28264e-05 -1.73388e-05
2.28264e-05 -9.35193e-05 -3.77847e-07
-1.73388e-05 -3.77847e-07 -0.000154167
0.000775502 -4.49176e-06 -2.10671e-06
-4.49176e-06 -0.000200286 3.06731e-08
-2.10671e-06 3.06731e-08 -0.000313312
0.00174529 1.03941e-05 6.49159e-06
1.03941e-05 0.000239799 5.25532e-08
6.49159e-06 5.25532e-08 0.000120557
0.000773092 -5.75454e-06 8.43971e-06
-5.75454e-06 -0.000204673 -3.59757e-07
8.43971e-06 -3.59757e-07 -0.00031962
0.000672507 -2.91327e-07 1.36872e-07
-2.91327e-07 -0.00010156 2.93795e-07
1.36872e-07 2.93795e-07 -0.000166889
0.00531301 5.56833e-05 -0.00017991
5.56833e-05 0.00263532 -8.80588e-07
-0.00017991 -8.80588e-07 0.00263603
0.000648022 1.17411e-05 1.6091e-05
1.17411e-05 -0.000112166 -1.1889e-06
1.6091e-05 -1.1889e-06 -0.000177275
0.00527748 -6.08349e-05 -7.43067e-06
-6.08349e-05 0.00261744 1.20244e-06
-7.43067e-06 1.20244e-06 0.00261689
0.0052206 6.04389e-05 0.000158554
6.04389e-05 0.00258671 -2.07481e-06
0.000158554 -2.07481e-06 0.0025856
0.00113662 1.62597e-05 -1.15583e-05
1.62597e-05 5.92925e-06 -1.33488e-06
-1.15583e-05 -1.33488e-06 -0.000101725
0.00137228 2.50964e-05 7.49105e-08
2.50964e-05 4.15147e-05 -5.04693e-08
7.49105e-08 -5.04693e-08 -7.95747e-05
0.00163965 4.20856e-05 -5.60604e-07
4.20856e-05 0.000104695 -9.3982e-07
-5.60604e-07 -9.3982e-07 -9.2433e-06
0.00254635 2.82358e-05 -9.12255e-05
2.82358e-05 0.000963208 -2.70051e-06
-9.12255e-05 -2.70051e-06 0.00091723
0.0011303 3.42135e-05 1.49223e-07
3.42135e-05 3.37965e-06 1.76305e-07
1.49223e-07 1.76305e-07 -0.000104417
0.00137724 4.07309e-05 4.3968e-06
4.07309e-05 4.21222e-05 2.51553e-07
4.3968e-06 2.51553e-07 -8.13733e-05
0.00516107 0.000107783 -0.000186295
0.000107783 0.00255733 -7.2717e-06
-0.000186295 -7.2717e-06 0.00255452
0.000681188 4.2436e-05 4.14227e-07
4.2436e-05 -8.53998e-05 2.04275e-07
4.14227e-07 2.04275e-07 -0.000149253
0.0011182 6.51536e-05 1.12047e-05
6.51536e-05 4.55225e-07 2.40792e-06
1.12047e-05 2.40792e-06 -0.000109309
0.00517647 0.00012486 2.45498e-07
0.00012486 0.0025677 1.39422e-06
2.45498e-07 1.39422e-06 0.0025645
0.000666224 5.96983e-05 1.6042e-05
5.96983e-05 -8.59275e-05 5.0477e-06
1.6042e-05 5.0477e-06 -0.00014999
0.00508826 0.000123258 0.000170178
0.000123258 0.00252428 1.20995e-05
0.000170178 1.20995e-05 0.00251997
0.00072815 7.78237e-06 -1.60739e-05
7.78237e-06 -6.78616e-05 -1.67152e-06
-1.60739e-05 -1.67152e-06 -0.000132516
0.000962781 7.00612e-06 6.00128e-07
7.00612e-06 -9.25092e-05 2.75372e-07
6.00128e-07 2.75372e-07 -0.000202677
0.00135354 1.02815e-05 6.01676e-06
1.02815e-05 2.33241e-05 2.75412e-07
6.01676e-06 2.75412e-07 -9.74853e-05
0.00525853 -8.93792e-05 -0.000164864
-8.93792e-05 0.00261856 -1.24166e-06
-0.000164864 -1.24166e-06 0.00261075
0.000676463 8.30602e-06 -2.76298e-07
8.30602e-06 -0.000100124 2.27902e-07
-2.76298e-07 2.27902e-07 -0.000162956
0.000773325 9.94605e-07 8.5321e-06
9.94605e-07 -0.000202506 1.30406e-07
8.5321e-06 1.30406e-07 -0.000315689
0.000650809 1.73142e-05 1.64584e-05
1.73142e-05 -0.000113578 1.1662e-07
1.64584e-05 1.1662e-07 -0.0001788
0.00530509 2.32154e-05 3.09203e-06
2.32154e-05 0.00263379 5.77468e-08
3.09203e-06 5.77468e-08 0.00263207
0.00531302 3.43582e-05 0.000168834
3.43582e-05 0.00263174 -3.82696e-07
0.000168834 -3.82696e-07 0.00263349
0.00259271 -8.48015e-07 -9.08203e-05
-8.48015e-07 0.000984298 -1.9232e-06
-9.08203e-05 -1.9232e-06 0.000938306
0.00115001 1.88119e-05 -1.38508e-08
1.88119e-05 1.29634e-05 5.01145e-08
-1.38508e-08 5.01145e-08 -9.47537e-05
0.00129442 2.44564e-05 4.13157e-06
2.44564e-05 -3.16932e-06 9.25213e-08
4.13157e-06 9.25213e-08 -0.000123986
0.0048978 -6.48668e-05 -2.98516e-05
-6.48668e-05 0.0024182 -4.95619e-07
-2.98516e-05 -4.95619e-07 0.00240375
0.000695835 3.14246e-05 -4.19194e-08
3.14246e-05 -8.00201e-05 2.24264e-07
-4.19194e-08 2.24264e-07 -0.000144086
0.00115103 3.69739e-05 1.1198e-05
3.69739e-05 1.4207e-05 1.93138e-06
1.1198e-05 1.93138e-06 -9.37377e-05
0.00519654 7.0295e-05 -1.18476e-05
7.0295e-05 0.00257275 -2.48336e-07
-1.18476e-05 -2.48336e-07 0.00257262
0.0007138 5.75036e-05 1.71367e-05
5.75036e-05 -6.56285e-05 4.22492e-06
1.71367e-05 4.22492e-06 -0.000130335
0.00516345 0.000142719 0.000179001
0.000142719 0.00256501 1.18708e-05
0.000179001 1.18708e-05 0.00255974
0.0016648 -3.35605e-05 -0.000154166
-3.35605e-05 0.000567744 3.87838e-07
-0.000154166 3.87838e-07 0.000550322
0.00164632 1.77131e-05 -3.7164e-05
1.77131e-05 0.000447523 2.73084e-07
-3.7164e-05 2.73084e-07 0.000394605
0.000777605 7.23798e-06 1.13561e-05
7.23798e-06 -0.000196331 1.00686e-06
1.13561e-05 1.00686e-06 -0.000307938
0.00526244 -3.63017e-05 8.63933e-06
-3.63017e-05 0.00261677 -2.26897e-07
8.63933e-06 -2.26897e-07 0.00261221
0.000670889 -5.20476e-06 1.70194e-05
-5.20476e-06 -0.000100362 9.04434e-07
1.70194e-05 9.04434e-07 -0.000164714
0.00531317 -4.84792e-05 0.000185298
-4.84792e-05 0.00263751 -2.91329e-07
0.000185298 -2.91329e-07 0.00263698
0.00133689 -2.1737e-05 -1.33918e-05
-2.1737e-05 0.000401631 -9.06346e-07
-1.33918e-05 -9.06346e-07 0.000368085
0.00163958 1.01766e-05 -3.71845e-05
1.01766e-05 0.000448181 -1.91738e-07
-3.71845e-05 -1.91738e-07 0.000393619
0.00115013 1.9726e-05 1.132e-05
1.9726e-05 1.28949e-05 1.459e-06
1.132e-05 1.459e-06 -9.49113e-05
0.00325483 3.46704e-05 6.73409e-05
3.46704e-05 0.00147803 1.13928e-06
6.73409e-05 1.13928e-06 0.00146252
0.00070397 3.98996e-05 1.72821e-05
3.98996e-05 -7.53596e-05 3.50219e-06
1.72821e-05 3.50219e-06 -0.000139672
0.0052035 8.54168e-05 0.000170189
8.54168e-05 0.00257682 8.13883e-06
0.000170189 8.13883e-06 0.0025769
0.0052024 -2.63479e-05 -8.93605e-06
-2.63479e-05 0.00258519 -4.17967e-07
-8.93605e-06 -4.17967e-07 0.00258017
0.000688107 2.9776e-05 1.77479e-05
2.9776e-05 -9.31178e-05 1.69611e-06
1.77479e-05 1.69611e-06 -0.000153552
0.00521754 5.93402e-05 0.000169678
5.93402e-05 0.00258943 -8.69418e-07
0.000169678 -8.69418e-07 0.00258679
0.00326261 2.91866e-05 8.31535e-05
2.91866e-05 0.00148553 1.5933e-06
8.31535e-05 1.5933e-06 0.00146872
0.000705883 7.24496e-06 1.69091e-05
7.24496e-06 -7.69489e-05 2.48327e-06
1.69091e-05 2.48327e-06 -0.000140461
0.00519772 -3.92769e-05 0.000162168
-3.92769e-05 0.00257394 4.26386e-06
0.000162168 4.26386e-06 0.00257328
0.00519543 -0.000135232 0.000163423
-0.000135232 0.00258843 -9.64434e-07
0.000163423 -9.64434e-07 0.00257838
0.00518274 -3.05011e-05 0.000160629
-3.05011e-05 0.00256254 1.98492e-06
0.000160629 1.98492e-06 0.00256423
