# vtk DataFile Version 2.0
Wound Healing Simulation
ASCII
DATASET UNSTRUCTURED_GRID
POINTS 3012 float
69.9759 18.75 4
67.2507 60.3285 4
69.976 18.75 2
73.0099 25.446 4
71.1327 20.9142 4
68.6801 16.6661 4
67.8276 19.9223 3.98895
67.2507 60.3286 2
71.1327 54.0858 4
68.6801 58.3339 4
65.6939 62.2254 4
65.314 59.0058 3.99044
74.6784 42.3946 4
73.7221 47.2057 4
69.9759 18.75 0
73.0099 25.446 2
68.6801 16.6661 2
71.1327 20.9142 2
67.8279 19.9227 2
74.6792 32.6053 4
73.7222 27.7943 4
72.1454 23.1494 4
70.6166 26.2216 3.98789
68.8881 21.9559 3.98857
67.2507 14.6715 4
66.6389 17.967 3.9897
65.8043 21.018 3.98483
67.2507 60.3285 0
71.1327 54.0858 2
68.6801 58.3339 2
65.694 62.2255 2
65.3141 59.0059 2
72.1454 51.8506 4
69.9759 56.25 4
68.8391 53.1148 3.98857
64.0165 64.0165 4
66.6127 57.138 3.98991
63.8873 60.7702 3.99135
63.5059 57.7818 3.98591
60.3285 67.2507 4
74.6792 42.3947 2
73.7222 47.2057 2
74.9194 39.9526 4
74.2788 44.8158 4
72.1699 42.0852 3.98696
73.0099 49.554 4
71.2517 46.597 3.98797
73.0099 25.446 0
71.1327 20.9142 0
68.6801 16.6661 0
67.8276 19.9223 0.0110454
74.6792 32.6053 2
73.7222 27.7943 2
67.2508 14.6715 2
72.1455 23.1494 2
70.6167 26.2227 2
66.6391 17.9671 2
68.8884 21.9567 2
65.8045 21.0177 2
74.9197 35.0474 4
74.2794 30.1841 4
72.1865 32.9434 3.98726
71.2804 28.4322 3.98779
69.8181 24.0592 3.98825
68.3537 26.9497 3.9821
66.7701 22.9281 3.98421
65.694 12.7746 4
65.3253 16.0983 3.99067
64.7203 19.1852 3.98558
63.8991 22.0235 3.98257
71.1327 54.0858 0
65.6939 62.2254 0
68.6801 58.3339 0
65.314 59.0058 0.00956055
72.1455 51.8506 2
69.9759 56.25 2
68.8394 53.1141 2
64.0165 64.0165 2
66.6129 57.138 2
63.8874 60.7702 2
63.506 57.7821 2
62.2254 65.694 4
58.8941 65.4168 3.99253
69.7718 50.989 3.9882
67.7861 55.1706 3.9893
66.6578 52.2139 3.98427
62.3372 62.4309 3.99202
64.6678 56.0403 3.98604
62.2068 59.415 3.98614
61.8325 56.6958 3.98398
58.3339 68.6801 4
60.3285 67.2508 2
73.7221 47.2057 0
74.6784 42.3946 0
74.9197 39.9526 2
74.2794 44.8159 2
72.1698 42.085 2
73.0099 49.554 2
71.2517 46.5963 2
75 37.5 4
72.4068 39.802 3.98625
71.7846 44.3521 3.98762
69.8096 41.7893 3.98071
70.5778 48.8127 3.98809
68.9193 46.0153 3.98156
74.6792 32.6053 0
73.7222 27.7943 0
67.2507 14.6715 0
72.1454 23.1494 0
70.6166 26.2216 0.0121075
68.8881 21.9559 0.0114322
66.6389 17.967 0.0103027
65.8043 21.018 0.0151672
74.9197 35.0474 2
74.2794 30.1841 2
72.1865 32.9437 2
71.2804 28.4331 2
65.694 12.7745 2
65.3254 16.0983 2
69.8183 24.0602 2
68.3536 26.9497 2
64.7205 19.1849 2
66.7702 22.9279 2
63.8992 22.0233 2
72.4147 35.2241 3.98637
71.8059 30.6768 3.98777
69.8456 33.2683 3.98102
68.9726 29.0373 3.98141
67.6187 24.9087 3.98326
66.2058 27.6298 3.9798
64.0165 10.9835 4
64.7691 23.8207 3.98203
63.8913 14.3227 3.99145
63.5183 17.4357 3.98632
62.9179 20.3061 3.98314
62.1092 22.9275 3.98147
60.6845 11.0944 3.99219
57.6129 11.4387 3.98734
72.1454 51.8506 0
69.9759 56.25 0
68.8391 53.1148 0.0114275
64.0165 64.0165 0
63.8873 60.7702 0.00864555
66.6127 57.138 0.0100924
63.5059 57.7818 0.0140914
62.2255 65.694 2
58.8943 65.4169 2
69.772 50.9881 2
67.7864 55.1703 2
66.658 52.2141 2
62.3373 62.431 2
64.6679 56.0406 2
62.2068 59.4153 2
61.8326 56.6961 2
60.6691 63.9801 3.99228
57.0246 66.7373 3.99285
57.5581 63.6982 3.98746
67.5156 50.1796 3.98323
65.71 54.1801 3.98539
64.5514 51.3943 3.98167
60.7755 60.9476 3.98675
62.8318 55.0814 3.98429
60.6653 58.1742 3.98394
60.3404 55.8039 3.98318
56.25 69.9759 4
58.3339 68.6801 2
60.3285 67.2507 0
58.9214 9.65284 3.99254
62.2254 9.30607 4
73.0099 49.554 0
74.2788 44.8158 0
71.2517 46.597 0.0120335
72.1699 42.0852 0.0130361
74.9194 39.9526 0
75 37.5 2
72.4067 39.8021 2
71.7845 44.3517 2
69.8095 41.7892 2
70.5779 48.8118 2
68.9192 46.0151 2
72.4901 37.512 3.9859
70.0458 39.657 3.97978
69.4367 43.9074 3.98123
67.6068 41.4987 3.97812
68.2736 48.1087 3.98231
66.7213 45.4429 3.97933
74.9197 35.0474 0
74.2794 30.1841 0
72.1865 32.9434 0.0127401
71.2804 28.4322 0.012214
65.694 12.7746 0
65.3253 16.0983 0.00932628
69.8181 24.0592 0.0117453
68.3537 26.9497 0.0179037
66.7701 22.9281 0.0157934
64.7203 19.1852 0.0144206
63.8991 22.0235 0.0174335
72.4146 35.2243 2
71.8058 30.6773 2
69.8455 33.2684 2
68.9725 29.0375 2
64.0165 10.9835 2
63.8914 14.3227 2
63.5185 17.4354 2
67.6187 24.9086 2
66.2056 27.6296 2
62.9181 20.306 2
64.7691 23.8204 2
62.1092 22.9274 2
60.6846 11.0944 2
57.6129 11.4384 2
70.0627 35.3919 3.98035
69.4733 31.1492 3.98132
67.665 33.5893 3.9784
66.7829 29.6194 3.979
65.5362 25.6923 3.98098
64.1616 28.2474 3.97906
62.3425 12.6513 3.9919
62.8739 24.6239 3.98116
62.2022 15.7737 3.98657
61.8224 18.6692 3.98408
61.2323 21.3238 3.98156
60.4458 23.7085 3.98128
59.2474 12.7695 3.98679
55.8745 10.2256 3.98839
56.4067 13.1011 3.98447
69.7718 50.989 0.0118021
62.2254 65.694 0
58.8941 65.4168 0.0074722
67.7861 55.1706 0.0107046
66.6578 52.2139 0.0157346
62.3372 62.4309 0.00797558
62.2068 59.415 0.0138552
64.6678 56.0403 0.01396
61.8325 56.6958 0.0160186
60.6693 63.9801 2
57.0247 66.7374 2
57.5581 63.6987 2
67.5157 50.1797 2
65.7102 54.1804 2
64.5516 51.3946 2
60.7755 60.9481 2
62.832 55.0817 2
60.6654 58.1745 2
60.3406 55.8041 2
55.07 67.934 3.99318
59.2205 62.3744 3.98699
55.804 64.915 3.98822
56.3283 62.099 3.98469
65.3452 49.4149 3.98068
63.7194 53.3039 3.98315
62.4605 50.6648 3.98035
59.3378 59.5702 3.98466
61.0924 54.3262 3.98352
59.2986 57.0305 3.98245
59.2566 55.2031 3.9834
48.1022 68.5818 3.99001
50.9479 69.9333 3.9937
54.0858 71.1327 4
56.25 69.976 2
58.3339 68.6801 0
57.0585 8.33284 3.993
60.3285 7.74928 4
58.9216 9.65278 2
62.2255 9.30602 2
70.5778 48.8127 0.0119085
71.7846 44.3521 0.0123765
68.9193 46.0153 0.018439
69.8096 41.7893 0.0192921
72.4068 39.802 0.0137518
75 37.5 0
72.49 37.5121 2
70.0457 39.6569 2
69.4366 43.9072 2
67.6067 41.4987 2
68.2735 48.1086 2
66.7212 45.443 2
70.1336 37.5214 3.97951
67.8425 39.5127 3.97721
67.2342 43.4719 3.9788
65.5692 41.2125 3.97735
66.0813 47.4226 3.97998
64.6679 44.8539 3.97854
72.4147 35.2241 0.0136299
71.8059 30.6768 0.0122326
69.8456 33.2683 0.0189756
68.9726 29.0373 0.0185893
64.0165 10.9835 0
63.8913 14.3227 0.0085524
63.5183 17.4357 0.0136828
67.6187 24.9087 0.016735
66.2058 27.6298 0.0201982
64.7691 23.8207 0.0179698
62.9179 20.3061 0.0168622
62.1092 22.9275 0.0185275
60.6845 11.0944 0.00780544
57.6129 11.4387 0.0126592
70.0627 35.392 2
69.4731 31.1493 2
67.6649 33.5891 2
66.7826 29.6192 2
62.3426 12.6513 2
62.2023 15.7734 2
61.8226 18.669 2
65.5362 25.6921 2
64.1614 28.2472 2
61.2325 21.3237 2
62.8739 24.6238 2
60.4457 23.7086 2
59.2474 12.7691 2
56.4067 13.1007 2
55.8745 10.2252 2
67.8791 35.5467 3.97787
67.2757 31.6198 3.97891
65.711 33.9242 3.97743
64.6775 30.1859 3.9779
63.5546 26.4035 3.98009
62.2764 28.7666 3.97946
60.7772 14.2134 3.9866
61.0661 25.3211 3.98105
60.6184 17.113 3.98472
60.2341 19.7976 3.98265
59.679 22.2378 3.98047
59.0013 24.2991 3.98168
54.0374 9.12921 3.98918
57.9126 14.319 3.98463
54.7875 12.0007 3.98503
55.3148 14.6318 3.98335
67.5156 50.1796 0.0167689
57.0246 66.7373 0.00714584
60.6691 63.9801 0.00771725
57.5581 63.6982 0.0125399
65.71 54.1801 0.0146115
64.5514 51.3943 0.0183287
60.7755 60.9476 0.0132543
60.6653 58.1742 0.0160588
62.8318 55.0814 0.0157108
60.3404 55.8039 0.0168176
55.0702 67.9342 2
59.2206 62.3749 2
55.804 64.9154 2
56.3283 62.0994 2
65.3452 49.4152 2
63.7196 53.3042 2
62.4606 50.6651 2
59.3379 59.5707 2
61.0926 54.3265 2
59.2987 57.0308 2
59.2568 55.2033 2
53.0419 69.0017 3.99348
53.966 66.0169 3.98887
57.8835 60.8812 3.98474
54.684 63.2141 3.9852
55.214 60.6266 3.98343
63.2126 48.6712 3.97957
61.7595 52.5905 3.98202
60.2971 50.0354 3.97967
58.0245 58.2768 3.98327
59.3447 53.9671 3.98273
58.1385 55.8332 3.98102
50.1086 67.8599 3.98973
47.4623 66.586 3.98757
46.056 69.1613 3.99025
48.1023 68.5822 2
48.8022 70.7244 3.99391
50.9481 69.9334 2
51.8506 72.1454 4
54.0858 71.1327 2
56.25 69.9759 0
55.1027 7.1375 3.99335
58.3339 6.31992 4
57.0586 8.33274 2
60.3286 7.74926 2
58.9214 9.65284 0.00745755
62.2254 9.30607 0
68.2736 48.1087 0.0176934
69.4367 43.9074 0.0187659
66.7213 45.4429 0.0206693
67.6068 41.4987 0.0218787
70.0458 39.657 0.0202176
72.4901 37.512 0.0141028
70.1335 37.5213 2
67.8425 39.5126 2
67.2341 43.472 2
65.569 41.2125 2
66.0812 47.4228 2
64.6678 44.8541 2
67.9384 37.5218 3.97672
65.7993 39.3715 3.97655
65.1905 43.0294 3.9779
63.7724 40.9337 3.97737
63.9826 46.7243 3.97901
62.8267 44.2241 3.97911
70.0627 35.3919 0.019655
69.4733 31.1492 0.0186783
67.665 33.5893 0.0216023
66.7829 29.6194 0.0210002
62.3425 12.6513 0.00810079
62.2022 15.7737 0.0134339
61.8224 18.6692 0.0159201
65.5362 25.6923 0.0190208
64.1616 28.2474 0.0209445
62.8739 24.6239 0.018838
61.2323 21.3238 0.018439
60.4458 23.7085 0.0187238
59.2474 12.7695 0.0132058
56.4067 13.1011 0.0155292
55.8745 10.2256 0.0116113
67.879 35.5465 2
67.2754 31.6197 2
65.7108 33.9239 2
64.6771 30.1857 2
60.7772 14.213 2
60.6185 17.1126 2
60.2343 19.7975 2
63.5545 26.4034 2
62.276 28.7665 2
59.6791 22.2379 2
61.066 25.321 2
59.0012 24.2993 2
57.9126 14.3187 2
55.3148 14.6315 2
54.0374 9.12878 2
54.7875 12.0003 2
65.8887 35.6652 3.97695
65.2004 32.1495 3.9777
64.3002 34.2462 3.97698
62.6134 30.6268 3.97788
61.6718 27.0583 3.97984
60.8725 29.127 3.98119
59.314 15.6553 3.98477
59.3557 25.7771 3.98228
59.131 18.3379 3.9838
58.7541 20.8329 3.98119
58.3052 23.0698 3.97954
57.9928 24.6426 3.98254
52.1121 8.148 3.98969
53.0582 11.0072 3.98599
56.6796 15.7272 3.98388
53.811 13.6674 3.98324
54.3791 15.9827 3.98324
55.07 67.934 0.00682167
65.3452 49.4149 0.0193185
55.804 64.915 0.0117814
59.2205 62.3744 0.0130087
56.3283 62.099 0.0153143
63.7194 53.3039 0.0168453
62.4605 50.6648 0.0196525
59.3378 59.5702 0.0153354
59.2986 57.0305 0.0175479
61.0924 54.3262 0.0164849
59.2566 55.2031 0.016603
53.0421 69.0018 2
53.966 66.0173 2
57.8836 60.8817 2
54.684 63.2146 2
55.214 60.627 2
63.2126 48.6715 2
61.7597 52.5907 2
60.2971 50.0355 2
58.0247 58.2772 2
59.345 53.9672 2
58.1388 55.8334 2
52.0695 67.0032 3.98939
52.9527 64.2241 3.98586
56.6525 59.5019 3.98377
53.6822 61.6306 3.98378
54.2636 59.3332 3.98275
61.017 47.8941 3.97886
59.7316 52.1237 3.98172
58.0533 49.6361 3.98027
56.785 57.0062 3.98138
57.1379 54.1445 3.98065
50.1087 67.8603 2
49.336 65.9261 3.98712
47.4624 66.5865 2
46.8914 64.7427 3.98571
45.5576 67.1035 3.98776
43.9732 69.5939 3.99048
46.0561 69.1617 2
46.609 71.3689 3.99412
48.1022 68.5818 0.00998798
48.8024 70.7246 2
49.554 73.0099 4
50.9479 69.9333 0.00629564
51.8506 72.1455 2
54.0858 71.1327 0
53.0638 6.06913 3.99362
55.1029 7.13737 2
56.25 5.02411 4
58.3339 6.3199 2
57.0585 8.33284 0.00699566
60.3285 7.74928 0
66.0813 47.4226 0.0200165
67.2342 43.4719 0.021202
64.6679 44.8539 0.0214558
65.5692 41.2125 0.0226477
67.8425 39.5127 0.0227893
70.1336 37.5214 0.0204885
67.9382 37.5216 2
65.7992 39.3714 2
65.1903 43.0295 2
63.7723 40.9337 2
63.9826 46.7246 2
62.8265 44.2242 2
65.9015 37.5016 3.97571
63.9153 39.2689 3.9765
63.3471 42.556 3.97782
62.4514 40.7027 3.97707
61.989 45.9294 3.97896
61.4745 43.6928 3.98072
67.8791 35.5467 0.0221307
67.2757 31.6198 0.0210885
65.711 33.9242 0.0225702
64.6775 30.1859 0.0221012
60.7772 14.2134 0.0133978
60.6184 17.113 0.0152777
60.2341 19.7976 0.0173461
63.5546 26.4035 0.019907
62.2764 28.7666 0.0205359
61.0661 25.3211 0.0189489
59.679 22.2378 0.0195283
59.0013 24.2991 0.018323
57.9126 14.319 0.0153663
55.3148 14.6318 0.0166496
54.0374 9.12921 0.010817
54.7875 12.0007 0.0149669
65.8885 35.665 2
65.2001 32.1492 2
64.3 34.2459 2
62.613 30.6265 2
59.3141 15.6549 2
59.1313 18.3376 2
58.7544 20.8329 2
61.6715 27.0582 2
60.872 29.1269 2
58.3052 23.0701 2
59.3555 25.7773 2
57.9927 24.6429 2
56.6796 15.727 2
54.3792 15.9825 2
53.811 13.6671 2
52.1121 8.14755 2
53.0581 11.0067 2
64.1066 35.6303 3.97645
62.9495 33.0401 3.97672
60.6378 30.5998 3.97829
59.5976 27.8935 3.9808
57.9437 16.9673 3.9841
57.7671 25.7043 3.98371
57.724 19.4564 3.98274
57.3871 21.8177 3.97933
57.209 23.9242 3.97946
50.1122 7.28036 3.98997
51.2324 10.1159 3.98672
52.1729 12.7848 3.9842
55.541 16.9556 3.98375
52.9798 15.2488 3.98203
53.7614 16.9641 3.98346
53.0419 69.0017 0.00651855
53.966 66.0169 0.0111287
63.2126 48.6712 0.0204274
54.684 63.2141 0.0147972
57.8835 60.8812 0.0152639
55.214 60.6266 0.0165654
61.7595 52.5905 0.0179773
60.2971 50.0354 0.0203306
58.0245 58.2768 0.0167281
58.1385 55.8332 0.0189778
59.3447 53.9671 0.0172694
52.0696 67.0035 2
52.9527 64.2245 2
56.6526 59.5023 2
53.6822 61.631 2
54.2637 59.3337 2
61.0169 47.8942 2
59.7318 52.1238 2
58.0532 49.6361 2
56.7853 57.0066 2
57.1382 54.1445 2
51.167 65.133 3.98652
52.0462 62.5453 3.98415
55.4857 58.2644 3.9833
52.8367 60.1449 3.98295
53.6443 58.484 3.98278
58.3366 46.8645 3.98124
57.5847 51.8077 3.9804
56.2778 49.5744 3.98228
55.4823 55.814 3.97983
55.3762 53.405 3.97761
50.1086 67.8599 0.0102662
49.336 65.9266 2
48.6173 64.1287 3.98529
47.4623 66.586 0.0124335
45.5576 67.104 2
46.8914 64.7431 2
46.381 63.0608 3.98432
45.1316 65.2044 3.98601
43.6309 67.4747 3.98794
41.8606 69.8815 3.99056
43.9733 69.5944 2
44.3765 71.8638 3.99427
46.056 69.1613 0.00975311
46.6091 71.3691 2
47.2057 73.7222 4
48.8022 70.7244 0.00608784
49.554 73.0099 2
51.8506 72.1454 0
50.9535 5.12968 3.99379
53.064 6.06896 2
54.0858 3.86728 4
55.1027 7.1375 0.00665323
56.25 5.02406 2
58.3339 6.31992 0
63.9826 46.7243 0.0209916
65.1905 43.0294 0.0220983
62.8267 44.2241 0.0208929
63.7724 40.9337 0.022634
65.7993 39.3715 0.023452
67.9384 37.5218 0.0232795
65.9012 37.5014 2
63.9152 39.2688 2
63.347 42.556 2
62.4513 40.7027 2
61.989 45.9295 2
61.4744 43.6929 2
63.9747 37.457 3.97572
62.1789 39.3581 3.97676
61.2421 41.9664 3.97805
60.2764 44.7817 3.98113
65.8887 35.6652 0.0230499
65.2004 32.1495 0.0222999
64.3002 34.2462 0.023024
62.6134 30.6268 0.0221246
59.314 15.6553 0.0152335
59.131 18.3379 0.0162045
58.7541 20.8329 0.0188147
61.6718 27.0583 0.0201551
60.8725 29.127 0.018811
59.3557 25.7771 0.017725
58.3052 23.0698 0.0204607
57.9928 24.6426 0.0174605
56.6796 15.7272 0.0161155
54.3791 15.9827 0.0167576
53.811 13.6674 0.016757
52.1121 8.148 0.0103058
53.0582 11.0072 0.0140118
64.1064 35.63 2
62.9491 33.0398 2
60.6372 30.5995 2
57.9439 16.9669 2
57.7244 19.4561 2
57.3873 21.8179 2
59.5971 27.8935 2
57.2089 23.9246 2
57.7668 25.7046 2
50.1123 7.27993 2
55.5411 16.9553 2
53.7615 16.9638 2
52.9798 15.2485 2
52.1729 12.7843 2
51.2324 10.1154 2
62.2115 35.3561 3.97604
60.317 32.7367 3.97614
58.651 30.0595 3.97895
57.3232 27.3597 3.98309
56.6412 18.1384 3.98379
56.3199 25.0796 3.98063
56.3681 20.5009 3.98093
56.128 22.8459 3.97667
48.0561 6.52369 3.99019
49.3242 9.32426 3.98739
50.4334 11.9833 3.98465
51.3794 14.4845 3.98247
54.419 17.9039 3.98345
52.364 17.0206 3.98218
52.0695 67.0032 0.0106073
52.9527 64.2241 0.0141406
61.017 47.8941 0.0211379
53.6822 61.6306 0.0162183
56.6525 59.5019 0.0162295
54.2636 59.3332 0.0172506
59.7316 52.1237 0.0182785
58.0533 49.6361 0.0197277
56.785 57.0062 0.0186166
57.1379 54.1445 0.0193505
51.1669 65.1335 2
52.0461 62.5458 2
55.4859 58.265 2
52.8366 60.1454 2
53.6444 58.4845 2
58.3365 46.8646 2
57.5848 51.8078 2
56.2777 49.5744 2
55.4826 55.8143 2
55.3764 53.4051 2
50.3457 63.3868 3.98469
51.245 60.9429 3.98274
54.2255 57.2796 3.98229
52.316 58.6453 3.98209
56.7564 44.1999 3.98127
55.5292 47.9149 3.98153
55.0958 51.4106 3.97781
54.0179 54.5664 3.97741
49.336 65.9261 0.0128785
48.6172 64.1292 2
47.9615 62.4815 3.98393
45.5576 67.1035 0.0122368
46.8914 64.7427 0.0142867
43.6309 67.4752 2
46.3809 63.0612 2
45.1316 65.2049 2
45.9867 61.5937 3.98314
44.7661 63.4622 3.98476
43.3556 65.5145 3.98605
41.6631 67.694 3.98808
39.7023 70.0288 3.99054
41.8606 69.882 2
42.111 72.2086 3.99425
43.9732 69.5939 0.00951686
44.3766 71.864 2
44.8159 74.2794 4
46.609 71.3689 0.00588384
47.2057 73.7222 2
49.554 73.0099 0
48.7841 4.3208 3.99399
50.9537 5.12949 2
51.8506 2.85458 4
53.0638 6.06913 0.00637881
54.0858 3.86728 2
56.25 5.02411 0
61.989 45.9294 0.0210407
63.3471 42.556 0.0221751
61.4745 43.6928 0.0192791
62.4514 40.7027 0.0229323
63.9153 39.2689 0.0235045
65.9015 37.5016 0.024289
63.9744 37.4568 2
62.1788 39.3579 2
61.2419 41.9664 2
60.2763 44.7818 2
62.0168 37.4446 3.97618
60.2776 39.8528 3.97703
59.0268 42.9299 3.97928
64.1066 35.6303 0.0235548
62.9495 33.0401 0.0232824
60.6378 30.5998 0.0217118
57.9437 16.9673 0.0159037
57.724 19.4564 0.0172606
57.3871 21.8177 0.0206739
59.5976 27.8935 0.0192045
57.7671 25.7043 0.0162925
57.209 23.9242 0.0205428
55.541 16.9556 0.0162538
53.7614 16.9641 0.0165439
52.9798 15.2488 0.0179705
50.1122 7.28036 0.0100336
52.1729 12.7848 0.0158011
51.2324 10.1159 0.0132753
62.2112 35.3558 2
60.3165 32.7364 2
58.6502 30.0593 2
56.6415 18.138 2
56.3686 20.5007 2
56.1281 22.8464 2
57.3226 27.3599 2
56.3196 25.0803 2
48.0561 6.52332 2
49.3242 9.32379 2
54.4192 17.9036 2
52.3641 17.0203 2
51.3794 14.4839 2
50.4334 11.9828 2
59.9248 35.1152 3.9761
58.0289 32.2569 3.97653
56.5814 29.3181 3.97998
55.482 26.5773 3.98402
55.3482 19.1719 3.98317
54.9537 24.0334 3.97547
55.0149 21.5411 3.97946
45.962 5.87892 3.99045
43.3734 7.46791 3.98849
47.3547 8.61835 3.9877
48.5999 11.285 3.98536
49.7149 13.7318 3.98337
50.6357 16.1187 3.98101
53.1292 18.6437 3.98241
51.3062 18.0341 3.98338
51.167 65.133 0.0134844
52.0462 62.5453 0.0158509
58.3366 46.8645 0.0187646
52.8367 60.1449 0.0170544
55.4857 58.2644 0.0166979
53.6443 58.484 0.017223
57.5847 51.8077 0.019602
56.2778 49.5744 0.0177218
55.4823 55.814 0.0201702
55.3762 53.405 0.0223851
50.3456 63.3872 2
51.245 60.9434 2
54.2258 57.2802 2
52.3161 58.6459 2
56.7563 44.1999 2
55.529 47.9149 2
55.0959 51.4105 2
54.0183 54.5667 2
49.5917 61.7511 3.98335
55.6909 41.7211 3.97775
50.5689 59.3368 3.98134
52.1917 56.5033 3.98046
54.2332 45.5823 3.98264
53.3787 49.3485 3.97871
52.6884 52.873 3.97618
48.6173 64.1287 0.0147134
47.9613 62.4819 2
47.3291 61.0163 3.98277
43.6309 67.4747 0.0120643
45.1316 65.2044 0.0139884
46.381 63.0608 0.0156814
41.6631 67.6946 2
43.3556 65.515 2
45.9866 61.594 2
44.766 63.4627 2
45.7659 60.6378 3.98225
44.4823 61.8435 3.98343
43.1453 63.735 3.98475
41.5452 65.6528 3.98636
39.6323 67.7741 3.98817
37.5259 70.0542 3.99057
39.7023 70.0292 2
39.8178 72.4057 3.99416
41.8606 69.8815 0.00944072
42.1111 72.2089 2
42.3947 74.6792 4
44.3765 71.8638 0.00573005
44.8159 74.2794 2
47.2057 73.7222 0
43.8515 5.35601 3.9907
46.5702 3.64546 3.99418
48.7842 4.32062 2
49.554 1.99015 4
50.9535 5.12968 0.00621297
51.8506 2.85453 2
54.0858 3.86728 0
60.2764 44.7817 0.0188654
61.2421 41.9664 0.0219507
62.1789 39.3581 0.023245
63.9747 37.457 0.0242812
62.0164 37.4445 2
60.2775 39.8525 2
59.0267 42.9299 2
59.7964 37.5675 3.9772
58.0423 40.6662 3.9772
55.1735 39.7295 3.97692
62.2115 35.3561 0.0239586
60.317 32.7367 0.0238562
58.651 30.0595 0.0210509
56.6412 18.1384 0.0162071
56.3681 20.5009 0.0190667
56.128 22.8459 0.023333
57.3232 27.3597 0.0169118
56.3199 25.0796 0.0193651
54.419 17.9039 0.016555
52.364 17.0206 0.0178181
51.3794 14.4845 0.0175319
48.0561 6.52369 0.00981124
49.3242 9.32426 0.0126114
50.4334 11.9833 0.01535
59.9245 35.115 2
45.9621 5.87855 2
43.3735 7.46755 2
58.0282 32.2567 2
56.5805 29.318 2
55.3487 19.1715 2
55.0155 21.5411 2
54.9536 24.0343 2
55.4814 26.5781 2
47.3546 8.61797 2
48.5999 11.2845 2
53.1295 18.6434 2
51.3063 18.0336 2
50.6357 16.1181 2
49.7148 13.7313 2
57.4415 34.7535 3.97697
55.7716 31.4996 3.97689
54.5553 28.38 3.98571
53.8033 25.4752 3.9786
53.976 20.119 3.98308
53.5981 22.6855 3.97504
41.3986 7.07311 3.98864
45.3594 7.98987 3.98809
42.8651 9.40847 3.9868
46.6661 10.646 3.98575
47.7456 13.0922 3.98359
48.9329 15.3891 3.98235
50.0087 17.6878 3.97941
51.6574 19.3119 3.98474
50.3457 63.3868 0.0153071
51.245 60.9429 0.0172604
56.7564 44.1999 0.0187289
55.5292 47.9149 0.0184673
52.316 58.6453 0.0179149
54.2255 57.2796 0.0177052
55.0958 51.4106 0.0221943
54.0179 54.5664 0.0225934
49.5916 61.7515 2
55.6911 41.72 2
50.5689 59.3373 2
52.1921 56.504 2
54.2331 45.5825 2
53.3785 49.3479 2
52.6888 52.872 2
48.8496 60.2088 3.9823
52.6004 42.6594 3.9763
49.7929 57.6369 3.98113
50.6075 54.4386 3.97738
51.8742 47.2875 3.98018
51.2465 50.9663 3.97419
48.2868 43.7504 3.97705
47.9615 62.4815 0.0160716
47.329 61.0167 2
46.619 59.8027 3.98213
41.6631 67.694 0.0119236
43.3556 65.5145 0.0139478
44.7661 63.4622 0.0152431
45.9867 61.5937 0.0168571
39.6324 67.7746 2
41.5452 65.6533 2
45.7658 60.6381 2
43.1452 63.7355 2
44.4822 61.844 2
44.6231 60.3003 3.98236
42.9495 62.0926 3.98398
41.5987 63.8291 3.98486
39.6469 65.6218 3.98661
37.563 67.7569 3.98805
31.6974 65.1406 3.98649
33.3921 67.4945 3.98808
35.3333 69.9643 3.99056
37.5259 70.0547 2
37.5096 72.4603 3.99418
39.7023 70.0288 0.00946269
39.8179 72.406 2
39.9526 74.9197 4
42.111 72.2086 0.00575244
42.3947 74.6792 2
44.8159 74.2794 0
41.7361 4.96511 3.99094
43.8515 5.35565 2
44.3255 3.1088 3.99432
46.5703 3.64526 2
47.2057 1.27793 4
48.7841 4.3208 0.0060083
49.554 1.99013 2
51.8506 2.85458 0
59.0268 42.9299 0.020717
60.2776 39.8528 0.022969
62.0168 37.4446 0.0238157
59.7959 37.5673 2
58.0423 40.6658 2
55.1727 39.7288 2
56.8806 37.8986 3.97888
49.7459 41.3129 3.97712
53.2172 39.3152 3.97896
39.4419 6.79665 3.98887
59.9248 35.1152 0.0238959
58.0289 32.2569 0.023468
56.5814 29.3181 0.0200224
55.3482 19.1719 0.01683
55.0149 21.5411 0.0205441
54.9537 24.0334 0.024526
55.482 26.5773 0.0159814
53.1292 18.6437 0.0175897
51.3062 18.0341 0.0166203
50.6357 16.1187 0.0189867
45.962 5.87892 0.00954617
49.7149 13.7318 0.0166304
47.3547 8.61835 0.0122993
48.5999 11.285 0.0146417
43.3734 7.46791 0.011507
57.4411 34.7535 2
41.3986 7.07266 2
45.3594 7.98953 2
42.8651 9.40814 2
55.7706 31.4993 2
54.5541 28.3807 2
53.9766 20.1187 2
53.5986 22.6856 2
53.8029 25.4766 2
46.666 10.6458 2
47.7454 13.0918 2
51.6575 19.3114 2
50.0088 17.6872 2
48.9329 15.3887 2
54.9488 33.9579 3.97795
53.5508 30.4595 3.98041
52.6331 27.1779 3.98225
52.1687 24.066 3.97568
52.4012 21.0516 3.9808
41.0132 9.04171 3.98699
44.7232 9.98874 3.98631
42.4678 10.8943 3.98518
46.005 12.7202 3.98425
47.6824 14.5738 3.98295
48.1154 16.9762 3.98078
49.8214 19.5862 3.97805
49.5917 61.7511 0.0166536
50.5689 59.3368 0.0186637
55.6909 41.7211 0.0222529
54.2332 45.5823 0.0173577
53.3787 49.3485 0.0212873
52.1917 56.5033 0.0195382
52.6884 52.873 0.0238207
48.8495 60.2093 2
52.6011 42.6584 2
49.793 57.6373 2
50.6079 54.4397 2
51.8736 47.2873 2
51.2465 50.9644 2
48.2785 43.7524 2
47.9884 58.7509 3.98155
50.1909 45.2868 3.979
48.6048 55.9284 3.98133
49.1502 52.616 3.97803
49.718 49.0658 3.97401
46.1617 39.8952 3.91688
46.5412 42.7323 3.9729
46.5971 45.7786 3.98364
44.004 41.2204 3.95825
42.1099 41.9877 3.95364
47.3291 61.0163 0.0172278
46.6189 59.803 2
45.4689 58.799 3.98139
39.6323 67.7741 0.0118284
41.5452 65.6528 0.0136401
43.1453 63.735 0.0152492
44.4823 61.8435 0.0165686
45.7659 60.6378 0.0177477
41.5986 63.8295 2
37.5631 67.7574 2
39.6469 65.6223 2
44.623 60.3007 2
42.9494 62.093 2
41.7524 62.504 3.98425
42.4806 59.9928 3.98284
39.8923 63.5649 3.98478
37.6418 65.5211 3.98632
35.4632 67.6663 3.98813
33.5755 65.3543 3.98647
31.9597 63.3136 3.98499
29.8836 64.7312 3.98627
31.6975 65.1411 2
31.3768 67.204 3.9881
33.3921 67.495 2
33.1561 69.7577 3.99055
35.3332 69.9648 2
35.195 72.3748 3.99416
37.5259 70.0542 0.00942797
37.5096 72.4606 2
37.5 75 4
39.8178 72.4057 0.00583812
39.9526 74.9197 2
42.3947 74.6792 0
39.6237 4.71232 3.99103
41.7361 4.9647 2
42.062 2.71643 3.9945
43.8515 5.35601 0.00930038
44.3256 3.10858 2
44.8158 0.721173 4
46.5702 3.64546 0.00581916
47.2057 1.27779 2
49.554 1.99015 0
58.0423 40.6662 0.0227973
59.7964 37.5675 0.0227962
55.1735 39.7295 0.0230802
49.7447 41.3133 2
56.8798 37.8985 2
53.2158 39.3141 2
54.0728 36.6225 3.97675
47.6741 40.4455 3.99001
50.7083 38.4931 3.97897
37.5158 6.66773 3.98887
39.4419 6.79619 2
39.2108 8.68422 3.98722
35.9413 8.48413 3.98729
57.4415 34.7535 0.0230281
55.7716 31.4996 0.0231109
54.5553 28.38 0.0142912
53.976 20.119 0.0169209
53.5981 22.6855 0.024963
53.8033 25.4752 0.0214012
51.6574 19.3119 0.0152646
50.0087 17.6878 0.0205946
48.9329 15.3891 0.0176535
45.3594 7.98987 0.0119074
47.7456 13.0922 0.0164057
46.6661 10.646 0.0142544
41.3986 7.07311 0.0113554
42.8651 9.40847 0.0131979
54.9483 33.9577 2
41.0132 9.04122 2
44.7232 9.98848 2
42.4677 10.894 2
53.5492 30.4581 2
52.6322 27.1805 2
52.4018 21.0507 2
52.1689 24.0678 2
46.0048 12.72 2
47.6823 14.5734 2
49.8215 19.5859 2
48.1154 16.9758 2
52.4974 32.8531 3.9788
51.4019 29.1342 3.98115
50.828 25.7035 3.97234
49.9504 22.1646 3.97923
40.5686 11.5976 3.98464
43.8576 11.9093 3.98468
45.8034 15.409 3.98265
47.5071 19.2091 3.9793
46.495 37.4993 3.91595
48.8496 60.2088 0.0176996
49.7929 57.6369 0.0188693
52.6004 42.6594 0.0237034
51.8742 47.2875 0.0198211
51.2465 50.9663 0.0258093
50.6075 54.4386 0.0226221
48.2868 43.7504 0.0229476
47.9884 58.7513 2
50.1907 45.2888 2
48.6048 55.929 2
49.1504 52.6173 2
49.7169 49.0637 2
46.1677 39.8983 2
46.5462 42.7351 2
46.5907 45.7803 2
44.0107 41.2223 2
42.1188 41.9916 2
46.841 57.3537 3.98275
44.773 39.4927 3.95263
42.4867 40.8656 3.96379
48.1622 47.2622 3.98156
47.1799 54.2619 3.98165
47.6204 50.7761 3.9776
44.8785 47.3519 3.99402
45.2223 42.0045 3.92219
45.008 44.6381 3.96329
42.8027 42.7297 3.9534
40.9607 42.3492 3.95458
46.619 59.8027 0.0178693
45.4687 58.7992 2
43.8767 57.7235 3.9815
37.563 67.7569 0.0119472
39.6469 65.6218 0.0133945
41.5987 63.8291 0.0151413
42.9495 62.0926 0.0160218
44.6231 60.3003 0.0176387
35.4633 67.6668 2
41.7524 62.5043 2
39.8922 63.5654 2
37.6418 65.5216 2
42.4806 59.9931 2
40.6222 61.6627 3.98373
40.4444 58.2245 3.98139
37.8359 63.2268 3.98527
35.5728 65.4436 3.98643
33.5755 65.3548 2
31.9598 63.3141 2
33.6291 63.3538 3.9851
30.3787 62.8718 3.98477
32.123 62.02 3.98398
26.8677 61.5142 3.98354
28.0624 64.1588 3.98594
29.8837 64.7317 2
29.4064 66.7673 3.98801
31.6974 65.1406 0.013513
31.3768 67.2045 2
31.0134 69.4225 3.99043
33.3921 67.4945 0.0119211
33.1561 69.7581 2
32.8921 72.149 3.99418
35.3333 69.9643 0.00944189
35.1949 72.3751 2
35.0474 74.9194 4
37.5096 72.4603 0.00582492
37.5 75 2
39.9526 74.9197 0
35.6203 6.71883 3.98889
37.5229 4.61179 3.99111
39.6237 4.71193 2
39.7885 2.47292 3.99456
41.7361 4.96511 0.00906417
42.062 2.71618 2
42.3946 0.32156 4
44.3255 3.1088 0.00568401
44.8159 0.72056 2
47.2057 1.27793 0
49.7459 41.3129 0.0228838
56.8806 37.8986 0.0211199
53.2172 39.3152 0.0210421
47.6739 40.4431 2
50.7061 38.4926 2
54.072 36.6224 2
51.4937 35.568 3.96671
48.3407 37.761 3.98803
46.1617 35.1034 3.9159
44.0012 33.7761 3.95652
42.1015 33.0236 3.95453
37.4575 8.52593 3.98729
37.5157 6.6673 2
39.4419 6.79665 0.0111316
39.2108 8.68372 2
38.9757 10.1162 3.98642
35.8977 9.76324 3.98625
34.1497 8.81357 3.98701
35.9412 8.48362 2
54.9488 33.9579 0.0220523
53.5508 30.4595 0.0195943
52.6331 27.1779 0.0177503
52.4012 21.0516 0.0192007
52.1687 24.066 0.0243169
49.8214 19.5862 0.0219485
48.1154 16.9762 0.0192233
47.6824 14.5738 0.0170497
44.7232 9.98874 0.0136949
46.005 12.7202 0.0157499
41.0132 9.04171 0.0130143
42.4678 10.8943 0.0148177
52.4968 32.8519 2
40.5686 11.5972 2
43.8575 11.909 2
51.4001 29.1363 2
50.8279 25.7055 2
49.951 22.1642 2
45.8033 15.4088 2
47.5071 19.2087 2
50.1096 31.3896 3.97173
49.342 27.4597 3.97237
49.4313 24.378 3.98028
47.1932 21.9111 3.97777
38.3012 12.7224 3.98388
42.1009 14.293 3.98263
44.8026 18.4446 3.98068
45.0502 37.4994 3.94854
46.5072 37.5007 2
47.9884 58.7509 0.0184543
48.6048 55.9284 0.0186693
50.1909 45.2868 0.0209954
49.718 49.0658 0.0259934
49.1502 52.616 0.0219728
46.1617 39.8952 0.0831163
46.5412 42.7323 0.0270963
46.5971 45.7786 0.016358
44.004 41.2204 0.0417454
42.1099 41.9877 0.0463604
46.8411 57.3542 2
44.7821 39.4915 2
42.4883 40.8669 2
48.1601 47.2592 2
47.18 54.2622 2
47.6203 50.7756 2
44.8764 47.3434 2
45.2252 42.0074 2
45.0156 44.6453 2
42.8137 42.7275 2
40.9694 42.3493 2
45.4015 55.9403 3.98055
42.8151 39.2576 3.9674
40.9248 40.8054 3.97017
46.1452 48.9383 3.98006
45.5644 52.5635 3.984
43.5152 48.4791 3.96042
43.4031 46.2044 3.97486
43.7709 43.8164 3.9159
41.2734 43.8915 3.96056
39.3244 42.6649 3.95315
45.4689 58.799 0.018614
43.8765 57.7236 2
42.1073 56.3483 3.98183
35.4632 67.6663 0.011874
37.6418 65.5211 0.0136751
39.8923 63.5649 0.0152244
41.7524 62.504 0.0157549
42.4806 59.9928 0.0171614
35.5728 65.444 2
40.6221 61.6631 2
37.8359 63.2272 2
40.4444 58.2249 2
38.9257 56.5156 3.98226
38.2498 60.3474 3.98357
35.6066 63.2206 3.9851
33.5755 65.3543 0.0135319
31.9597 63.3136 0.0150136
33.6292 63.3542 2
30.3788 62.8722 2
32.1231 62.0205 2
28.6809 62.2168 3.98453
33.3456 61.533 3.98374
31.0658 61.2367 3.98327
27.5653 59.6116 3.98235
23.7869 59.1002 3.98413
25.0323 60.8866 3.98312
26.8678 61.5147 2
26.2288 63.4905 3.98537
28.0625 64.1592 2
27.4631 66.1909 3.98783
29.8836 64.7312 0.0137339
29.4065 66.7678 2
28.9058 68.9478 3.99032
31.3768 67.204 0.0118956
31.0134 69.4229 2
30.6145 71.7801 3.99415
33.1561 69.7577 0.00944949
32.892 72.1493 2
32.6054 74.6784 4
35.195 72.3748 0.00584341
35.0474 74.9197 2
37.5 75 0
33.7229 6.97343 3.9886
35.4343 4.68223 3.99101
35.6202 6.71835 2
37.5141 2.38555 3.99463
37.5229 4.61142 2
39.6237 4.71232 0.00897287
39.7885 2.47267 2
39.9526 0.0806499 4
42.062 2.71643 0.00550454
42.3947 0.320817 2
44.8158 0.721173 0
44.7798 35.5035 3.95155
42.4831 34.1378 3.96296
47.6741 40.4455 0.00999178
50.7083 38.4931 0.0210332
54.0728 36.6225 0.0232453
48.339 37.7597 2
51.4928 35.5673 2
46.1638 35.1018 2
44.0133 33.7731 2
42.107 33.0225 2
48.5091 34.2533 4.00385
45.2141 32.9917 3.9157
42.7959 32.2792 3.95381
40.9505 32.6673 3.95878
37.3097 10.6192 3.98561
37.4575 8.52542 2
37.5158 6.66773 0.0111328
39.2108 8.68422 0.0127847
38.9757 10.1157 2
34.7528 10.3688 3.98554
35.8976 9.76274 2
32.3763 9.36023 3.9863
34.1496 8.81303 2
35.9413 8.48413 0.012706
52.4974 32.8531 0.0212018
51.4019 29.1342 0.0188468
50.828 25.7035 0.0276564
49.9504 22.1646 0.0207744
47.5071 19.2091 0.0207004
45.8034 15.409 0.0173476
43.8576 11.9093 0.0153182
40.5686 11.5976 0.0153578
50.1076 31.3902 2
38.301 12.7216 2
42.1007 14.2929 2
49.3406 27.4612 2
49.4318 24.3776 2
47.1936 21.9126 2
44.8025 18.4442 2
47.8844 29.5912 3.96816
47.134 25.1041 3.9783
44.2928 21.2981 3.97894
36.5809 12.9188 3.98377
38.6803 14.7924 3.98248
41.7507 17.8221 3.98048
42.9468 37.4911 3.96822
45.065 37.4999 2
46.495 37.4993 0.0840459
46.841 57.3537 0.0172475
47.1799 54.2619 0.0183501
48.1622 47.2622 0.0184399
47.6204 50.7761 0.0223963
44.773 39.4927 0.0473671
45.2223 42.0045 0.0778144
45.008 44.6381 0.036705
44.8785 47.3519 0.00598186
42.8027 42.7297 0.0465953
42.4867 40.8656 0.0362112
40.9607 42.3492 0.0454243
45.4017 55.9407 2
42.816 39.2578 2
40.9251 40.8064 2
46.1452 48.9331 2
45.5647 52.5628 2
43.5135 48.4796 2
43.4304 46.215 2
43.7769 43.8208 2
41.2799 43.8851 2
39.3286 42.669 2
43.7412 54.4515 3.98681
40.9911 39.1764 3.96241
39.2437 40.8642 3.94072
43.744 50.5372 3.9881
42.0148 47.7334 4.01399
41.9244 45.2101 3.911
39.4914 44.6517 3.96379
37.4978 42.7879 3.95176
43.8767 57.7235 0.0184962
42.1072 56.3482 2
40.4212 54.9508 3.97925
35.5728 65.4436 0.0135716
37.8359 63.2268 0.0147274
40.6222 61.6627 0.0162707
40.4444 58.2245 0.0186131
35.6067 63.221 2
38.2497 60.3477 2
38.9255 56.5171 2
38 55.2707 3.9814
36.9347 57.6493 3.98132
35.3632 60.9323 3.98379
33.6291 63.3538 0.0149015
30.3787 62.8718 0.015228
32.123 62.02 0.0160244
33.3456 61.5334 2
28.681 62.2172 2
31.0659 61.2371 2
29.4011 60.306 3.98277
32.3551 59.7642 3.98306
28.017 58.3909 3.98298
27.5654 59.612 2
25.3738 58.6117 3.98226
22.7491 58.2597 3.98099
23.3971 60.3664 3.9829
23.7868 59.1007 2
25.0324 60.8871 2
24.4309 62.7825 3.98475
26.8677 61.5142 0.0164594
26.2289 63.4909 2
25.5472 65.5006 3.98741
28.0624 64.1588 0.0140589
27.4632 66.1913 2
26.8356 68.336 3.99017
29.4064 66.7673 0.0119949
28.9058 68.9482 2
28.3697 71.2652 3.99408
31.0134 69.4225 0.00957499
30.6144 71.7803 2
30.1842 74.2788 4
32.8921 72.149 0.00582071
32.6053 74.6792 2
35.0474 74.9194 0
31.7873 7.41308 3.98821
33.3462 4.92138 3.99083
33.7228 6.97288 2
35.2443 2.46172 3.99456
35.4343 4.68181 2
35.6203 6.71883 0.0111145
37.5 0 4
37.5141 2.3853 2
37.5229 4.61179 0.00889481
39.7885 2.47292 0.00543521
39.9526 0.0802889 2
42.3946 0.32156 0
42.82 35.7322 3.96681
44.7849 35.5065 2
40.9213 34.2077 3.97109
42.4841 34.1375 2
48.3407 37.761 0.01197
51.4937 35.568 0.0332884
46.1617 35.1034 0.0841023
44.0012 33.7761 0.0434815
42.1015 33.0236 0.0454699
48.5093 34.2532 2
45.2207 32.9861 2
42.8067 32.2766 2
40.9562 32.6649 2
46.4278 31.501 3.98706
43.7582 31.1878 3.91544
41.2686 31.127 3.95345
39.3119 32.3544 3.95005
35.6911 11.7636 3.98411
37.3096 10.6186 2
37.4575 8.52593 0.0127104
38.9757 10.1162 0.0135816
33.0967 11.2055 3.98456
34.7528 10.3683 2
35.8977 9.76324 0.0137511
30.481 10.0083 3.98584
32.3763 9.35975 2
34.1497 8.81357 0.0129867
50.1096 31.3896 0.0282673
49.342 27.4597 0.0276306
49.4313 24.378 0.0197151
47.1932 21.9111 0.0222272
44.8026 18.4446 0.0193236
42.1009 14.293 0.0173705
38.3012 12.7224 0.0161222
36.5807 12.9185 2
47.8804 29.5925 2
38.6801 14.7916 2
41.7503 17.8221 2
47.1343 25.1048 2
44.2931 21.2976 2
45.6332 27.7985 3.97538
43.8214 24.0313 3.9813
41.3441 20.6996 3.98021
35.7705 14.7435 3.98276
38.6811 17.579 3.98077
41.0343 37.4881 3.95687
42.9496 37.4922 2
45.0502 37.4994 0.0514586
45.4015 55.9403 0.0194465
45.5644 52.5635 0.0160011
46.1452 48.9383 0.0199356
42.8151 39.2576 0.0325982
43.7709 43.8164 0.0841044
43.4031 46.2044 0.0251392
43.5152 48.4791 0.0395782
41.2734 43.8915 0.0394397
40.9248 40.8054 0.0298294
39.3244 42.6649 0.0468463
43.7417 54.452 2
40.9905 39.1771 2
39.2431 40.8683 2
43.7437 50.5382 2
42.015 47.7369 2
41.9368 45.2116 2
37.4984 42.798 2
39.5029 44.6567 2
41.8913 53.0187 3.9875
39.2351 39.1648 3.92818
37.5015 40.9098 3.91824
35.6766 42.6803 3.95291
40.9842 49.7589 3.99585
39.8158 46.09 3.91313
37.497 44.92 3.96411
42.1073 56.3483 0.0181702
40.421 54.9508 2
38.7299 53.8804 3.98407
35.6066 63.2206 0.0148953
38.2498 60.3474 0.0164269
38.9257 56.5156 0.0177362
35.3631 60.9326 2
36.9344 57.6494 2
37.9996 55.271 2
36.3189 55.4072 3.98243
34.4867 58.5426 3.98229
33.3456 61.533 0.0162622
28.6809 62.2168 0.0154742
31.0658 61.2367 0.0167321
32.3552 59.7645 2
29.4012 60.3063 2
30.2932 57.8362 3.9825
28.017 58.3913 2
26.9349 56.8412 3.98076
27.5653 59.6116 0.0176529
25.3737 58.6121 2
23.8278 56.8253 3.97926
21.3238 57.4203 3.98186
21.9883 59.6395 3.98339
22.749 58.2602 2
22.734 62.0337 3.98413
23.3971 60.3669 2
23.7869 59.1002 0.0158731
25.0323 60.8866 0.0168812
24.431 62.783 2
23.681 64.7187 3.98669
26.2288 63.4905 0.0146316
25.5473 65.5011 2
24.8081 67.5971 3.99
27.4631 66.1909 0.0121696
26.8356 68.3364 2
26.165 70.606 3.99398
28.9058 68.9478 0.00968473
28.3695 71.2654 2
27.7943 73.7221 4
30.6145 71.7801 0.00584919
30.1841 74.2794 2
32.6054 74.6784 0
29.8099 7.98626 3.98771
31.2514 5.32843 3.99053
31.7872 7.41257 2
32.9801 2.69981 3.99444
33.3462 4.9209 2
33.7229 6.97343 0.0113955
35.0474 0.080333 4
35.2443 2.46145 2
35.4343 4.68223 0.0089948
37.5 0 2
37.5141 2.38555 0.00536773
39.9526 0.0806499 0
40.9968 35.812 3.96269
42.8194 35.7333 2
44.7798 35.5035 0.0484458
28.5419 10.6836 3.98548
39.2389 34.1546 3.94173
40.92 34.2068 2
42.4831 34.1378 0.0370392
48.5091 34.2533 -0.00385017
45.2141 32.9917 0.084301
42.7959 32.2792 0.0461916
40.9505 32.6673 0.0412164
46.4379 31.4971 2
43.7608 31.182 2
41.278 31.1242 2
39.3173 32.3487 2
44.4472 29.6706 3.97581
41.9148 29.8095 3.91803
39.4843 30.3801 3.96294
37.4812 32.2356 3.94764
34.0908 12.9216 3.98343
35.6911 11.7632 2
37.3097 10.6192 0.0143882
31.1848 11.9737 3.98449
33.0967 11.2051 2
34.7528 10.3688 0.0144613
30.481 10.0078 2
32.3763 9.36023 0.0137043
47.8844 29.5912 0.0318443
47.134 25.1041 0.0217008
36.5809 12.9188 0.0162348
44.2928 21.2981 0.0210554
41.7507 17.8221 0.0195222
38.6803 14.7924 0.0175217
35.7702 14.7437 2
45.6305 27.8016 2
38.6807 17.5782 2
41.3438 20.6991 2
43.8216 24.0355 2
33.6057 15.8607 3.9828
43.1102 26.5221 3.98761
40.9262 23.2722 3.98044
38.4222 20.3073 3.98151
35.8467 17.492 3.9816
39.2441 37.4907 3.9277
41.034 37.488 2
42.9468 37.4911 0.0317816
43.7412 54.4515 0.0131867
43.744 50.5372 0.0118969
40.9911 39.1764 0.0375877
41.9244 45.2101 0.0890004
42.0148 47.7334 -0.0139896
39.4914 44.6517 0.0362061
39.2437 40.8642 0.0592775
37.4978 42.7879 0.0482361
41.8916 53.0199 2
39.2345 39.1669 2
37.502 40.9171 2
40.9829 49.7598 2
35.6722 42.6845 2
39.8292 46.098 2
37.4984 44.9029 2
39.8312 51.9403 3.99079
37.5004 39.1805 3.92242
35.7618 40.8813 3.93859
34.0408 42.3626 3.95709
35.4922 44.6584 3.96183
38.7699 48.7817 4.02729
37.5046 46.4012 3.90847
40.4212 54.9508 0.0207472
38.7295 53.8799 2
36.7175 53.2354 3.98912
35.3632 60.9323 0.0162129
36.9347 57.6493 0.0186776
38 55.2707 0.0185987
34.4866 58.5426 2
36.3185 55.4067 2
33.2218 55.524 3.98202
32.3551 59.7642 0.0169401
29.4011 60.306 0.0172333
30.2932 57.8364 2
28.6742 55.3287 3.97909
28.017 58.3909 0.0170185
26.9347 56.8418 2
25.2924 55.1632 3.97857
21.7909 55.3699 3.97922
25.3738 58.6117 0.0177434
23.8275 56.8258 2
20.2069 57.0514 3.98351
20.638 58.7985 3.9832
21.3235 57.4207 2
21.1631 61.1841 3.98435
21.9882 59.64 2
22.7491 58.2597 0.0190056
21.894 63.8464 3.98606
22.734 62.0341 2
23.3971 60.3664 0.0170968
24.4309 62.7825 0.0152462
23.681 64.7192 2
22.8364 66.7408 3.9897
25.5472 65.5006 0.0125938
24.808 67.5974 2
24.0094 69.8071 3.99385
26.8356 68.336 0.0098291
26.1648 70.6062 2
25.446 73.0099 4
28.3697 71.2652 0.00591543
27.7943 73.7222 2
30.1842 74.2788 0
27.8198 8.64589 3.98742
29.1534 5.8741 3.99016
29.8098 7.9858 2
30.7254 3.0969 3.99424
31.2513 5.32797 2
31.7873 7.41308 0.0117854
32.6053 0.320823 4
32.9801 2.69953 2
33.3462 4.92138 0.0091655
35.0474 0.0802903 2
35.2443 2.46172 0.00544431
37.5 0 0
39.2407 35.8291 3.92795
40.9955 35.8112 2
42.82 35.7322 0.0331935
28.5419 10.6833 2
26.6208 11.3791 3.98517
29.2237 12.6305 3.98426
37.4952 34.1118 3.92138
39.2372 34.1498 2
40.9213 34.2077 0.0289103
46.4278 31.501 0.0129361
43.7582 31.1878 0.0845589
41.2686 31.127 0.0465463
39.3119 32.3544 0.0499489
44.4583 29.6621 2
41.9287 29.8027 2
39.4924 30.3751 2
37.4833 32.2226 2
42.3593 28.3526 3.97913
39.8174 28.9323 3.91688
37.4818 30.1108 3.96246
35.6575 32.3462 3.95116
31.9122 14.4672 3.98311
34.0909 12.9213 2
35.6911 11.7636 0.0158907
31.1848 11.9733 2
33.0967 11.2055 0.0154378
30.481 10.0083 0.014163
45.6332 27.7985 0.0246177
43.8214 24.0313 0.0187046
35.7705 14.7435 0.017244
41.3441 20.6996 0.0197857
38.6811 17.579 0.0192317
33.6055 15.861 2
35.8464 17.4925 2
43.1085 26.5263 2
38.4221 20.3075 2
40.9263 23.2714 2
33.5476 17.369 3.98315
40.4817 25.618 4.00072
38.0828 22.836 3.98824
35.5823 20.0593 3.98288
37.5015 37.5007 3.92539
39.2438 37.4908 2
41.0343 37.4881 0.043129
41.8913 53.0187 0.0125047
40.9842 49.7589 0.00415375
39.2351 39.1648 0.0718225
39.8158 46.09 0.0868692
37.497 44.92 0.035885
37.5015 40.9098 0.0817607
35.6766 42.6803 0.0470915
39.832 51.9405 2
37.5008 39.1836 2
35.7636 40.8858 2
38.7658 48.79 2
34.0337 42.3645 2
35.4891 44.6604 2
37.5013 46.4132 2
37.669 51.0238 3.9851
35.7705 39.1854 3.92569
34.0871 40.8245 3.96901
32.8898 42.0019 3.95451
33.7113 43.9069 3.95533
35.1795 46.1016 3.91643
36.8975 48.421 4.01205
38.7299 53.8804 0.0159282
36.717 53.2346 2
34.3505 52.4948 3.98186
34.4867 58.5426 0.0177103
36.3189 55.4072 0.0175738
33.2217 55.5237 2
30.5 53.4243 3.98013
30.2932 57.8362 0.0175046
28.6739 55.3289 2
26.856 53.4661 3.97758
26.9349 56.8412 0.0192409
25.292 55.1637 2
23.5451 53.5074 3.97664
20.4393 53.2543 3.97749
19.9163 55.8561 3.98244
21.7903 55.3703 2
23.8278 56.8253 0.0207356
19.4288 57.9119 3.98304
20.2066 57.0518 2
19.7014 60.2187 3.98383
20.6379 58.7989 2
21.3238 57.4203 0.0181363
20.2056 62.8679 3.98566
21.1631 61.1845 2
21.9883 59.6395 0.0166103
20.9379 65.7699 3.98921
21.894 63.8469 2
22.734 62.0337 0.0158653
23.681 64.7187 0.0133088
22.8364 66.7412 2
21.9119 68.8743 3.99369
24.8081 67.5971 0.00999929
24.0092 69.8073 2
23.1494 72.1454 4
26.165 70.606 0.00602487
25.446 73.0099 2
27.7943 73.7221 0
25.8591 9.37396 3.98686
27.0682 6.53815 3.98979
27.8198 8.64548 2
28.4877 3.64275 3.99401
29.1533 5.87369 2
29.8099 7.98626 0.012293
30.1841 0.720592 4
30.7253 3.09665 2
31.2514 5.32843 0.00946539
32.6053 0.320817 2
32.9801 2.69981 0.00556091
35.0474 0.080333 0
37.5027 35.8269 3.92186
39.2395 35.827 2
40.9968 35.812 0.0373123
24.7756 12.0621 3.98499
23.7491 14.3463 3.98378
28.5419 10.6836 0.0145198
26.6209 11.3788 2
29.2237 12.6303 2
27.2897 13.3636 3.98416
29.7782 14.1895 3.98347
35.7568 34.1427 3.94226
37.4951 34.1029 2
39.2389 34.1546 0.0582745
37.4812 32.2356 0.0523646
44.4472 29.6706 0.0241902
41.9148 29.8095 0.0819712
39.4843 30.3801 0.0370635
42.3676 28.3408 2
39.831 28.9261 2
37.4816 30.1247 2
35.6557 32.3401 2
40.041 27.53 3.99159
37.4906 28.6223 3.91254
35.4738 30.375 3.96083
34.0268 32.6575 3.95623
30.9232 16.8244 3.98261
31.9123 14.4669 2
34.0908 12.9216 0.0165737
31.1848 11.9737 0.015509
43.1102 26.5221 0.0123856
40.9262 23.2722 0.0195616
33.6057 15.8607 0.0171957
35.8467 17.492 0.018399
38.4222 20.3073 0.0184876
33.5473 17.3697 2
35.5823 20.0597 2
40.4788 25.6233 2
38.0829 22.838 2
32.8597 19.7756 3.98171
37.7881 25.1306 4.01728
35.2029 22.6176 3.97867
35.7619 37.5081 3.92543
37.5023 37.5003 2
39.2441 37.4907 0.0723029
39.8312 51.9403 0.00920872
38.7699 48.7817 -0.0272939
37.5004 39.1805 0.0775776
37.5046 46.4012 0.0915252
35.4922 44.6584 0.0381679
35.7618 40.8813 0.0614089
34.0408 42.3626 0.0429147
37.6698 51.0344 2
35.7721 39.1873 2
34.0884 40.8257 2
36.8943 48.4253 2
32.8838 42.0037 2
33.707 43.9056 2
35.1662 46.1088 2
35.4226 50.1623 3.9872
34.0222 39.2004 3.95832
32.5164 40.8824 3.96454
32.1897 42.74 3.95544
33.0817 45.2212 3.91802
34.2817 47.5207 3.989
36.7175 53.2354 0.0108806
34.3502 52.4954 2
31.9676 51.218 3.97819
33.2218 55.524 0.017983
30.4997 53.4263 2
28.3918 51.6484 3.97925
28.6742 55.3287 0.0209143
26.8555 53.4674 2
25.0398 51.7958 3.97406
25.2924 55.1632 0.0214283
23.5445 53.5082 2
21.9266 51.8417 3.97511
19.1667 51.6647 3.97698
18.8996 54.3342 3.97983
20.4389 53.2543 2
18.4346 56.745 3.98364
19.9158 55.8564 2
21.7909 55.3699 0.0207844
18.362 59.1275 3.9832
19.4286 57.9123 2
20.2069 57.0514 0.0164911
18.6156 61.7764 3.98517
19.7014 60.2191 2
20.638 58.7985 0.0167977
19.1265 64.6809 3.98859
20.2057 62.8684 2
21.1631 61.1841 0.0156509
19.886 67.811 3.99338
20.9379 65.7703 2
21.894 63.8464 0.0139355
22.8364 66.7408 0.0102954
21.9118 68.8745 2
20.9142 71.1327 4
24.0094 69.8071 0.00615152
23.1494 72.1455 2
25.446 73.0099 0
23.0947 12.7768 3.9846
23.9718 10.1605 3.98651
25.0222 7.3081 3.98954
25.8591 9.37358 2
26.2794 4.32692 3.99372
27.0681 6.53776 2
27.8198 8.64589 0.0125844
27.7943 1.27781 4
28.4875 3.64255 2
29.1534 5.8741 0.00984382
30.1841 0.720551 2
30.7254 3.0969 0.00575617
32.6053 0.320823 0
35.7673 35.8331 3.92606
37.5027 35.8228 2
39.2407 35.8291 0.0720543
24.7757 12.0619 2
23.7493 14.3464 2
22.4772 15.0226 3.98356
25.3556 13.8957 3.98391
24.0216 15.6081 3.98324
26.6208 11.3791 0.0148318
29.2237 12.6305 0.0157447
27.2898 13.3635 2
29.7783 14.1892 2
28.3538 15.9637 3.98322
34.0873 34.2004 3.96905
35.7583 34.1378 2
37.4952 34.1118 0.0786185
35.6575 32.3462 0.0488401
37.4818 30.1108 0.0375354
42.3593 28.3526 0.020866
39.8174 28.9323 0.0831165
40.0433 27.527 2
37.4905 28.6103 2
35.4681 30.3705 2
34.0266 32.6541 2
37.6238 27.2238 3.99456
35.1454 28.924 3.91614
33.6915 31.1211 3.95621
32.8817 33.0206 3.95332
30.2029 19.3276 3.98351
30.9232 16.8241 2
31.9122 14.4672 0.0168944
40.4817 25.618 -0.00072199
38.0828 22.836 0.0117578
33.5476 17.369 0.0168529
35.5823 20.0593 0.0171211
32.8595 19.7769 2
35.2034 22.6173 2
37.7872 25.1364 2
32.304 22.3904 3.98097
34.9394 25.1475 3.99279
33.9781 37.5108 3.95374
35.7637 37.5079 2
37.5015 37.5007 0.0746118
37.669 51.0238 0.0149016
36.8975 48.421 -0.0120459
35.7705 39.1854 0.0743061
35.1795 46.1016 0.0835742
33.7113 43.9069 0.0446685
34.0871 40.8245 0.0309925
32.8898 42.0019 0.045492
35.4226 50.1688 2
34.0239 39.2011 2
32.5158 40.8817 2
34.2743 47.5322 2
32.1798 42.738 2
33.0688 45.2276 2
33.1811 49.1432 3.9858
32.1874 39.2799 3.96733
30.99 41.2354 3.95616
31.2301 43.8236 3.91827
32.2215 46.4452 3.97729
34.3505 52.4948 0.0181446
31.9673 51.2213 2
29.7947 49.7447 3.97677
30.5 53.4243 0.0198684
28.3911 51.6471 2
26.4497 50.0346 3.97417
26.856 53.4661 0.0224245
25.0392 51.795 2
23.2891 50.2358 3.97638
23.5451 53.5074 0.0233572
21.9261 51.8413 2
20.4219 50.3479 3.97675
17.9532 50.356 3.97881
17.807 52.8175 3.97876
19.1666 51.6642 2
17.4204 55.3623 3.98186
18.8991 54.3343 2
20.4393 53.2543 0.0225143
17.126 57.8908 3.98404
18.4343 56.7454 2
19.9163 55.8561 0.0175598
17.132 60.5609 3.98448
18.3619 59.1278 2
19.4288 57.9119 0.0169633
17.4064 63.4742 3.98798
18.6157 61.7768 2
19.7014 60.2187 0.0161739
17.9421 66.6196 3.99305
19.1265 64.6813 2
20.2056 62.8679 0.0143381
18.75 69.9759 4
19.8858 67.8111 2
20.9379 65.7699 0.0107858
21.9119 68.8743 0.00630633
20.9142 71.1327 2
23.1494 72.1454 0
21.5851 13.5967 3.98428
22.1897 11.0196 3.98594
23.0949 12.7767 2
23.0403 8.17338 3.98932
23.9718 10.1602 2
24.1171 5.14152 3.99356
25.0221 7.30776 2
25.8591 9.37396 0.0131356
25.446 1.99014 4
26.2792 4.32676 2
27.0682 6.53815 0.010213
27.7943 1.27778 2
28.4877 3.64275 0.00599299
30.1841 0.720592 0
34.0169 35.8221 3.95886
35.7685 35.8307 2
37.5027 35.8269 0.0781357
21.3016 15.818 3.98335
24.7756 12.0621 0.0150144
23.7491 14.3463 0.0162225
25.3558 13.8956 2
22.4775 15.0228 2
24.0218 15.6082 2
23.2602 16.2393 3.98301
25.3769 16.0759 3.9835
27.2897 13.3636 0.0158353
29.7782 14.1895 0.0165264
28.3539 15.9638 2
27.4344 18.7855 3.98339
32.5257 34.1412 3.96408
34.0884 34.1984 2
35.7568 34.1427 0.0577378
34.0268 32.6575 0.0437705
35.4738 30.375 0.0391656
37.4906 28.6223 0.0874596
40.041 27.53 0.0084051
37.6201 27.1956 2
32.8815 33.0211 2
35.1281 28.9164 2
33.6825 31.1151 2
35.05 27.3348 3.99579
33.0421 29.8076 3.92013
32.1748 32.2759 3.95577
29.5642 21.9227 3.98838
30.2032 19.328 2
30.9232 16.8244 0.0173886
37.7881 25.1306 -0.0172796
35.2029 22.6176 0.0213343
32.8597 19.7756 0.0182943
32.3043 22.3926 2
34.941 25.1562 2
31.6329 25.6071 3.98694
32.0606 37.513 3.96752
33.9801 37.5105 2
35.7619 37.5081 0.0745702
35.4226 50.1623 0.0128049
34.2817 47.5207 0.0110043
34.0222 39.2004 0.0416766
33.0817 45.2212 0.0819758
32.1897 42.74 0.0445642
32.5164 40.8824 0.0354552
33.182 49.1305 2
32.1874 39.279 2
30.9791 41.2358 2
32.2061 46.4559 2
31.2235 43.8274 2
31.0513 47.9048 3.98769
30.2177 39.502 3.95129
29.7752 42.0153 3.91511
30.3312 45.0195 3.97822
31.9676 51.218 0.0218134
29.7949 49.7428 2
27.7859 48.2248 3.98049
28.3918 51.6484 0.0207477
26.4493 50.0331 2
24.5781 48.5117 3.97546
25.0398 51.7958 0.0259443
23.2888 50.2349 2
21.5944 48.8264 3.97868
21.9266 51.8417 0.0248892
20.422 50.3469 2
18.9899 49.12 3.98072
16.8608 49.3537 3.98155
16.746 51.4302 3.97918
17.9534 50.3555 2
16.3696 53.892 3.98055
17.8068 52.8173 2
19.1667 51.6647 0.0230189
15.9654 56.4932 3.98332
17.42 55.3626 2
18.8996 54.3342 0.0201696
15.7443 59.2227 3.9846
17.1258 57.8912 2
18.4346 56.745 0.0163587
15.7862 62.1455 3.9872
17.132 60.5614 2
18.362 59.1275 0.0168004
16.0886 65.3023 3.99284
17.4064 63.4746 2
18.6156 61.7764 0.0148342
16.6661 68.6801 4
17.942 66.6197 2
19.1265 64.6809 0.0114143
18.75 69.9759 2
19.886 67.811 0.00661969
20.9142 71.1327 0
20.2165 14.5854 3.98389
21.5853 13.5968 2
20.5288 11.9893 3.98547
21.1435 9.14282 3.98909
22.1899 11.0194 2
23.0947 12.7768 0.0153974
22.0162 6.08044 3.99337
23.0403 8.17308 2
23.9718 10.1605 0.0134923
23.1494 2.85457 4
24.1169 5.1414 2
25.0222 7.3081 0.0104609
25.446 1.99012 2
26.2794 4.32692 0.00628481
27.7943 1.27781 0
32.1928 35.744 3.96661
34.0184 35.8209 2
35.7673 35.8331 0.0739422
21.3019 15.8182 2
20.2977 16.951 3.9841
22.0929 16.6233 3.9829
25.3556 13.8957 0.0160905
22.4772 15.0226 0.0164374
24.0216 15.6081 0.0167644
25.3771 16.0761 2
23.2605 16.2396 2
24.1984 18.4379 3.98193
27.0006 21.4445 3.9822
28.3538 15.9637 0.0167822
27.4347 18.786 2
30.9973 33.7843 3.95263
32.5241 34.1428 2
34.0873 34.2004 0.030948
32.8817 33.0206 0.0466793
33.6915 31.1211 0.0437861
35.1454 28.924 0.0838581
37.6238 27.2238 0.00543935
35.0392 27.3234 2
32.1756 32.2785 2
33.0357 29.7985 2
32.4695 28.0557 4.00173
31.1985 31.1986 3.9218
28.752 24.3875 3.98684
29.5646 21.9242 2
30.2029 19.3276 0.0164908
34.9394 25.1475 0.00721159
32.304 22.3904 0.0190272
31.6334 25.5977 2
29.5621 27.295 3.98145
29.9491 37.5099 3.9497
32.0614 37.5125 2
33.9781 37.5108 0.0462611
33.1811 49.1432 0.0141955
32.2215 46.4452 0.0227119
32.1874 39.2799 0.0326676
31.2301 43.8236 0.0817309
30.99 41.2354 0.0438351
31.0546 47.8972 2
30.2108 39.5033 2
29.7691 42.0198 2
30.3169 45.0288 2
29.0586 46.477 3.9795
28.832 39.9021 3.9135
28.5228 43.2405 3.98323
29.7947 49.7447 0.0232319
27.7863 48.2221 2
25.8457 46.6941 3.97581
26.4497 50.0346 0.0258269
24.5784 48.5104 2
22.7267 47.1209 3.98474
23.2891 50.2358 0.0236183
21.595 48.8249 2
19.9318 47.6486 3.98405
20.4219 50.3479 0.0232476
18.9903 49.1193 2
17.6333 48.2015 3.98314
16.1126 48.7032 3.98336
16.8611 49.3534 2
15.8235 50.1903 3.98072
15.3577 52.435 3.98017
16.746 51.43 2
17.9532 50.356 0.0211868
14.8551 54.9942 3.98203
16.3694 53.892 2
17.807 52.8175 0.0212433
14.4524 57.7521 3.9844
15.965 56.4935 2
17.4204 55.3623 0.0181403
14.2637 60.7004 3.98658
15.7442 59.2232 2
17.126 57.8908 0.0159632
14.3326 63.8617 3.99254
15.7862 62.146 2
17.132 60.5609 0.0155176
14.6715 67.2507 4
16.0884 65.3025 2
17.4064 63.4742 0.0120209
16.6661 68.6801 2
17.9421 66.6196 0.00694535
18.75 69.9759 0
18.9293 15.7715 3.98396
20.2167 14.5854 2
18.9781 13.1001 3.98499
21.5851 13.5967 0.0157206
20.529 11.9893 2
19.3428 10.2305 3.98861
19.9908 7.14498 3.9933
21.1434 9.1426 2
22.1897 11.0196 0.0140591
20.9142 3.86727 4
22.0159 6.08039 2
23.0403 8.17338 0.0106824
23.1494 2.85451 2
24.1171 5.14152 0.00644383
25.446 1.99014 0
30.2331 35.5252 3.95508
32.1917 35.7441 2
34.0169 35.8221 0.0411436
21.3016 15.818 0.0166537
22.0932 16.6234 2
20.2979 16.9508 2
19.2352 18.3966 3.9838
21.7761 17.8383 3.98321
25.3769 16.0759 0.0165014
23.2602 16.2393 0.0169912
24.1989 18.4384 2
22.2672 19.8783 3.98235
24.5765 21.3079 3.98277
26.3795 23.7099 3.98253
27.0016 21.4457 2
27.4344 18.7855 0.0166149
29.7733 33.0009 3.91928
30.9864 33.7789 2
32.5257 34.1412 0.0359182
32.1748 32.2759 0.0442257
33.0421 29.8076 0.07987
35.05 27.3348 0.00420697
32.4552 28.0526 2
31.2068 31.2011 2
30.0075 29.499 3.99585
27.8052 26.5349 3.96992
28.7525 24.3928 2
29.5642 21.9227 0.0116164
31.6329 25.6071 0.0130636
29.5542 27.2593 2
28.5025 37.5079 3.91856
29.9424 37.5122 2
32.0606 37.513 0.0324812
31.0513 47.9048 0.0123101
30.3312 45.0195 0.0217793
30.2177 39.502 0.0487068
29.7752 42.0153 0.084889
29.0626 46.4776 2
28.8268 39.9026 2
28.5127 43.2452 2
27.132 44.8092 3.96617
26.6116 40.6477 4.00654
27.7859 48.2248 0.0195123
25.8475 46.6925 2
23.874 45.25 3.97551
24.5781 48.5117 0.0245373
22.7279 47.1187 2
20.8582 45.931 3.98483
21.5944 48.8264 0.0213202
19.9326 47.6479 2
18.2765 46.7618 3.98465
18.9899 49.12 0.0192807
17.6337 48.2013 2
16.3016 47.733 3.98311
16.1129 48.7031 2
15.1699 49.0333 3.98205
16.8608 49.3537 0.0184501
15.8236 50.1902 2
14.4711 51.0015 3.98062
13.8159 53.4493 3.98129
15.3576 52.435 2
16.746 51.4302 0.0208193
13.2461 56.1798 3.98358
14.8548 54.9944 2
16.3696 53.892 0.0194494
12.8455 59.1342 3.98637
14.4522 57.7525 2
15.9654 56.4932 0.0166773
12.6778 62.3044 3.99195
14.2637 60.7008 2
15.7443 59.2227 0.0154003
12.7746 65.6939 4
14.3324 63.8618 2
15.7862 62.1455 0.012798
14.6714 67.2507 2
16.0886 65.3023 0.00715671
16.6661 68.6801 0
17.6624 17.146 3.98387
18.9294 15.7713 2
17.5088 14.3637 3.98479
20.2165 14.5854 0.0161129
18.9783 13.1 2
17.6383 11.4493 3.98782
20.5288 11.9893 0.0145257
19.3429 10.2303 2
18.051 8.33776 3.99308
18.75 5.0241 4
19.9906 7.145 2
21.1435 9.14282 0.0109113
20.9142 3.86727 2
22.0162 6.08044 0.00663084
23.1494 2.85457 0
28.8398 35.1151 3.91845
30.2253 35.5264 2
32.1928 35.744 0.0333891
22.0929 16.6233 0.0170982
20.2977 16.951 0.0159007
21.7764 17.8382 2
19.2354 18.3964 2
17.9686 19.9274 3.98354
20.8666 19.3645 3.98359
24.1984 18.4379 0.0180665
22.2678 19.878 2
24.5776 21.3088 2
22.3395 21.702 3.98342
24.6645 23.153 3.98267
25.396 25.9384 3.97357
26.3807 23.7101 2
27.0006 21.4445 0.0178019
28.1627 32.2701 3.97718
29.7681 33.0002 2
30.9973 33.7843 0.0473661
31.1985 31.1986 0.0781953
32.4695 28.0557 -0.00173291
29.9822 29.4941 2
26.9052 29.1306 3.97781
27.8008 26.5334 2
28.752 24.3875 0.0131552
29.5621 27.295 0.0185542
26.7312 37.3607 3.98538
28.4979 37.5062 2
29.9491 37.5099 0.0502995
29.0586 46.477 0.0204959
28.5228 43.2405 0.0167662
28.832 39.9021 0.0864959
27.1372 44.8094 2
26.6114 40.6505 2
25.098 43.2007 3.97301
23.8582 39.4353 3.96719
25.8457 46.6941 0.0241932
23.8754 45.2496 2
21.8295 43.9829 3.9817
22.7267 47.1209 0.015255
20.8595 45.9308 2
18.934 44.9948 3.98134
19.9318 47.6486 0.0159521
18.2771 46.7619 2
16.5905 46.2315 3.98143
17.6333 48.2015 0.0168644
16.3019 47.733 2
14.8989 47.6865 3.98175
16.1126 48.7032 0.0166408
15.1701 49.0333 2
13.7689 49.5606 3.98116
15.8235 50.1903 0.0192783
14.4711 51.0015 2
12.8824 51.8866 3.98106
12.1329 54.5375 3.98281
13.8158 53.4494 2
15.3577 52.435 0.0198294
11.5294 57.4661 3.98587
13.2459 56.1801 2
14.8551 54.9942 0.0179666
11.1323 60.6309 3.99142
12.8454 59.1345 2
14.4524 57.7521 0.0156023
10.9835 64.0165 4
12.6777 62.3045 2
14.2637 60.7004 0.0134243
12.7745 65.694 2
14.3326 63.8617 0.0074644
14.6715 67.2507 0
16.3933 18.6388 3.98397
17.6625 17.1458 2
16.0989 15.7719 3.98481
18.9293 15.7715 0.0160352
17.5089 14.3633 2
16.0195 12.8024 3.98703
18.9781 13.1001 0.01501
17.6384 11.449 2
16.2021 9.66079 3.99274
19.3428 10.2305 0.0113943
18.0508 8.33783 2
16.6661 6.31991 4
18.75 5.02404 2
19.9908 7.14498 0.00669929
20.9142 3.86727 0
27.2376 34.7377 3.97411
28.8327 35.1136 2
30.2331 35.5252 0.0449168
16.6662 21.3618 3.98174
21.7761 17.8383 0.0167918
19.2352 18.3966 0.0162
20.8669 19.3642 2
17.9689 19.9273 2
19.7073 21.5559 3.98528
22.2672 19.8783 0.0176527
24.5765 21.3079 0.0172267
22.3404 21.7011 2
24.665 23.1534 2
22.805 24.5859 3.97774
24.4543 28.5151 3.97242
25.3934 25.9372 2
26.3795 23.7099 0.0174673
26.0005 31.7017 3.98246
28.1551 32.2654 2
29.7733 33.0009 0.0807164
30.0075 29.499 0.00415298
26.9094 29.1331 2
27.8052 26.5349 0.0300754
24.5461 36.8648 3.97937
26.7312 37.365 2
28.5025 37.5079 0.0814415
27.132 44.8092 0.033834
26.6116 40.6477 -0.00654335
25.0989 43.2017 2
23.8587 39.4359 2
22.876 41.8215 3.97734
21.6147 38.5036 3.97626
23.874 45.25 0.0244877
21.8303 43.9843 2
19.6811 42.9084 3.97783
20.8582 45.931 0.0151655
18.9349 44.9954 2
16.9177 44.3972 3.97861
18.2765 46.7618 0.0153502
16.591 46.2317 2
14.8191 46.1053 3.97975
16.3016 47.733 0.0168868
14.8992 47.6866 2
13.2756 48.0215 3.98065
15.1699 49.0333 0.0179465
13.769 49.5607 2
12.1014 50.2633 3.98104
14.4711 51.0015 0.0193795
12.8824 51.8867 2
11.1283 52.8449 3.98223
10.3194 55.7172 3.98517
12.1327 54.5377 2
13.8159 53.4493 0.0187117
9.69881 58.8535 3.99054
11.5292 57.4664 2
13.2461 56.1798 0.0164224
9.30605 62.2254 4
11.1322 60.6309 2
12.8455 59.1342 0.0136342
10.9835 64.0165 2
12.6778 62.3044 0.00804641
12.7746 65.6939 0
15.1363 20.1722 3.98283
16.3935 18.6386 2
14.7437 17.294 3.98438
17.6624 17.146 0.0161257
16.0991 15.7715 2
14.4815 14.2836 3.98658
17.5088 14.3637 0.0152061
16.0197 12.8019 2
14.4447 11.1118 3.99239
17.6383 11.4493 0.0121825
16.202 9.66081 2
14.6715 7.74927 4
18.051 8.33776 0.00691811
16.6661 6.31988 2
18.75 5.0241 0
25.1834 34.2678 3.9844
27.2358 34.7394 2
28.8398 35.1151 0.0815471
17.8361 22.3064 3.98584
15.5089 22.905 3.98017
16.6663 21.3614 2
20.8666 19.3645 0.0164051
17.9686 19.9274 0.0164625
19.7078 21.5554 2
19.6305 24.3614 3.98079
22.3395 21.702 0.0165834
24.6645 23.153 0.0173311
22.8035 24.5844 2
21.8407 27.8069 3.97363
23.6219 31.175 3.97289
24.4568 28.5178 2
25.396 25.9384 0.0264309
26.0055 31.6987 2
28.1627 32.2701 0.022816
26.9052 29.1306 0.0221853
22.3257 36.2678 3.98196
24.5473 36.8652 2
26.7312 37.3607 0.0146166
25.098 43.2007 0.0269913
23.8582 39.4353 0.0328143
22.8757 41.8222 2
21.615 38.5037 2
20.5996 40.642 3.97689
19.9792 37.7826 3.97941
21.8295 43.9829 0.0183006
19.6815 42.9088 2
17.3101 42.1138 3.97717
18.934 44.9948 0.0186604
16.9184 44.3976 2
14.8195 44.2133 3.9774
16.5905 46.2315 0.0185694
14.8195 46.1056 2
12.9478 46.3067 3.97884
14.8989 47.6865 0.018252
13.2758 48.0217 2
11.4728 48.5588 3.98041
13.7689 49.5606 0.0188351
12.1014 50.2635 2
10.254 51.0869 3.98179
12.8824 51.8866 0.0189376
11.1281 52.8451 2
9.22811 53.8941 3.98458
8.38231 56.986 3.98953
10.3192 55.7175 2
12.1329 54.5375 0.017191
7.74927 60.3285 4
9.69866 58.8536 2
11.5294 57.4661 0.0141288
9.306 62.2255 2
11.1323 60.6309 0.00858101
10.9835 64.0165 0
13.947 21.7385 3.98171
15.1364 20.1718 2
13.4433 18.8904 3.98383
16.3933 18.6388 0.0160313
14.7438 17.2936 2
13.0263 15.8759 3.98619
16.0989 15.7719 0.0151909
14.4816 14.2832 2
12.7818 12.6849 3.99196
16.0195 12.8024 0.0129672
14.4446 11.1118 2
12.7746 9.30605 4
16.2021 9.66079 0.00726474
14.6715 7.74924 2
16.6661 6.31991 0
22.9182 33.7894 3.98174
25.1825 34.2665 2
27.2376 34.7377 0.025895
17.6001 24.0252 3.98164
17.8361 22.3058 2
14.2902 24.4375 3.97868
15.5084 22.9042 2
16.6662 21.3618 0.0182614
18.9821 27.1843 3.97316
19.7073 21.5559 0.0147177
19.6295 24.3613 2
21.0736 30.6479 3.97465
22.805 24.5859 0.0222617
21.8425 27.8076 2
23.6218 31.175 2
24.4543 28.5151 0.0275819
26.0005 31.7017 0.0175427
20.0942 35.9159 3.98186
22.3263 36.2686 2
24.5461 36.8648 0.0206339
22.876 41.8215 0.0226578
21.6147 38.5036 0.0237372
20.5996 40.6419 2
19.9793 37.7827 2
17.9784 39.0062 3.97796
19.6811 42.9084 0.0221676
17.3103 42.1142 2
14.7651 41.9278 3.97668
16.9177 44.3972 0.0213919
14.82 44.2137 2
12.6874 44.4011 3.97727
14.8191 46.1053 0.0202478
12.9481 46.3069 2
10.9749 46.741 3.97892
13.2756 48.0215 0.0193529
11.4729 48.559 2
9.51745 49.2453 3.98108
12.1014 50.2633 0.0189645
10.254 51.0872 2
8.26108 52.0057 3.98403
11.1283 52.8449 0.017766
9.22793 53.8943 2
7.19122 55.0354 3.98879
6.31991 58.3339 4
8.38211 56.9859 2
10.3194 55.7172 0.0148331
7.74924 60.3285 2
9.69881 58.8535 0.00946256
9.30605 62.2254 0
13.2113 25.3522 3.98266
12.8132 23.2685 3.98062
13.9467 21.7378 2
12.2276 20.5395 3.98331
15.1363 20.1722 0.0171656
13.4434 18.89 2
11.6554 17.5567 3.98602
14.7437 17.294 0.0156181
13.0264 15.8756 2
11.2191 14.3695 3.99135
14.4815 14.2836 0.0134187
12.7818 12.6849 2
10.9835 10.9835 4
14.4447 11.1118 0.00761262
12.7745 9.306 2
14.6715 7.74927 0
20.4825 33.382 3.97916
22.9184 33.7893 2
25.1834 34.2678 0.0156006
15.8708 26.3874 3.97641
17.5994 24.0245 2
17.8361 22.3064 0.0141626
14.2902 24.4376 2
15.5089 22.905 0.0198326
18.3197 30.1582 3.9738
18.9834 27.1847 2
19.6305 24.3614 0.0192141
21.0734 30.6475 2
21.8407 27.8069 0.0263697
23.6219 31.175 0.027105
17.601 35.9604 3.98026
20.0947 35.9162 2
22.3257 36.2678 0.0180359
20.5996 40.642 0.0231083
19.9792 37.7826 0.0205937
17.9783 39.0062 2
14.2692 39.1808 3.97787
17.3101 42.1138 0.0228345
14.7652 41.9281 2
12.3737 42.2839 3.97705
14.8195 44.2133 0.0226049
12.6878 44.4015 2
10.5519 44.8085 3.9779
12.9478 46.3067 0.0211578
10.975 46.7413 2
8.90036 47.3231 3.97985
11.4728 48.5588 0.0195938
9.51746 49.2456 2
7.4282 50.0377 3.98324
10.254 51.0869 0.018207
8.26095 52.0059 2
6.13172 53.0089 3.98834
9.22811 53.8941 0.0154215
7.19097 55.0351 2
5.0241 56.25 4
6.31988 58.3339 2
8.38231 56.986 0.0104666
7.74927 60.3285 0
13.4469 26.8044 3.97776
11.9269 24.7792 3.97985
13.2115 25.352 2
11.13 22.2252 3.98229
12.8131 23.2682 2
13.947 21.7385 0.0182888
12.2274 20.5388 2
10.385 19.3119 3.98578
13.4433 18.8904 0.0161714
11.6555 17.5563 2
9.75979 16.1526 3.99063
13.0263 15.8759 0.0138131
11.219 14.3695 2
9.30607 12.7746 4
12.7818 12.6849 0.00803936
10.9835 10.9835 2
12.7746 9.30605 0
17.7837 33.1014 3.97673
20.4827 33.3822 2
22.9182 33.7894 0.0182647
15.4577 29.6263 3.97548
15.8716 26.3876 2
17.6001 24.0252 0.0183647
14.2902 24.4375 0.0213154
18.3195 30.1579 2
18.9821 27.1843 0.0268386
21.0736 30.6479 0.0253477
14.8612 36.0164 3.97849
17.6014 35.9605 2
20.0942 35.9159 0.018138
12.5686 37.831 3.97757
17.9784 39.0062 0.0220391
14.269 39.181 2
11.8865 40.1459 3.97783
14.7651 41.9278 0.0233205
12.3738 42.2842 2
10.1508 42.7828 3.97745
12.6874 44.4011 0.0227265
10.5522 44.8088 2
8.37849 45.3242 3.97906
10.9749 46.741 0.0210848
8.90046 47.3234 2
6.71987 48.0019 3.98216
9.51745 49.2453 0.0189158
7.42813 50.0379 2
5.20845 50.9109 3.98808
8.26108 52.0057 0.0159697
6.13146 53.0083 2
3.86727 54.0858 4
7.19122 55.0354 0.0112145
5.02404 56.25 2
6.31991 58.3339 0
12.9023 29.0257 3.97471
11.3567 26.4807 3.97883
13.4473 26.8039 2
10.1895 23.9611 3.9808
11.9269 24.7788 2
13.2113 25.3522 0.0173366
9.23689 21.132 3.98486
11.1299 22.2247 2
12.8132 23.2685 0.0193842
12.2276 20.5395 0.0166852
10.3849 19.3112 2
8.41551 18.0238 3.98987
11.6554 17.5567 0.0139798
9.75975 16.1525 2
7.74928 14.6715 4
11.2191 14.3695 0.00864859
9.30602 12.7745 2
10.9835 10.9835 0
14.4489 32.8555 3.97668
17.7839 33.1014 2
20.4825 33.382 0.0208388
15.4575 29.626 2
15.8708 26.3874 0.0235878
18.3197 30.1582 0.026196
12.8567 36.208 3.9769
14.8615 36.0165 2
17.601 35.9604 0.0197379
12.5687 37.831 2
11.2451 38.3124 3.97702
14.2692 39.1808 0.0221259
11.8865 40.1461 2
9.73634 40.7581 3.97784
12.3737 42.2839 0.0229465
10.1509 42.7832 2
7.92771 43.2725 3.97862
10.5519 44.8085 0.0220972
8.37871 45.3245 2
6.12633 45.9063 3.98145
8.90036 47.3231 0.0201479
6.7199 48.0019 2
4.42013 48.7508 3.98789
7.4282 50.0377 0.0167571
5.20823 50.91 2
2.85457 51.8506 4
6.13172 53.0089 0.0116553
3.86727 54.0858 2
5.0241 56.25 0
12.0431 31.251 3.97697
10.7698 28.41 3.9769
12.9021 29.0251 2
9.40469 25.7934 3.97989
11.357 26.4803 2
13.4469 26.8044 0.0222419
8.22426 23.0191 3.98333
10.1895 23.9606 2
11.9269 24.7792 0.0201518
7.19749 19.9746 3.98904
9.23677 21.1314 2
11.13 22.2252 0.0177088
10.385 19.3119 0.0142235
8.41535 18.0237 2
6.31992 16.6661 4
9.75979 16.1526 0.00936558
7.74926 14.6714 2
9.30607 12.7746 0
12.0609 34.2915 3.97653
14.4491 32.8556 2
17.7837 33.1014 0.0232722
15.4577 29.6263 0.0245152
10.81 36.611 3.97619
12.857 36.208 2
14.8612 36.0164 0.0215105
12.5686 37.831 0.0224304
11.2451 38.3124 2
9.33217 38.8259 3.97747
11.8865 40.1459 0.022173
9.73638 40.7584 2
7.53937 41.2132 3.97851
10.1508 42.7828 0.0225483
7.92782 43.2728 2
5.63845 43.7689 3.98138
8.37849 45.3242 0.0209382
6.12648 45.9063 2
3.76595 46.5364 3.98782
6.71987 48.0019 0.0178429
4.41998 48.7498 2
1.99014 49.554 4
5.20845 50.9109 0.011916
2.85451 51.8506 2
3.86727 54.0858 0
10.9068 32.9156 3.97767
10.0831 30.3783 3.97729
12.0432 31.2509 2
8.71331 27.7288 3.97873
10.7696 28.4095 2
12.9023 29.0257 0.0252929
7.34998 24.9798 3.98239
9.40487 25.793 2
11.3567 26.4807 0.0211719
6.11441 21.9998 3.98807
8.22419 23.0186 2
10.1895 23.9611 0.019205
5.02411 18.75 4
7.19725 19.9748 2
9.23689 21.132 0.0151405
8.41551 18.0238 0.0101272
6.3199 16.6661 2
7.74928 14.6715 0
10.4218 34.9986 3.9772
12.0611 34.2915 2
14.4489 32.8555 0.0233224
9.00621 36.9856 3.9761
10.8102 36.6109 2
12.8567 36.208 0.0230962
11.2451 38.3124 0.0229824
9.33225 38.826 2
7.22084 39.1832 3.97827
9.73634 40.7581 0.0221642
7.53944 41.2134 2
5.25417 41.6144 3.98103
7.92771 43.2725 0.0213831
5.63853 43.7689 2
3.24385 44.2816 3.98776
6.12633 45.9063 0.0185483
3.76593 46.5355 2
1.27781 47.2057 4
4.42013 48.7508 0.0121058
1.99012 49.554 2
2.85457 51.8506 0
10.0748 33.8793 3.97757
9.37694 32.1517 3.97781
10.907 32.9155 2
8.06305 29.6934 3.97842
10.0831 30.3781 2
12.0431 31.251 0.0230253
6.59404 27.0071 3.98151
8.71326 27.7283 2
10.7698 28.41 0.0231049
5.16963 24.0943 3.98765
7.35009 24.9796 2
9.40469 25.7934 0.0201137
3.86728 20.9142 4
6.11414 22.0004 2
8.22426 23.0191 0.0166685
5.02406 18.75 2
7.19749 19.9746 0.0109649
6.31992 16.6661 0
8.83273 35.2788 3.97706
10.422 34.9985 2
12.0609 34.2915 0.0234732
7.00613 37.2063 3.97721
9.00639 36.9855 2
10.81 36.611 0.0238135
9.33217 38.8259 0.0225287
7.22095 39.1834 2
4.98263 39.4676 3.98048
7.53937 41.2132 0.0214868
5.25424 41.6144 2
2.85457 42.0024 3.98735
5.63845 43.7689 0.0186243
3.24383 44.281 2
0.720592 44.8159 4
3.76595 46.5364 0.0121804
1.27778 47.2057 2
1.99014 49.554 0
8.87413 33.6961 3.97773
10.075 33.8791 2
7.50115 31.6078 3.97853
9.37702 32.1516 2
10.9068 32.9156 0.022326
5.93961 29.069 3.98097
8.0631 29.6932 2
10.0831 30.3783 0.0227099
4.35735 26.2479 3.98755
6.59404 27.0069 2
8.71331 27.7288 0.0212658
2.85458 23.1494 4
5.16949 24.0952 2
7.34998 24.9798 0.0176086
3.86728 20.9142 2
6.11441 21.9998 0.0119283
5.02411 18.75 0
6.9566 35.3059 3.97747
8.83291 35.2787 2
10.4218 34.9986 0.0227955
4.83357 37.34 3.97991
7.00631 37.2064 2
9.00621 36.9856 0.0238967
7.22084 39.1832 0.0217261
4.98274 39.4676 2
2.60293 39.7142 3.98659
5.25417 41.6144 0.0189675
2.85458 42.0019 2
0.320823 42.3947 4
3.24385 44.2816 0.0122355
0.720551 44.8159 2
1.27781 47.2057 0
7.11583 33.4602 3.97822
8.87425 33.6959 2
10.0748 33.8793 0.0224273
5.41091 31.1334 3.98085
7.5012 31.6076 2
9.37694 32.1517 0.022192
3.67928 28.4442 3.98749
5.93966 29.069 2
8.06305 29.6934 0.021584
1.99015 25.446 4
4.35722 26.2488 2
6.59404 27.0071 0.0184916
2.85453 23.1494 2
5.16963 24.0943 0.0123536
3.86728 20.9142 0
4.84806 35.2518 3.97996
6.95677 35.3059 2
8.83273 35.2788 0.0229365
2.49457 37.4288 3.9863
4.83373 37.3401 2
7.00613 37.2063 0.0227938
4.98263 39.4676 0.0195236
2.60298 39.714 2
0.080333 39.9526 4
2.85457 42.0024 0.0126495
0.320817 42.3947 2
0.720592 44.8159 0
5.04094 33.1904 3.98057
7.11593 33.4601 2
8.87413 33.6961 0.0222708
3.14386 30.6667 3.98724
5.41094 31.1336 2
7.50115 31.6078 0.0214663
1.27793 27.7943 4
3.67923 28.445 2
5.93961 29.069 0.0190293
1.99013 25.446 2
4.35735 26.2479 0.0124489
2.85458 23.1494 0
2.54678 35.1593 3.98625
4.84819 35.252 2
6.9566 35.3059 0.0225299
0 37.5 4
2.49466 37.4289 2
4.83357 37.34 0.0200896
2.60293 39.7142 0.0134107
0.0802903 39.9526 2
0.320823 42.3947 0
2.76418 32.9061 3.98671
5.04102 33.1906 2
7.11583 33.4602 0.0217789
0.721173 30.1842 4
3.14384 30.6673 2
5.41091 31.1334 0.0191493
1.27779 27.7943 2
3.67928 28.4442 0.0125093
1.99015 25.446 0
0.0806499 35.0474 4
2.54684 35.1597 2
4.84806 35.2518 0.0200378
0 37.5 2
2.49457 37.4288 0.0136961
0.080333 39.9526 0
0.32156 32.6054 4
2.7642 32.9066 2
5.04094 33.1904 0.0194349
0.72056 30.1841 2
3.14386 30.6667 0.0127633
1.27793 27.7943 0
0.0802889 35.0474 2
2.54678 35.1593 0.0137497
0 37.5 0
0.320817 32.6053 2
2.76418 32.9061 0.0132881
0.721173 30.1842 0
0.0806499 35.0474 0
0.32156 32.6054 0
CELLS 1910 17190
8 18 6 25 56 2 0 5 16
8 57 23 6 18 17 4 0 2
8 78 36 9 29 31 11 1 7
8 31 11 1 7 79 37 10 30
8 110 57 18 50 48 17 2 14
8 50 18 56 111 14 2 16 49
8 116 62 22 55 52 20 3 15
8 56 25 67 118 16 5 24 53
8 119 63 23 57 54 21 4 17
8 55 22 63 119 15 3 21 54
8 58 26 68 121 18 6 25 56
8 122 65 26 58 57 23 6 18
8 73 31 7 27 142 79 30 71
8 143 78 29 72 73 31 7 27
8 83 147 76 34 32 74 28 8
8 84 148 78 36 33 75 29 9
8 76 34 8 28 148 84 33 75
8 37 79 150 86 10 30 77 35
8 151 87 36 78 80 38 11 31
8 80 38 11 31 152 88 37 79
8 175 100 42 94 96 44 12 40
8 44 96 176 101 12 40 95 43
8 101 176 98 46 43 95 41 13
8 46 98 178 103 13 41 97 45
8 178 103 45 97 147 83 32 74
8 189 116 55 109 106 52 15 47
8 111 56 118 191 49 16 53 107
8 192 119 57 110 108 54 17 48
8 109 55 119 192 47 15 54 108
8 194 122 58 112 110 57 18 50
8 112 58 121 195 50 18 56 111
8 115 61 19 51 197 124 59 113
8 115 61 125 198 51 19 60 114
8 198 125 62 116 114 60 20 52
8 200 127 64 120 116 62 22 55
8 118 67 132 202 53 24 66 117
8 121 68 133 203 56 25 67 118
8 120 64 128 204 55 22 63 119
8 204 128 65 122 119 63 23 57
8 206 134 68 121 123 69 26 58
8 123 69 26 58 207 131 65 122
8 226 147 74 138 140 76 28 70
8 229 148 75 139 143 78 29 72
8 140 76 28 70 229 148 75 139
8 142 79 30 71 231 150 77 141
8 144 80 31 73 232 152 79 142
8 233 151 78 143 144 80 31 73
8 150 86 35 77 235 154 81 145
8 235 154 81 145 146 82 39 91
8 146 82 39 91 236 155 90 165
8 238 157 83 147 149 85 34 76
8 239 158 84 148 151 87 36 78
8 149 85 34 76 239 158 84 148
8 152 88 37 79 241 160 86 150
8 242 161 87 151 153 89 38 80
8 153 89 38 80 243 162 88 152
8 171 98 41 92 265 178 97 169
8 265 178 97 169 226 147 74 138
8 172 96 40 93 266 176 95 170
8 266 176 95 170 171 98 41 92
8 269 175 94 173 172 96 40 93
8 271 180 99 174 175 100 42 94
8 197 124 59 113 271 180 99 174
8 272 181 100 175 177 102 44 96
8 273 182 101 176 179 104 46 98
8 177 102 44 96 273 182 101 176
8 179 104 46 98 275 184 103 178
8 275 184 103 178 238 157 83 147
8 188 115 51 105 283 197 113 186
8 188 115 198 284 105 51 114 187
8 284 198 116 189 187 114 52 106
8 286 200 120 193 189 116 55 109
8 191 118 202 288 107 53 117 190
8 195 121 203 289 111 56 118 191
8 193 120 204 290 109 55 119 192
8 290 204 122 194 192 119 57 110
8 196 123 58 112 292 207 122 194
8 293 206 121 195 196 123 58 112
8 199 126 61 115 297 211 124 197
8 298 212 127 200 198 125 62 116
8 199 126 212 298 115 61 125 198
8 205 129 64 120 300 214 127 200
8 301 217 130 201 202 132 66 117
8 209 136 168 264 301 217 130 201
8 302 219 132 202 203 133 67 118
8 303 220 133 203 206 134 68 121
8 205 129 215 304 120 64 128 204
8 304 215 131 207 204 128 65 122
8 306 221 134 206 208 135 69 123
8 208 135 69 123 307 218 131 207
8 210 137 167 263 309 223 136 209
8 328 238 147 226 230 149 76 140
8 228 146 91 166 329 236 165 260
8 231 150 77 141 330 235 145 227
8 330 235 145 227 228 146 91 166
8 332 239 148 229 233 151 78 143
8 230 149 76 140 332 239 148 229
8 232 152 79 142 334 241 150 231
8 234 153 80 144 335 243 152 232
8 336 242 151 233 234 153 80 144
8 236 155 90 165 338 245 164 259
8 241 160 86 150 339 246 154 235
8 339 246 154 235 237 156 82 146
8 237 156 82 146 340 247 155 236
8 342 249 157 238 240 159 85 149
8 343 250 158 239 242 161 87 151
8 240 159 85 149 343 250 158 239
8 243 162 88 152 345 252 160 241
8 244 163 253 346 153 89 161 242
8 244 163 89 153 347 254 162 243
8 311 224 261 371 210 137 167 263
8 263 167 262 372 209 136 168 264
8 267 179 98 171 375 275 178 265
8 375 275 178 265 328 238 147 226
8 376 273 176 266 267 179 98 171
8 268 177 96 172 376 273 176 266
8 379 272 175 269 268 177 96 172
8 380 271 174 270 269 175 94 173
8 283 197 113 186 380 271 174 270
8 381 277 180 271 272 181 100 175
8 297 211 124 197 381 277 180 271
8 382 278 181 272 274 183 102 177
8 274 183 102 177 383 279 182 273
8 383 279 182 273 276 185 104 179
8 385 281 184 275 342 249 157 238
8 276 185 104 179 385 281 184 275
8 285 199 115 188 393 297 197 283
8 394 298 200 286 284 198 116 189
8 285 199 298 394 188 115 198 284
8 291 205 120 193 396 300 200 286
8 397 301 201 287 288 202 117 190
8 295 209 264 374 397 301 201 287
8 398 302 202 288 289 203 118 191
8 399 303 203 289 293 206 121 195
8 291 205 304 400 193 120 204 290
8 400 304 207 292 290 204 122 194
8 294 208 123 196 402 307 207 292
8 403 306 206 293 294 208 123 196
8 296 210 263 373 405 309 209 295
8 408 312 213 299 297 211 126 199
8 299 213 313 409 199 126 212 298
8 409 313 214 300 298 212 127 200
8 305 216 129 205 411 315 214 300
8 412 318 217 301 302 219 132 202
8 309 223 136 209 412 318 217 301
8 413 320 219 302 303 220 133 203
8 306 221 321 414 206 134 220 303
8 307 218 131 207 415 316 215 304
8 305 216 316 415 205 129 215 304
8 417 322 221 306 308 222 135 208
8 308 222 135 208 418 319 218 307
8 310 225 137 210 420 325 223 309
8 423 326 224 311 310 225 137 210
8 329 236 165 260 441 338 259 368
8 442 342 238 328 333 240 149 230
8 331 237 146 228 443 340 236 329
8 334 241 150 231 444 339 235 330
8 444 339 235 330 331 237 146 228
8 446 343 239 332 336 242 151 233
8 333 240 149 230 446 343 239 332
8 335 243 152 232 448 345 241 334
8 337 244 153 234 449 347 243 335
8 337 244 346 450 234 153 242 336
8 338 245 164 259 452 349 258 367
8 340 247 155 236 453 350 245 338
8 345 252 160 241 454 351 246 339
8 454 351 246 339 341 248 156 237
8 341 248 156 237 455 352 247 340
8 240 159 251 344 342 249 354 457
8 242 161 253 346 343 250 355 458
8 343 250 355 458 240 159 251 344
8 347 254 162 243 460 357 252 345
8 348 255 358 461 244 163 253 346
8 348 255 163 244 462 359 254 347
8 473 360 257 365 363 256 364 482
8 452 349 258 367 365 257 366 485
8 422 324 369 488 311 224 261 371
8 371 261 370 490 263 167 262 372
8 407 311 371 491 296 210 263 373
8 373 263 372 492 295 209 264 374
8 493 385 275 375 442 342 238 328
8 377 276 179 267 493 385 275 375
8 378 274 177 268 494 383 273 376
8 494 383 273 376 377 276 179 267
8 497 382 272 379 378 274 177 268
8 498 381 271 380 379 272 175 269
8 393 297 197 283 498 381 271 380
8 499 387 277 381 382 278 181 272
8 408 312 211 297 499 387 277 381
8 500 388 278 382 384 280 183 274
8 501 389 279 383 386 282 185 276
8 384 280 183 274 501 389 279 383
8 386 282 185 276 503 391 281 385
8 503 391 281 385 457 354 249 342
8 511 408 299 395 393 297 199 285
8 395 299 409 512 285 199 298 394
8 512 409 300 396 394 298 200 286
8 401 305 205 291 514 411 300 396
8 515 412 301 397 398 302 202 288
8 405 309 209 295 515 412 301 397
8 516 413 302 398 399 303 203 289
8 403 306 414 517 293 206 303 399
8 402 307 207 292 518 415 304 400
8 401 305 415 518 291 205 304 400
8 404 308 208 294 520 418 307 402
8 521 417 306 403 404 308 208 294
8 406 310 210 296 523 420 309 405
8 526 423 311 407 406 310 210 296
8 410 314 213 299 527 424 312 408
8 528 425 315 411 409 313 214 300
8 410 314 425 528 299 213 313 409
8 416 317 216 305 530 427 315 411
8 531 430 318 412 413 320 219 302
8 420 325 223 309 531 430 318 412
8 532 432 320 413 414 321 220 303
8 417 322 433 533 306 221 321 414
8 418 319 218 307 534 428 316 415
8 416 317 428 534 305 216 316 415
8 419 323 434 536 308 222 322 417
8 419 323 222 308 537 431 319 418
8 421 327 225 310 539 438 325 420
8 421 327 439 541 310 225 326 423
8 543 437 324 422 423 326 224 311
8 441 338 259 368 559 452 367 486
8 443 340 236 329 560 453 338 441
8 333 240 344 447 442 342 457 561
8 445 341 237 331 562 455 340 443
8 448 345 241 334 563 454 339 444
8 563 454 339 444 445 341 237 331
8 336 242 346 450 446 343 458 565
8 446 343 458 565 333 240 344 447
8 449 347 243 335 567 460 345 448
8 451 348 244 337 568 462 347 449
8 451 348 461 569 337 244 346 450
8 570 463 349 452 473 360 257 365
8 453 350 245 338 570 463 349 452
8 455 352 247 340 571 464 350 453
8 460 357 252 345 572 465 351 454
8 572 465 351 454 456 353 248 341
8 456 353 248 341 573 466 352 455
8 344 251 356 459 457 354 468 575
8 458 355 469 576 344 251 356 459
8 346 253 358 461 458 355 469 576
8 462 359 254 347 578 471 357 460
8 348 255 359 462 461 358 472 579
8 591 474 360 473 475 361 256 363
8 475 361 256 363 594 477 362 479
8 363 256 364 482 479 362 480 603
8 590 473 365 484 481 363 482 605
8 482 364 257 365 606 483 366 485
8 559 452 367 486 484 365 485 607
8 542 436 487 609 422 324 369 488
8 525 422 488 611 407 311 371 491
8 488 369 489 612 371 261 370 490
8 491 371 490 613 373 263 372 492
8 495 386 276 377 614 503 385 493
8 614 503 385 493 561 457 342 442
8 615 501 383 494 495 386 276 377
8 496 384 274 378 615 501 383 494
8 618 500 382 497 496 384 274 378
8 619 499 381 498 497 382 272 379
8 511 408 297 393 619 499 381 498
8 620 505 387 499 500 388 278 382
8 527 424 312 408 620 505 387 499
8 502 390 506 621 384 280 388 500
8 622 507 389 501 504 392 282 386
8 502 390 280 384 622 507 389 501
8 504 392 282 386 624 509 391 503
8 624 509 391 503 575 468 354 457
8 513 410 299 395 630 527 408 511
8 631 528 411 514 512 409 300 396
8 513 410 528 631 395 299 409 512
8 519 416 305 401 633 530 411 514
8 634 531 412 515 516 413 302 398
8 523 420 309 405 634 531 412 515
8 635 532 413 516 517 414 303 399
8 521 417 533 636 403 306 414 517
8 520 418 307 402 637 534 415 518
8 519 416 534 637 401 305 415 518
8 522 419 308 404 639 537 418 520
8 522 419 536 640 404 308 417 521
8 524 421 310 406 642 539 420 523
8 524 421 541 644 406 310 423 526
8 646 543 422 525 526 423 311 407
8 529 426 314 410 647 544 424 527
8 528 425 545 648 411 315 427 530
8 529 426 545 648 410 314 425 528
8 535 429 317 416 649 546 427 530
8 650 548 430 531 532 432 320 413
8 539 438 325 420 650 548 430 531
8 533 433 550 651 414 321 432 532
8 536 434 551 652 417 322 433 533
8 537 431 319 418 653 547 428 534
8 535 429 547 653 416 317 428 534
8 538 435 552 654 419 323 434 536
8 538 435 323 419 655 549 431 537
8 540 440 327 421 657 556 438 539
8 540 440 557 659 421 327 439 541
8 541 439 555 660 423 326 437 543
8 661 554 436 542 543 437 324 422
8 676 570 452 559 590 473 365 484
8 560 453 338 441 676 570 452 559
8 562 455 340 443 677 571 453 560
8 447 344 459 566 561 457 575 678
8 564 456 341 445 679 573 455 562
8 567 460 345 448 680 572 454 563
8 680 572 454 563 564 456 341 445
8 565 458 576 682 447 344 459 566
8 450 346 461 569 565 458 576 682
8 568 462 347 449 684 578 460 567
8 451 348 462 568 569 461 579 685
8 686 580 463 570 591 474 360 473
8 571 464 350 453 686 580 463 570
8 573 466 352 455 687 581 464 571
8 572 465 582 688 460 357 471 578
8 574 467 582 688 456 353 465 572
8 574 467 353 456 689 583 466 573
8 459 356 470 577 575 468 585 691
8 576 469 586 692 459 356 470 577
8 461 358 472 579 576 469 586 692
8 462 359 471 578 579 472 588 694
8 704 591 473 590 593 475 363 481
8 595 476 592 705 475 361 474 591
8 593 475 363 481 707 594 479 602
8 594 477 362 479 709 598 478 600
8 595 476 361 475 711 597 477 594
8 479 362 480 603 600 478 601 720
8 481 363 482 605 602 479 603 722
8 603 480 364 482 723 604 483 606
8 605 482 365 484 724 606 485 607
8 656 553 608 726 542 436 487 609
8 645 542 609 728 525 422 488 611
8 609 487 610 729 488 369 489 612
8 611 488 612 730 491 371 490 613
8 616 504 386 495 731 624 503 614
8 731 624 503 614 678 575 457 561
8 732 622 501 615 616 504 386 495
8 617 502 384 496 732 622 501 615
8 617 502 621 735 496 384 500 618
8 736 620 499 619 618 500 382 497
8 630 527 408 511 736 620 499 619
8 621 506 626 737 500 388 505 620
8 647 544 424 527 737 626 505 620
8 623 508 627 738 502 390 506 621
8 623 508 390 502 739 628 507 622
8 625 510 628 739 504 392 507 622
8 740 629 509 624 691 585 468 575
8 625 510 392 504 740 629 509 624
8 632 529 410 513 744 647 527 630
8 631 528 648 745 514 411 530 633
8 632 529 648 745 513 410 528 631
8 638 535 416 519 746 649 530 633
8 747 650 531 634 635 532 413 516
8 642 539 420 523 747 650 531 634
8 636 533 651 748 517 414 532 635
8 640 536 652 749 521 417 533 636
8 639 537 418 520 750 653 534 637
8 638 535 653 750 519 416 534 637
8 641 538 419 522 751 655 537 639
8 641 538 654 752 522 419 536 640
8 643 540 421 524 753 657 539 642
8 643 540 659 755 524 421 541 644
8 644 541 660 757 526 423 543 646
8 758 661 542 645 646 543 422 525
8 529 426 544 647 648 545 662 759
8 530 427 545 648 649 546 663 760
8 535 429 546 649 653 547 664 761
8 762 666 548 650 651 550 432 532
8 657 556 438 539 762 666 548 650
8 652 551 668 763 533 433 550 651
8 654 552 669 764 536 434 551 652
8 655 549 431 537 765 665 547 653
8 538 435 549 655 654 552 667 766
8 661 554 671 768 542 436 553 656
8 658 558 440 540 769 674 556 657
8 658 558 675 770 540 440 557 659
8 659 557 673 771 541 439 555 660
8 660 555 672 772 543 437 554 661
8 788 686 570 676 704 591 473 590
8 677 571 453 560 788 686 570 676
8 679 573 455 562 789 687 571 677
8 566 459 577 683 678 575 691 790
8 681 574 456 564 791 689 573 679
8 680 572 688 792 567 460 578 684
8 681 574 688 792 564 456 572 680
8 682 576 692 794 566 459 577 683
8 569 461 579 685 682 576 692 794
8 568 462 578 684 685 579 694 796
8 687 581 464 571 798 696 580 686
8 798 696 580 686 705 592 474 591
8 689 583 466 573 799 697 581 687
8 688 582 698 800 578 471 588 694
8 690 584 698 800 574 467 582 688
8 690 584 467 574 801 699 583 689
8 693 587 701 803 577 470 585 691
8 693 587 470 577 804 702 586 692
8 695 589 702 804 579 472 586 692
8 695 589 472 579 805 703 588 694
8 708 595 705 813 593 475 591 704
8 710 596 706 814 595 476 592 705
8 707 594 479 602 816 709 600 719
8 708 595 475 593 817 711 594 707
8 709 598 478 600 819 715 599 717
8 711 597 477 594 820 714 598 709
8 710 596 476 595 822 713 597 711
8 600 478 601 720 717 599 718 832
8 602 479 603 722 719 600 720 834
8 720 601 480 603 835 721 604 723
8 722 603 482 605 836 723 606 724
8 767 670 725 839 656 553 608 726
8 756 656 726 841 645 542 609 728
8 726 608 727 842 609 487 610 729
8 728 609 729 843 611 488 612 730
8 844 740 624 731 790 691 575 678
8 733 625 504 616 844 740 624 731
8 734 623 502 617 845 739 622 732
8 733 625 739 845 616 504 622 732
8 734 623 738 846 617 502 621 735
8 735 621 737 847 618 500 620 736
8 744 647 527 630 847 737 620 736
8 621 506 627 738 737 626 741 848
8 647 544 626 737 759 662 741 848
8 623 508 628 739 738 627 742 849
8 740 629 585 691 850 743 700 802
8 625 510 629 740 739 628 743 850
8 632 529 647 744 745 648 759 854
8 633 530 648 745 746 649 760 855
8 638 535 649 746 750 653 761 856
8 857 762 650 747 748 651 532 635
8 753 657 539 642 857 762 650 747
8 749 652 763 858 636 533 651 748
8 752 654 764 859 640 536 652 749
8 751 655 537 639 860 765 653 750
8 641 538 655 751 752 654 766 861
8 754 658 540 643 862 769 657 753
8 754 658 770 863 643 540 659 755
8 755 659 771 864 644 541 660 757
8 758 661 768 866 645 542 656 756
8 757 660 772 867 646 543 661 758
8 759 662 773 868 648 545 663 760
8 649 546 663 760 761 664 774 871
8 765 665 547 653 872 775 664 761
8 873 777 666 762 763 668 550 651
8 769 674 556 657 873 777 666 762
8 764 669 779 874 652 551 668 763
8 654 552 667 766 764 669 778 875
8 655 549 665 765 766 667 776 876
8 768 671 782 877 656 553 670 767
8 772 672 783 878 661 554 671 768
8 658 558 674 769 770 675 786 879
8 659 557 675 770 771 673 785 881
8 882 784 672 772 771 673 555 660
8 789 687 571 677 897 798 686 788
8 897 798 686 788 813 705 591 704
8 791 689 573 679 898 799 687 789
8 795 693 803 900 683 577 691 790
8 793 690 574 681 901 801 689 791
8 792 688 800 902 684 578 694 796
8 793 690 800 902 681 574 688 792
8 795 693 577 683 903 804 692 794
8 797 695 804 903 685 579 692 794
8 797 695 579 685 904 805 694 796
8 905 806 697 799 798 696 581 687
8 814 706 806 905 705 592 696 798
8 689 583 697 799 801 699 808 907
8 800 698 809 908 694 588 703 805
8 690 584 699 801 800 698 809 908
8 803 701 810 909 691 585 700 802
8 693 587 702 804 803 701 811 910
8 695 589 703 805 804 702 812 911
8 818 710 814 919 708 595 705 813
8 821 712 815 920 710 596 706 814
8 816 709 600 719 922 819 717 831
8 817 711 594 707 923 820 709 816
8 818 710 595 708 924 822 711 817
8 819 715 599 717 926 827 716 829
8 820 714 598 709 927 826 715 819
8 929 825 713 822 820 714 597 711
8 821 712 596 710 930 824 713 822
8 717 599 718 832 829 716 830 942
8 719 600 720 834 831 717 832 944
8 832 718 601 720 945 833 721 835
8 834 720 603 722 946 835 723 836
8 869 780 838 950 767 670 725 839
8 865 767 839 952 756 656 726 841
8 839 725 840 953 726 608 727 842
8 841 726 842 954 728 609 729 843
8 844 740 691 790 955 850 802 899
8 733 625 740 844 845 739 850 955
8 734 623 739 845 846 738 849 956
8 735 621 738 846 847 737 848 957
8 744 647 737 847 854 759 848 957
8 738 627 742 849 848 741 851 958
8 848 741 851 958 759 662 773 868
8 850 743 700 802 959 852 807 906
8 849 742 628 739 959 852 743 850
8 854 759 868 965 745 648 760 855
8 746 649 760 855 856 761 871 966
8 860 765 653 750 967 872 761 856
8 968 873 762 857 858 763 651 748
8 862 769 657 753 968 873 762 857
8 859 764 874 969 749 652 763 858
8 752 654 766 861 859 764 875 970
8 751 655 765 860 861 766 876 971
8 754 658 769 862 863 770 879 972
8 755 659 770 863 864 771 881 974
8 976 882 772 867 864 771 660 757
8 866 768 877 977 756 656 767 865
8 867 772 878 978 758 661 768 866
8 760 663 773 868 871 774 883 980
8 870 781 837 948 982 890 780 869
8 982 890 780 869 877 782 670 767
8 761 664 774 871 872 775 884 984
8 876 776 665 765 985 885 775 872
8 873 777 668 763 986 887 779 874
8 769 674 777 873 879 786 887 986
8 764 669 778 875 874 779 888 987
8 766 667 776 876 875 778 886 988
8 878 783 892 989 768 671 782 877
8 878 783 672 772 990 893 784 882
8 880 787 675 770 991 896 786 879
8 880 787 895 992 770 675 785 881
8 881 785 894 993 771 673 784 882
8 1006 905 799 898 897 798 687 789
8 919 814 905 1006 813 705 798 897
8 791 689 799 898 901 801 907 1007
8 900 803 909 1009 790 691 802 899
8 795 693 804 903 900 803 910 1010
8 902 800 908 1011 796 694 805 904
8 793 690 801 901 902 800 908 1011
8 797 695 805 904 903 804 911 1012
8 799 697 806 905 907 808 912 1013
8 920 815 912 1013 814 706 806 905
8 802 700 810 909 906 807 913 1014
8 801 699 808 907 908 809 914 1015
8 805 703 809 908 911 812 915 1016
8 803 701 811 910 909 810 916 1017
8 911 812 917 1018 804 702 811 910
8 925 821 920 1030 818 710 814 919
8 928 823 921 1031 821 712 815 920
8 922 819 717 831 1033 926 829 941
8 923 820 709 816 1034 927 819 922
8 1035 929 822 924 923 820 711 817
8 925 821 710 818 1036 930 822 924
8 1038 933 825 929 927 826 714 820
8 926 827 716 829 1039 935 828 939
8 927 826 715 819 1040 934 827 926
8 928 823 712 821 1041 931 824 930
8 1042 932 824 930 929 825 713 822
8 829 716 830 942 939 828 940 1058
8 831 717 832 944 941 829 942 1060
8 942 830 718 832 1061 943 833 945
8 944 832 720 834 1062 945 835 946
8 981 889 947 1064 870 781 837 948
8 948 837 949 1067 869 780 838 950
8 975 869 950 1069 865 767 839 952
8 950 838 951 1070 839 725 840 953
8 952 839 953 1071 841 726 842 954
8 955 850 802 899 1072 959 906 1008
8 956 849 739 845 1072 959 850 955
8 846 738 849 956 957 848 958 1073
8 957 848 958 1073 854 759 868 965
8 849 742 852 959 958 851 961 1076
8 960 853 961 1076 906 807 852 959
8 958 851 961 1076 868 773 883 980
8 960 853 807 906 1077 963 913 1014
8 855 760 868 965 966 871 980 1085
8 856 761 871 966 967 872 984 1086
8 971 876 765 860 1087 985 872 967
8 968 873 763 858 1088 986 874 969
8 862 769 873 968 972 879 986 1088
8 859 764 875 970 969 874 987 1089
8 861 766 876 971 970 875 988 1090
8 973 880 770 863 1091 991 879 972
8 973 880 992 1092 863 770 881 974
8 974 881 993 1093 864 771 882 976
8 979 870 948 1066 1094 982 869 975
8 1094 982 869 975 977 877 767 865
8 978 878 772 867 1095 990 882 976
8 978 878 989 1096 866 768 877 977
8 871 774 883 980 984 884 994 1099
8 983 891 999 1100 870 781 889 981
8 1101 1000 890 982 989 892 782 877
8 983 891 781 870 1101 1000 890 982
8 872 775 884 984 985 885 995 1103
8 876 776 885 985 988 886 996 1104
8 986 887 779 874 1105 998 888 987
8 879 786 887 986 991 896 998 1105
8 875 778 886 988 987 888 997 1106
8 990 893 1002 1107 878 783 892 989
8 1108 1003 893 990 993 894 784 882
8 880 787 896 991 992 895 1005 1109
8 993 894 785 881 1110 1004 895 992
8 898 799 905 1006 1007 907 1013 1120
8 1030 920 1013 1120 919 814 905 1006
8 901 801 907 1007 1011 908 1015 1121
8 899 802 909 1009 1008 906 1014 1122
8 900 803 910 1010 1009 909 1017 1123
8 1012 911 1018 1124 903 804 910 1010
8 904 805 908 1011 1012 911 1016 1125
8 1013 912 1020 1127 907 808 914 1015
8 1031 921 1020 1127 920 815 912 1013
8 1019 918 962 1075 1128 1021 913 1014
8 1128 1021 913 1014 1017 916 810 909
8 1015 914 1022 1129 908 809 915 1016
8 1016 915 1023 1130 911 812 917 1018
8 1018 917 1024 1131 910 811 916 1017
8 1037 928 1031 1148 925 821 920 1030
8 928 823 931 1041 1031 921 1032 1149
8 1033 926 829 941 1151 1039 939 1057
8 1034 927 819 922 1152 1040 926 1033
8 1153 1038 929 1035 1034 927 820 923
8 1154 1042 930 1036 1035 929 822 924
8 1037 928 821 925 1155 1041 930 1036
8 1039 935 828 939 1156 1047 938 1055
8 1157 1043 932 1042 1038 933 825 929
8 1038 933 826 927 1158 1045 934 1040
8 1040 934 827 926 1159 1046 935 1039
8 930 824 932 1042 1041 931 1044 1160
8 1051 936 1048 1165 1175 1052 937 1053
8 1156 1047 938 1055 1053 937 1054 1178
8 939 828 940 1058 1055 938 1056 1181
8 941 829 942 1060 1057 939 1058 1183
8 942 830 943 1061 1058 940 1059 1184
8 1060 942 832 944 1185 1061 945 1062
8 1082 964 1063 1188 981 889 947 1064
8 1097 981 1064 1190 979 870 948 1066
8 1064 947 1065 1191 948 837 949 1067
8 1066 948 1067 1193 975 869 950 1069
8 1067 949 1068 1194 950 838 951 1070
8 1069 950 1070 1195 952 839 953 1071
8 956 849 959 1072 1073 958 1076 1197
8 1074 960 1076 1197 1008 906 959 1072
8 1073 958 1076 1197 965 868 980 1085
8 1074 960 906 1008 1198 1077 1014 1122
8 1133 1026 1079 1199 1019 918 962 1075
8 1077 963 913 1014 1200 1080 962 1075
8 960 853 963 1077 1076 961 1078 1201
8 980 883 961 1076 1099 994 1078 1201
8 1210 1083 964 1082 1100 999 889 981
8 966 871 980 1085 1086 984 1099 1215
8 967 872 984 1086 1087 985 1103 1216
8 971 876 985 1087 1090 988 1104 1217
8 1088 986 874 969 1218 1105 987 1089
8 972 879 986 1088 1091 991 1105 1218
8 970 875 988 1090 1089 987 1106 1219
8 973 880 991 1091 1092 992 1109 1220
8 1093 993 881 974 1221 1110 992 1092
8 1222 1108 990 1095 1093 993 882 976
8 1223 1101 982 1094 1096 989 877 977
8 1098 983 870 979 1223 1101 982 1094
8 1095 990 1107 1224 978 878 989 1096
8 1098 983 1100 1225 979 870 981 1097
8 984 884 994 1099 1103 995 1111 1227
8 1102 1001 1115 1228 983 891 999 1100
8 1101 1000 892 989 1229 1116 1002 1107
8 1102 1001 891 983 1229 1116 1000 1101
8 985 885 995 1103 1104 996 1112 1230
8 988 886 996 1104 1106 997 1113 1231
8 1105 998 888 987 1232 1114 997 1106
8 991 896 998 1105 1109 1005 1114 1232
8 1108 1003 1117 1233 990 893 1002 1107
8 1108 1003 894 993 1233 1117 1004 1110
8 992 895 1005 1109 1110 1004 1118 1234
8 1120 1013 1127 1244 1007 907 1015 1121
8 1148 1031 1127 1244 1030 920 1013 1120
8 1121 1015 1129 1245 1011 908 1016 1125
8 1126 1019 1075 1196 1246 1128 1014 1122
8 1246 1128 1014 1122 1123 1017 909 1009
8 1124 1018 1131 1247 1010 910 1017 1123
8 1125 1016 1130 1248 1012 911 1018 1124
8 1127 1020 1137 1254 1015 914 1022 1129
8 1031 921 1032 1149 1127 1020 1137 1254
8 1134 1027 918 1019 1257 1140 1021 1128
8 1257 1140 1021 1128 1131 1024 916 1017
8 1129 1022 1141 1258 1016 915 1023 1130
8 1130 1023 1142 1259 1018 917 1024 1131
8 1261 1144 1025 1132 1133 1026 1079 1199
8 1255 1138 1025 1132 1135 1028 1144 1261
8 1133 1026 918 1019 1262 1145 1027 1134
8 1136 1029 1139 1256 1263 1146 1028 1135
8 1037 928 1041 1155 1148 1031 1149 1275
8 1041 931 1044 1160 1149 1032 1150 1276
8 1151 1039 939 1057 1278 1156 1055 1180
8 1152 1040 926 1033 1279 1159 1039 1151
8 1153 1038 927 1034 1280 1158 1040 1152
8 1281 1157 1042 1154 1153 1038 929 1035
8 1036 930 1042 1154 1155 1041 1160 1282
8 1283 1164 1046 1159 1156 1047 935 1039
8 1165 1048 1164 1283 1053 937 1047 1156
8 1157 1043 933 1038 1284 1161 1045 1158
8 1157 1043 1161 1284 1042 932 1044 1160
8 1040 934 1046 1159 1158 1045 1163 1285
8 1166 1049 1167 1292 1051 936 1048 1165
8 1166 1049 936 1051 1293 1168 1050 1172
8 1051 936 1052 1175 1172 1050 1173 1306
8 1174 1051 1165 1290 1308 1175 1053 1177
8 1053 937 1054 1178 1175 1052 1176 1309
8 1278 1156 1055 1180 1177 1053 1178 1311
8 1055 938 1056 1181 1178 1054 1179 1312
8 1057 939 1058 1183 1180 1055 1181 1314
8 1058 940 1059 1184 1181 1056 1182 1315
8 1060 942 1061 1185 1183 1058 1184 1316
8 1208 1081 1187 1321 1082 964 1063 1188
8 1209 1082 1188 1322 1097 981 1064 1190
8 1188 1063 1189 1323 1064 947 1065 1191
8 1190 1064 1191 1325 1066 948 1067 1193
8 1191 1065 1192 1326 1067 949 1068 1194
8 1067 1193 1069 950 1194 1327 1195 1070
8 1250 1133 1199 1330 1126 1019 1075 1196
8 1198 1077 1014 1122 1331 1200 1075 1196
8 1074 960 1077 1198 1197 1076 1201 1332
8 1085 980 1076 1197 1215 1099 1201 1332
8 1199 1079 1203 1333 1075 962 1080 1200
8 1132 1025 1119 1243 1199 1079 1203 1333
8 1201 1078 963 1077 1334 1202 1080 1200
8 1099 994 1078 1201 1227 1111 1202 1334
8 1343 1207 1081 1208 1210 1083 964 1082
8 1214 1084 1186 1319 1343 1207 1081 1208
8 1345 1210 1082 1209 1225 1100 981 1097
8 1346 1211 1083 1210 1228 1115 999 1100
8 1086 984 1099 1215 1216 1103 1227 1352
8 1087 985 1103 1216 1217 1104 1230 1353
8 1090 988 1104 1217 1219 1106 1231 1354
8 1218 1105 987 1089 1355 1232 1106 1219
8 1091 991 1105 1218 1220 1109 1232 1355
8 1092 992 1109 1220 1221 1110 1234 1356
8 1222 1108 1233 1357 1095 990 1107 1224
8 1222 1108 993 1093 1357 1233 1110 1221
8 1223 1101 989 1096 1358 1229 1107 1224
8 1226 1102 983 1098 1358 1229 1101 1223
8 1226 1102 1228 1359 1098 983 1100 1225
8 1103 995 1111 1227 1230 1112 1235 1360
8 1107 1002 1117 1233 1229 1116 1240 1362
8 1102 1001 1116 1229 1228 1115 1240 1362
8 1104 996 1112 1230 1231 1113 1236 1363
8 1364 1237 1114 1232 1231 1113 997 1106
8 1109 1005 1114 1232 1234 1118 1238 1365
8 1110 1004 1118 1234 1233 1117 1241 1366
8 1242 1374 1255 1138 1119 1243 1132 1025
8 1244 1127 1254 1376 1121 1015 1129 1245
8 1148 1031 1149 1275 1244 1127 1254 1376
8 1245 1129 1258 1377 1125 1016 1130 1248
8 1251 1134 1019 1126 1378 1257 1128 1246
8 1378 1257 1128 1246 1247 1131 1017 1123
8 1248 1130 1259 1379 1124 1018 1131 1247
8 1261 1381 1250 1133 1132 1249 1330 1199
8 1255 1380 1252 1135 1132 1249 1381 1261
8 1250 1133 1019 1126 1382 1262 1134 1251
8 1253 1136 1256 1385 1384 1263 1135 1252
8 1254 1137 1265 1387 1129 1022 1141 1258
8 1149 1032 1150 1276 1254 1137 1265 1387
8 1028 1135 1255 1138 1139 1256 1388 1266
8 1136 1029 1147 1264 1256 1139 1267 1389
8 1390 1268 1140 1257 1259 1142 1024 1131
8 1260 1143 1027 1134 1390 1268 1140 1257
8 1258 1141 1269 1391 1130 1023 1142 1259
8 1262 1145 1027 1134 1393 1271 1143 1260
8 1261 1144 1026 1133 1394 1272 1145 1262
8 1135 1028 1144 1261 1263 1146 1272 1394
8 1136 1029 1146 1263 1264 1147 1273 1395
8 1155 1041 1160 1282 1275 1149 1276 1405
8 1276 1150 1044 1160 1406 1277 1162 1286
8 1408 1283 1159 1279 1278 1156 1039 1151
8 1290 1165 1283 1408 1177 1053 1156 1278
8 1152 1040 1159 1279 1280 1158 1285 1409
8 1281 1157 1038 1153 1410 1284 1158 1280
8 1281 1157 1284 1410 1154 1042 1160 1282
8 1159 1046 1164 1283 1285 1163 1289 1412
8 1292 1167 1289 1412 1165 1048 1164 1283
8 1158 1045 1163 1285 1284 1161 1288 1413
8 1284 1161 1288 1413 1160 1044 1162 1286
8 1291 1166 1292 1418 1174 1051 1165 1290
8 1291 1166 1051 1174 1419 1293 1172 1305
8 1294 1169 1296 1421 1166 1049 1167 1292
8 1293 1168 1050 1172 1422 1295 1171 1303
8 1294 1169 1049 1166 1423 1297 1168 1293
8 1422 1295 1171 1303 1301 1170 1302 1435
8 1172 1050 1173 1306 1303 1171 1304 1438
8 1174 1051 1175 1308 1305 1172 1306 1440
8 1175 1052 1176 1309 1306 1173 1307 1441
8 1177 1053 1178 1311 1308 1175 1309 1443
8 1178 1054 1179 1312 1309 1176 1310 1444
8 1180 1055 1181 1314 1311 1178 1312 1446
8 1056 1181 1312 1179 1182 1315 1447 1313
8 1183 1058 1184 1316 1314 1181 1315 1448
8 1319 1186 1084 1214 1451 1317 1213 1350
8 1319 1186 1318 1453 1208 1081 1187 1321
8 1321 1187 1320 1456 1188 1063 1189 1323
8 1344 1208 1321 1457 1209 1082 1188 1322
8 1322 1188 1323 1458 1190 1064 1191 1325
8 1323 1189 1324 1459 1191 1065 1192 1326
8 1191 1325 1193 1067 1326 1460 1327 1194
8 1242 1374 1243 1119 1328 1462 1335 1204
8 1330 1199 1333 1465 1196 1075 1200 1331
8 1132 1249 1330 1199 1243 1375 1465 1333
8 1332 1201 1077 1198 1466 1334 1200 1331
8 1215 1099 1201 1332 1352 1227 1334 1466
8 1119 1243 1333 1203 1204 1335 1470 1338
8 1333 1203 1338 1470 1200 1080 1202 1334
8 1227 1111 1202 1334 1360 1235 1338 1470
8 1328 1462 1335 1204 1205 1336 1471 1339
8 1337 1206 1340 1472 1464 1329 1205 1336
8 1346 1211 1342 1479 1210 1083 1207 1343
8 1346 1211 1115 1228 1479 1342 1239 1361
8 1348 1212 1084 1214 1479 1342 1207 1343
8 1480 1343 1208 1344 1345 1210 1082 1209
8 1351 1214 1319 1454 1480 1343 1208 1344
8 1481 1346 1210 1345 1359 1228 1100 1225
8 1348 1212 1347 1483 1214 1084 1213 1350
8 1216 1103 1227 1352 1353 1230 1360 1488
8 1217 1104 1230 1353 1354 1231 1363 1489
8 1490 1364 1232 1355 1354 1231 1106 1219
8 1220 1109 1232 1355 1356 1234 1365 1491
8 1221 1110 1234 1356 1357 1233 1366 1492
8 1224 1107 1233 1357 1358 1229 1362 1493
8 1226 1102 1229 1358 1359 1228 1362 1493
8 1230 1112 1235 1360 1363 1236 1367 1496
8 1361 1239 1115 1228 1497 1371 1240 1362
8 1366 1241 1372 1498 1233 1117 1240 1362
8 1364 1237 1113 1231 1499 1368 1236 1363
8 1364 1237 1368 1499 1232 1114 1238 1365
8 1234 1118 1238 1365 1366 1241 1369 1500
8 1507 1373 1242 1374 1388 1266 1138 1255
8 1508 1374 1243 1375 1380 1255 1132 1249
8 1376 1254 1387 1509 1245 1129 1258 1377
8 1275 1149 1276 1405 1376 1254 1387 1509
8 1377 1258 1391 1510 1248 1130 1259 1379
8 1511 1390 1257 1378 1379 1259 1131 1247
8 1383 1260 1134 1251 1511 1390 1257 1378
8 1252 1135 1256 1385 1380 1255 1388 1512
8 1261 1381 1513 1394 1133 1250 1382 1262
8 1135 1252 1384 1263 1261 1381 1513 1394
8 1382 1262 1134 1251 1514 1393 1260 1383
8 1253 1136 1263 1384 1386 1264 1395 1516
8 1253 1136 1264 1386 1385 1256 1389 1517
8 1387 1265 1397 1519 1258 1141 1269 1391
8 1276 1150 1277 1406 1387 1265 1397 1519
8 1256 1139 1267 1389 1388 1266 1398 1520
8 1264 1147 1274 1396 1389 1267 1399 1521
8 1392 1270 1143 1260 1522 1400 1268 1390
8 1390 1268 1142 1259 1522 1400 1269 1391
8 1392 1270 1401 1523 1260 1143 1271 1393
8 1272 1394 1524 1402 1145 1262 1393 1271
8 1395 1273 1146 1263 1524 1402 1272 1394
8 1273 1395 1264 1147 1403 1526 1396 1274
8 1405 1276 1160 1282 1534 1406 1286 1411
8 1414 1287 1407 1535 1286 1162 1277 1406
8 1279 1159 1283 1408 1409 1285 1412 1537
8 1418 1292 1412 1537 1290 1165 1283 1408
8 1280 1158 1285 1409 1410 1284 1413 1538
8 1410 1284 1413 1538 1282 1160 1286 1411
8 1285 1163 1289 1412 1413 1288 1417 1540
8 1421 1296 1417 1540 1292 1167 1289 1412
8 1414 1287 1162 1286 1541 1416 1288 1413
8 1420 1294 1421 1545 1291 1166 1292 1418
8 1419 1293 1172 1305 1546 1422 1303 1437
8 1420 1294 1166 1291 1547 1423 1293 1419
8 1294 1169 1297 1423 1421 1296 1425 1548
8 1423 1297 1168 1293 1549 1424 1295 1422
8 1301 1170 1298 1427 1422 1295 1424 1549
8 1432 1300 1428 1554 1301 1170 1298 1427
8 1431 1299 1428 1554 1560 1430 1300 1432
8 1563 1433 1300 1432 1435 1302 1170 1301
8 1546 1422 1303 1437 1434 1301 1435 1565
8 1303 1171 1304 1438 1435 1302 1436 1566
8 1305 1172 1306 1440 1437 1303 1438 1568
8 1306 1173 1307 1441 1438 1304 1439 1569
8 1308 1175 1309 1443 1440 1306 1441 1571
8 1309 1176 1310 1444 1441 1307 1442 1572
8 1311 1178 1312 1446 1443 1309 1444 1574
8 1179 1312 1444 1310 1313 1447 1575 1445
8 1314 1181 1315 1448 1446 1312 1447 1576
8 1350 1213 1349 1486 1451 1317 1449 1579
8 1451 1317 1450 1581 1319 1186 1318 1453
8 1454 1319 1214 1351 1582 1451 1350 1487
8 1453 1318 1452 1584 1321 1187 1320 1456
8 1454 1319 1453 1585 1344 1208 1321 1457
8 1456 1320 1455 1586 1323 1189 1324 1459
8 1457 1321 1456 1587 1322 1188 1323 1458
8 1458 1323 1459 1588 1325 1191 1326 1460
8 1205 1336 1464 1329 1328 1462 1590 1461
8 1507 1373 1461 1590 1374 1242 1328 1462
8 1508 1374 1462 1591 1375 1243 1335 1467
8 1337 1206 1329 1464 1473 1341 1463 1594
8 1375 1243 1335 1467 1465 1333 1470 1596
8 1465 1333 1470 1596 1331 1200 1334 1466
8 1352 1227 1334 1466 1488 1360 1470 1596
8 1591 1462 1336 1468 1467 1335 1471 1597
8 1469 1337 1472 1598 1595 1464 1336 1468
8 1471 1339 1474 1600 1335 1204 1338 1470
8 1600 1474 1367 1496 1470 1338 1235 1360
8 1336 1205 1340 1472 1471 1339 1475 1601
8 1337 1206 1341 1473 1472 1340 1476 1602
8 1495 1370 1478 1609 1361 1239 1342 1479
8 1348 1212 1342 1479 1483 1347 1478 1609
8 1481 1346 1479 1610 1345 1210 1343 1480
8 1481 1346 1228 1359 1610 1479 1361 1494
8 1484 1348 1214 1351 1610 1479 1343 1480
8 1483 1347 1482 1612 1350 1213 1349 1486
8 1484 1348 1483 1613 1351 1214 1350 1487
8 1353 1230 1360 1488 1489 1363 1496 1616
8 1490 1364 1231 1354 1617 1499 1363 1489
8 1490 1364 1499 1617 1355 1232 1365 1491
8 1356 1234 1365 1491 1492 1366 1500 1619
8 1492 1366 1498 1620 1357 1233 1362 1493
8 1494 1361 1228 1359 1621 1497 1362 1493
8 1495 1370 1239 1361 1622 1504 1371 1497
8 1363 1236 1367 1496 1499 1368 1501 1623
8 1497 1371 1240 1362 1624 1505 1372 1498
8 1625 1503 1372 1498 1500 1369 1241 1366
8 1365 1238 1368 1499 1500 1369 1502 1626
8 1520 1398 1506 1633 1388 1266 1373 1507
8 1634 1507 1374 1508 1512 1388 1255 1380
8 1509 1387 1519 1635 1377 1258 1391 1510
8 1405 1276 1406 1534 1509 1387 1519 1635
8 1515 1392 1260 1383 1636 1522 1390 1511
8 1511 1390 1259 1379 1636 1522 1391 1510
8 1385 1256 1389 1517 1512 1388 1520 1637
8 1513 1394 1262 1382 1638 1524 1393 1514
8 1395 1516 1638 1524 1263 1384 1513 1394
8 1515 1392 1523 1639 1383 1260 1393 1514
8 1516 1395 1526 1640 1386 1264 1396 1518
8 1386 1264 1396 1518 1517 1389 1521 1641
8 1519 1397 1527 1643 1391 1269 1400 1522
8 1535 1407 1527 1643 1406 1277 1397 1519
8 1389 1267 1399 1521 1520 1398 1528 1644
8 1645 1529 1399 1521 1525 1404 1274 1396
8 1392 1270 1400 1522 1523 1401 1531 1646
8 1524 1402 1271 1393 1648 1532 1401 1523
8 1403 1526 1648 1532 1273 1395 1524 1402
8 1525 1404 1274 1396 1649 1533 1403 1526
8 1539 1414 1535 1657 1411 1286 1406 1534
8 1542 1415 1536 1658 1414 1287 1407 1535
8 1409 1285 1412 1537 1538 1413 1540 1660
8 1545 1421 1540 1660 1418 1292 1412 1537
8 1539 1414 1286 1411 1661 1541 1413 1538
8 1540 1417 1544 1663 1413 1288 1416 1541
8 1421 1296 1425 1548 1540 1417 1544 1663
8 1542 1415 1287 1414 1664 1543 1416 1541
8 1420 1294 1423 1547 1545 1421 1548 1666
8 1547 1423 1293 1419 1667 1549 1422 1546
8 1434 1301 1427 1553 1546 1422 1549 1667
8 1423 1297 1424 1549 1548 1425 1550 1668
8 1551 1426 1550 1668 1427 1298 1424 1549
8 1551 1426 1298 1427 1671 1552 1428 1554
8 1562 1432 1554 1674 1434 1301 1427 1553
8 1431 1299 1429 1558 1554 1428 1555 1675
8 1431 1299 1430 1560 1558 1429 1557 1680
8 1560 1430 1300 1432 1683 1559 1433 1563
8 1561 1431 1554 1674 1684 1560 1432 1562
8 1685 1563 1432 1562 1565 1435 1301 1434
8 1435 1302 1436 1566 1563 1433 1564 1686
8 1437 1303 1438 1568 1565 1435 1566 1688
8 1438 1304 1439 1569 1566 1436 1567 1689
8 1440 1306 1441 1571 1568 1438 1569 1691
8 1441 1307 1442 1572 1569 1439 1570 1692
8 1443 1309 1444 1574 1571 1441 1572 1694
8 1310 1444 1572 1442 1445 1575 1695 1573
8 1446 1312 1447 1576 1574 1444 1575 1696
8 1486 1349 1485 1614 1579 1449 1577 1699
8 1451 1317 1449 1579 1581 1450 1578 1701
8 1487 1350 1486 1615 1582 1451 1579 1702
8 1581 1450 1580 1704 1453 1318 1452 1584
8 1582 1451 1581 1705 1454 1319 1453 1585
8 1584 1452 1583 1706 1456 1320 1455 1586
8 1585 1453 1584 1707 1457 1321 1456 1587
8 1587 1456 1586 1708 1458 1323 1459 1588
8 1633 1506 1589 1710 1507 1373 1461 1590
8 1464 1329 1461 1590 1594 1463 1589 1710
8 1468 1336 1462 1591 1595 1464 1590 1711
8 1634 1507 1590 1711 1508 1374 1462 1591
8 1473 1341 1463 1594 1603 1477 1593 1716
8 1469 1337 1464 1595 1599 1473 1594 1717
8 1471 1597 1467 1335 1600 1718 1596 1470
8 1718 1600 1496 1616 1596 1470 1360 1488
8 1336 1468 1597 1471 1472 1598 1719 1601
8 1469 1337 1473 1599 1598 1472 1602 1720
8 1722 1604 1501 1623 1600 1474 1367 1496
8 1475 1601 1471 1339 1604 1722 1600 1474
8 1602 1476 1605 1723 1472 1340 1475 1601
8 1476 1602 1724 1606 1341 1473 1603 1477
8 1483 1347 1478 1609 1612 1482 1608 1731
8 1495 1370 1504 1622 1609 1478 1608 1731
8 1618 1495 1609 1732 1494 1361 1479 1610
8 1484 1348 1479 1610 1613 1483 1609 1732
8 1486 1349 1482 1612 1614 1485 1611 1733
8 1613 1483 1612 1734 1487 1350 1486 1615
8 1489 1363 1496 1616 1617 1499 1623 1736
8 1491 1365 1499 1617 1619 1500 1626 1737
8 1618 1495 1361 1494 1738 1622 1497 1621
8 1739 1625 1498 1620 1619 1500 1366 1492
8 1621 1497 1362 1493 1740 1624 1498 1620
8 1742 1631 1504 1622 1624 1505 1371 1497
8 1743 1628 1502 1626 1623 1501 1368 1499
8 1744 1630 1505 1624 1625 1503 1372 1498
8 1745 1629 1503 1625 1626 1502 1369 1500
8 1520 1398 1528 1644 1633 1506 1632 1751
8 1637 1520 1633 1752 1512 1388 1507 1634
8 1635 1519 1643 1753 1510 1391 1522 1636
8 1657 1535 1643 1753 1534 1406 1519 1635
8 1515 1392 1522 1636 1639 1523 1646 1754
8 1517 1389 1521 1641 1637 1520 1644 1755
8 1524 1638 1756 1648 1393 1514 1639 1523
8 1640 1526 1395 1516 1756 1648 1524 1638
8 1642 1525 1396 1518 1757 1649 1526 1640
8 1758 1645 1521 1641 1642 1525 1396 1518
8 1646 1531 1400 1522 1760 1650 1527 1643
8 1535 1407 1536 1658 1643 1527 1650 1760
8 1521 1399 1529 1645 1644 1528 1651 1761
8 1647 1530 1652 1762 1525 1404 1529 1645
8 1401 1523 1648 1532 1531 1646 1763 1655
8 1525 1404 1533 1649 1647 1530 1654 1765
8 1533 1649 1766 1656 1403 1526 1648 1532
8 1662 1542 1658 1774 1539 1414 1535 1657
8 1542 1415 1543 1664 1658 1536 1659 1775
8 1660 1540 1663 1777 1538 1413 1541 1661
8 1545 1421 1548 1666 1660 1540 1663 1777
8 1662 1542 1414 1539 1778 1664 1541 1661
8 1664 1543 1416 1541 1779 1665 1544 1663
8 1548 1425 1550 1668 1663 1544 1665 1779
8 1547 1423 1549 1667 1666 1548 1668 1781
8 1670 1551 1668 1781 1553 1427 1549 1667
8 1551 1426 1552 1671 1668 1550 1669 1782
8 1670 1551 1427 1553 1784 1671 1554 1674
8 1675 1555 1672 1785 1554 1428 1552 1671
8 1678 1556 1673 1789 1558 1429 1555 1675
8 1561 1431 1558 1681 1674 1554 1675 1790
8 1794 1677 1556 1678 1680 1557 1429 1558
8 1560 1430 1559 1683 1680 1557 1679 1797
8 1561 1431 1560 1684 1681 1558 1680 1798
8 1563 1433 1564 1686 1683 1559 1682 1800
8 1684 1560 1432 1562 1801 1683 1563 1685
8 1565 1435 1566 1688 1685 1563 1686 1802
8 1566 1436 1567 1689 1686 1564 1687 1803
8 1568 1438 1569 1691 1688 1566 1689 1805
8 1569 1439 1570 1692 1689 1567 1690 1806
8 1571 1441 1572 1694 1691 1569 1692 1808
8 1442 1572 1692 1570 1573 1695 1809 1693
8 1574 1444 1575 1696 1694 1572 1695 1810
8 1614 1485 1592 1712 1699 1577 1697 1813
8 1579 1449 1577 1699 1701 1578 1698 1815
8 1615 1486 1614 1735 1702 1579 1699 1816
8 1701 1578 1700 1818 1581 1450 1580 1704
8 1582 1451 1579 1702 1705 1581 1701 1819
8 1704 1580 1703 1820 1584 1452 1583 1706
8 1705 1581 1704 1821 1585 1453 1584 1707
8 1707 1584 1706 1822 1587 1456 1586 1708
8 1710 1589 1506 1633 1824 1709 1632 1751
8 1594 1463 1589 1710 1716 1593 1709 1824
8 1752 1633 1710 1825 1634 1507 1590 1711
8 1595 1464 1590 1711 1717 1594 1710 1825
8 1830 1714 1592 1712 1733 1611 1485 1614
8 1603 1477 1593 1716 1725 1607 1715 1834
8 1599 1473 1594 1717 1721 1603 1716 1835
8 1837 1722 1623 1736 1718 1600 1496 1616
8 1719 1601 1722 1837 1597 1471 1600 1718
8 1602 1720 1598 1472 1723 1838 1719 1601
8 1720 1602 1473 1599 1839 1724 1603 1721
8 1723 1605 1726 1840 1601 1475 1604 1722
8 1840 1726 1628 1743 1722 1604 1501 1623
8 1724 1606 1727 1841 1602 1476 1605 1723
8 1725 1607 1728 1842 1603 1477 1606 1724
8 1612 1482 1608 1731 1733 1611 1730 1849
8 1741 1627 1730 1849 1622 1504 1608 1731
8 1613 1483 1609 1732 1734 1612 1731 1850
8 1618 1495 1622 1738 1732 1609 1731 1850
8 1615 1486 1612 1734 1735 1614 1733 1851
8 1852 1743 1626 1737 1736 1623 1499 1617
8 1853 1745 1625 1739 1737 1626 1500 1619
8 1855 1742 1622 1738 1740 1624 1497 1621
8 1856 1744 1624 1740 1739 1625 1498 1620
8 1741 1627 1504 1622 1857 1746 1631 1742
8 1742 1631 1505 1624 1858 1749 1630 1744
8 1859 1747 1629 1745 1743 1628 1502 1626
8 1860 1748 1630 1744 1745 1629 1503 1625
8 1644 1528 1651 1761 1751 1632 1750 1865
8 1637 1520 1644 1755 1752 1633 1751 1866
8 1754 1646 1522 1636 1867 1760 1643 1753
8 1657 1535 1658 1774 1753 1643 1760 1867
8 1639 1523 1646 1754 1756 1648 1763 1868
8 1641 1521 1645 1758 1755 1644 1761 1869
8 1757 1649 1526 1640 1870 1766 1648 1756
8 1642 1525 1649 1757 1759 1647 1765 1871
8 1759 1647 1762 1872 1642 1525 1645 1758
8 1760 1650 1767 1874 1646 1531 1655 1763
8 1658 1536 1659 1775 1760 1650 1767 1874
8 1762 1652 1768 1875 1645 1529 1651 1761
8 1764 1653 1769 1876 1647 1530 1652 1762
8 1656 1766 1877 1773 1532 1648 1763 1655
8 1771 1879 1765 1654 1653 1764 1647 1530
8 1533 1649 1765 1654 1656 1766 1880 1772
8 1662 1542 1664 1778 1774 1658 1775 1887
8 1664 1543 1665 1779 1775 1659 1776 1888
8 1778 1664 1541 1661 1890 1779 1663 1777
8 1666 1548 1668 1781 1777 1663 1779 1890
8 1782 1669 1780 1891 1668 1550 1665 1779
8 1670 1551 1671 1784 1781 1668 1782 1893
8 1671 1552 1672 1785 1782 1669 1783 1894
8 1790 1675 1785 1896 1674 1554 1671 1784
8 1675 1555 1673 1789 1785 1672 1786 1897
8 1792 1676 1788 1903 1678 1556 1673 1789
8 1795 1678 1789 1904 1681 1558 1675 1790
8 1792 1676 1556 1678 1906 1791 1677 1794
8 1680 1557 1679 1797 1794 1677 1793 1909
8 1910 1794 1678 1795 1798 1680 1558 1681
8 1683 1559 1682 1800 1797 1679 1796 1912
8 1684 1560 1683 1801 1798 1680 1797 1913
8 1686 1564 1687 1803 1800 1682 1799 1915
8 1685 1563 1686 1802 1801 1683 1800 1916
8 1688 1566 1689 1805 1802 1686 1803 1917
8 1689 1567 1690 1806 1803 1687 1804 1918
8 1691 1569 1692 1808 1805 1689 1806 1920
8 1692 1570 1693 1809 1806 1690 1807 1921
8 1694 1572 1695 1810 1808 1692 1809 1922
8 1829 1713 1811 1926 1712 1592 1697 1813
8 1813 1697 1812 1928 1699 1577 1698 1815
8 1735 1614 1712 1828 1816 1699 1813 1929
8 1815 1698 1814 1931 1701 1578 1700 1818
8 1702 1579 1699 1816 1819 1701 1815 1932
8 1818 1700 1817 1933 1704 1580 1703 1820
8 1819 1701 1818 1934 1705 1581 1704 1821
8 1821 1704 1820 1935 1707 1584 1706 1822
8 1824 1709 1632 1751 1937 1823 1750 1865
8 1716 1593 1709 1824 1834 1715 1823 1937
8 1825 1710 1633 1752 1938 1824 1751 1866
8 1717 1594 1710 1825 1835 1716 1824 1938
8 1945 1830 1712 1828 1851 1733 1614 1735
8 1830 1714 1831 1946 1712 1592 1713 1829
8 1947 1832 1714 1830 1849 1730 1611 1733
8 1843 1729 1607 1725 1950 1833 1715 1834
8 1721 1603 1716 1835 1836 1725 1834 1951
8 1836 1725 1842 1953 1721 1603 1724 1839
8 1723 1838 1719 1601 1840 1954 1837 1722
8 1954 1840 1743 1852 1837 1722 1623 1736
8 1724 1839 1720 1602 1841 1955 1838 1723
8 1841 1727 1844 1956 1723 1605 1726 1840
8 1956 1844 1747 1859 1840 1726 1628 1743
8 1728 1842 1724 1606 1845 1957 1841 1727
8 1725 1607 1729 1843 1842 1728 1846 1958
8 1741 1627 1746 1857 1849 1730 1848 1965
8 1734 1612 1731 1850 1851 1733 1849 1966
8 1854 1741 1849 1966 1738 1622 1731 1850
8 1967 1859 1745 1853 1852 1743 1626 1737
8 1968 1860 1744 1856 1853 1745 1625 1739
8 1854 1741 1622 1738 1969 1857 1742 1855
8 1855 1742 1624 1740 1970 1858 1744 1856
8 1857 1746 1631 1742 1971 1861 1749 1858
8 1858 1749 1630 1744 1972 1863 1748 1860
8 1859 1747 1862 1973 1745 1629 1748 1860
8 1875 1768 1864 1977 1761 1651 1750 1865
8 1755 1644 1761 1869 1866 1751 1865 1978
8 1867 1760 1874 1979 1754 1646 1763 1868
8 1774 1658 1775 1887 1867 1760 1874 1979
8 1870 1766 1648 1756 1980 1877 1763 1868
8 1872 1762 1875 1981 1758 1645 1761 1869
8 1757 1649 1766 1870 1871 1765 1880 1982
8 1983 1879 1764 1873 1871 1765 1647 1759
8 1873 1764 1876 1984 1759 1647 1762 1872
8 1877 1773 1655 1763 1986 1881 1767 1874
8 1775 1659 1776 1888 1874 1767 1881 1986
8 1876 1769 1882 1987 1762 1652 1768 1875
8 1878 1770 1883 1988 1764 1653 1769 1876
8 1880 1772 1656 1766 1989 1886 1773 1877
8 1878 1770 1653 1764 1990 1884 1771 1879
8 1765 1654 1772 1880 1879 1771 1885 1991
8 1778 1664 1779 1890 1887 1775 1888 1997
8 1998 1889 1776 1888 1891 1780 1665 1779
8 1893 1782 1891 2000 1781 1668 1779 1890
8 1894 1783 1892 2001 1782 1669 1780 1891
8 1784 1671 1785 1896 1893 1782 1894 2003
8 1897 1786 1895 2004 1785 1672 1783 1894
8 1790 1675 1789 1904 1896 1785 1897 2006
8 1901 1787 1898 2007 1789 1673 1786 1897
8 1903 1788 1900 2013 1789 1673 1787 1901
8 1792 1676 1791 1906 1903 1788 1902 2016
8 1907 1792 1903 2017 1795 1678 1789 1904
8 1906 1791 1677 1794 2019 1905 1793 1909
8 1907 1792 1678 1795 2020 1906 1794 1910
8 1797 1679 1796 1912 1909 1793 1908 2022
8 1798 1680 1797 1913 1910 1794 1909 2023
8 1800 1682 1799 1915 1912 1796 1911 2025
8 1801 1683 1800 1916 1913 1797 1912 2026
8 1803 1687 1804 1918 1915 1799 1914 2028
8 1802 1686 1803 1917 1916 1800 1915 2029
8 1805 1689 1806 1920 1917 1803 1918 2030
8 1806 1690 1807 1921 1918 1804 1919 2031
8 1808 1692 1809 1922 1920 1806 1921 2032
8 1939 1826 1924 2037 1829 1713 1811 1926
8 1926 1811 1925 2039 1813 1697 1812 1928
8 1944 1829 1926 2040 1828 1712 1813 1929
8 1928 1812 1927 2042 1815 1698 1814 1931
8 1929 1813 1928 2043 1816 1699 1815 1932
8 1931 1814 1930 2044 1818 1700 1817 1933
8 1932 1815 1931 2045 1819 1701 1818 1934
8 1934 1818 1933 2046 1821 1704 1820 1935
8 2048 1936 1823 1937 1977 1864 1750 1865
8 1950 1833 1715 1834 2048 1936 1823 1937
8 1938 1824 1751 1866 2049 1937 1865 1978
8 1835 1716 1824 1938 1951 1834 1937 2049
8 1939 1826 1713 1829 2053 1942 1831 1946
8 1940 1827 1923 2035 2053 1942 1826 1939
8 1945 1830 1946 2058 1828 1712 1829 1944
8 2059 1947 1830 1945 1966 1849 1733 1851
8 1947 1832 1730 1849 2060 1948 1848 1965
8 1947 1832 1948 2060 1830 1714 1831 1946
8 1959 1847 1729 1843 2063 1949 1833 1950
8 1952 1843 1725 1836 2064 1950 1834 1951
8 1836 1725 1843 1952 1953 1842 1958 2066
8 1953 1842 1957 2067 1839 1724 1841 1955
8 1841 1955 1838 1723 1956 2068 1954 1840
8 2068 1956 1859 1967 1954 1840 1743 1852
8 1956 1844 1960 2069 1859 1747 1862 1973
8 1845 1957 1841 1727 1960 2069 1956 1844
8 1728 1842 1957 1845 1846 1958 2071 1961
8 1962 2072 1959 1847 1846 1958 1843 1729
8 1971 1861 1964 2077 1857 1746 1848 1965
8 1854 1741 1857 1969 1966 1849 1965 2078
8 1967 1859 1973 2079 1853 1745 1860 1968
8 1970 1858 1744 1856 2080 1972 1860 1968
8 1969 1857 1742 1855 2081 1971 1858 1970
8 1971 1861 1749 1858 2082 1974 1863 1972
8 1973 1862 1975 2083 1860 1748 1863 1972
8 1987 1882 1976 2086 1875 1768 1864 1977
8 1981 1875 1977 2087 1869 1761 1865 1978
8 1980 1877 1763 1868 2088 1986 1874 1979
8 1887 1775 1888 1997 1979 1874 1986 2088
8 1880 1982 2089 1989 1766 1870 1980 1877
8 1984 1876 1987 2090 1872 1762 1875 1981
8 1765 1871 1983 1879 1880 1982 2091 1991
8 1985 1878 1764 1873 2092 1990 1879 1983
8 1985 1878 1988 2093 1873 1764 1876 1984
8 2094 1992 1881 1986 1998 1889 1776 1888
8 1986 1881 1992 2094 1877 1773 1886 1989
8 1988 1883 1993 2095 1876 1769 1882 1987
8 1878 1770 1884 1990 1988 1883 1994 2096
8 1991 1885 1772 1880 2097 1996 1886 1989
8 1879 1771 1885 1991 1990 1884 1995 2098
8 2103 1998 1888 1997 2000 1891 1779 1890
8 2104 1999 1889 1998 2001 1892 1780 1891
8 2003 1894 2001 2106 1893 1782 1891 2000
8 2004 1895 2002 2107 1894 1783 1892 2001
8 2006 1897 2004 2109 1896 1785 1894 2003
8 2007 1898 2005 2110 1897 1786 1895 2004
8 2014 1901 2007 2112 1904 1789 1897 2006
8 2011 1899 2008 2113 1901 1787 1898 2007
8 2119 2010 1899 2011 2013 1900 1787 1901
8 2016 1902 2012 2122 1903 1788 1900 2013
8 2017 1903 2013 2123 1904 1789 1901 2014
8 1906 1791 1905 2019 2016 1902 2015 2125
8 1907 1792 1906 2020 2017 1903 2016 2126
8 1909 1793 1908 2022 2019 1905 2018 2128
8 2020 1906 1794 1910 2129 2019 1909 2023
8 1912 1796 1911 2025 2022 1908 2021 2131
8 1913 1797 1912 2026 2023 1909 2022 2132
8 1915 1799 1914 2028 2025 1911 2024 2134
8 1916 1800 1915 2029 2026 1912 2025 2135
8 1918 1804 1919 2031 2028 1914 2027 2136
8 1917 1803 1918 2030 2029 1915 2028 2137
8 1920 1806 1921 2032 2030 1918 2031 2138
8 1940 1827 1941 2054 2035 1923 2033 2140
8 2035 1923 2034 2143 1939 1826 1924 2037
8 2037 1924 2036 2146 1926 1811 1925 2039
8 2051 1939 2037 2147 1944 1829 1926 2040
8 2039 1925 2038 2149 1928 1812 1927 2042
8 2040 1926 2039 2150 1929 1813 1928 2043
8 2042 1927 2041 2151 1931 1814 1930 2044
8 2043 1928 2042 2152 1932 1815 1931 2045
8 2045 1931 2044 2153 1934 1818 1933 2046
8 2155 2047 1936 2048 2086 1976 1864 1977
8 2063 1949 1833 1950 2155 2047 1936 2048
8 2156 2048 1937 2049 2087 1977 1865 1978
8 2064 1950 1834 1951 2156 2048 1937 2049
8 2051 1939 1829 1944 2160 2053 1946 2058
8 2052 1940 2035 2144 2160 2053 1939 2051
8 2053 1942 1831 1946 2163 2057 1948 2060
8 2055 1943 1827 1940 2163 2057 1942 2053
8 2055 1943 2056 2164 1940 1827 1941 2054
8 2059 1947 1849 1966 2167 2060 1965 2078
8 2059 1947 2060 2167 1945 1830 1946 2058
8 2077 1964 2061 2168 1965 1848 1948 2060
8 2070 1963 1847 1959 2170 2062 1949 2063
8 2065 1959 1843 1952 2171 2063 1950 2064
8 2173 2072 1958 2066 2065 1959 1843 1952
8 1953 1842 1958 2066 2067 1957 2071 2174
8 2068 1956 2069 2175 1967 1859 1973 2079
8 2067 1957 2069 2175 1955 1841 1956 2068
8 1845 1957 2069 1960 1961 2071 2176 2073
8 2069 1960 2073 2176 1973 1862 1975 2083
8 2070 1963 2075 2177 1959 1847 1962 2072
8 1846 1958 2071 1961 1962 2072 2178 2074
8 2077 1964 1861 1971 2182 2076 1974 2082
8 2081 1971 2077 2183 1969 1857 1965 2078
8 2079 1973 2083 2184 1968 1860 1972 2080
8 2081 1971 1858 1970 2185 2082 1972 2080
8 2083 1975 2084 2186 1972 1863 1974 2082
8 2086 1976 1882 1987 2189 2085 1993 2095
8 2090 1987 2086 2190 1981 1875 1977 2087
8 2191 2094 1986 2088 2103 1998 1888 1997
8 2088 1986 2094 2191 1980 1877 1989 2089
8 1991 2091 2192 2097 1880 1982 2089 1989
8 2093 1988 2095 2193 1984 1876 1987 2090
8 1879 1983 2092 1990 1991 2091 2194 2098
8 1985 1878 1990 2092 2093 1988 2096 2195
8 2097 1996 1886 1989 2196 2099 1992 2094
8 2196 2099 1992 2094 2104 1999 1889 1998
8 1994 2096 1988 1883 2100 2197 2095 1993
8 2096 1994 1884 1990 2198 2101 1995 2098
8 1995 2098 2199 2102 1885 1991 2097 1996
8 2203 2104 1998 2103 2106 2001 1891 2000
8 2107 2002 2105 2204 2001 1892 1999 2104
8 2109 2004 2107 2206 2003 1894 2001 2106
8 2110 2005 2108 2207 2004 1895 2002 2107
8 2112 2007 2110 2209 2006 1897 2004 2109
8 2113 2008 2111 2210 2007 1898 2005 2110
8 2120 2011 2113 2212 2014 1901 2007 2112
8 2117 2009 2114 2213 2011 1899 2008 2113
8 2219 2116 2009 2117 2119 2010 1899 2011
8 2222 2118 2010 2119 2122 2012 1900 2013
8 2223 2119 2011 2120 2123 2013 1901 2014
8 2016 1902 2015 2125 2122 2012 2121 2225
8 2126 2016 2122 2226 2017 1903 2013 2123
8 2019 1905 2018 2128 2125 2015 2124 2228
8 2020 1906 2019 2129 2126 2016 2125 2229
8 2022 1908 2021 2131 2128 2018 2127 2231
8 2023 1909 2022 2132 2129 2019 2128 2232
8 2025 1911 2024 2134 2131 2021 2130 2234
8 2026 1912 2025 2135 2132 2022 2131 2235
8 1914 2028 2134 2024 2027 2136 2236 2133
8 2029 1915 2028 2137 2135 2025 2134 2237
8 2030 1918 2031 2138 2137 2028 2136 2238
8 2157 2050 2139 2240 2054 1941 2033 2140
8 2052 1940 2054 2161 2144 2035 2140 2242
8 2140 2033 2141 2243 2035 1923 2034 2143
8 2143 2034 2142 2246 2037 1924 2036 2146
8 2144 2035 2143 2247 2051 1939 2037 2147
8 2146 2036 2145 2249 2039 1925 2038 2149
8 2147 2037 2146 2250 2040 1926 2039 2150
8 2149 2038 2148 2251 2042 1927 2041 2151
8 2150 2039 2149 2252 2043 1928 2042 2152
8 2152 2042 2151 2253 2045 1931 2044 2153
8 2255 2154 2047 2155 2189 2085 1976 2086
8 2170 2062 1949 2063 2255 2154 2047 2155
8 2256 2155 2048 2156 2190 2086 1977 2087
8 2171 2063 1950 2064 2256 2155 2048 2156
8 2258 2159 2050 2157 2164 2056 1941 2054
8 2160 2053 1946 2058 2262 2163 2060 2167
8 2162 2055 1940 2052 2262 2163 2053 2160
8 2162 2055 2164 2263 2052 1940 2054 2161
8 2163 2057 1948 2060 2264 2165 2061 2168
8 2055 1943 2057 2163 2164 2056 2165 2264
8 2182 2076 2166 2268 2077 1964 2061 2168
8 2183 2077 2168 2269 2078 1965 2060 2167
8 2070 1963 2062 2170 2177 2075 2169 2271
8 2172 2070 1959 2065 2272 2170 2063 2171
8 2172 2070 2177 2273 2065 1959 2072 2173
8 2066 1958 2072 2173 2174 2071 2178 2274
8 2067 1957 2071 2174 2175 2069 2176 2275
8 2175 2069 2176 2275 2079 1973 2083 2184
8 2071 1961 2074 2178 2176 2073 2179 2276
8 2176 2073 2179 2276 2083 1975 2084 2186
8 2072 1962 2075 2177 2178 2074 2180 2277
8 2182 2076 1974 2082 2280 2181 2084 2186
8 2183 2077 1971 2081 2281 2182 2082 2185
8 2184 2083 2186 2282 2080 1972 2082 2185
8 2189 2085 1993 2095 2285 2188 2100 2197
8 2190 2086 1987 2090 2286 2189 2095 2193
8 2192 2097 1989 2089 2287 2196 2094 2191
8 2287 2196 2094 2191 2203 2104 1998 2103
8 2194 2098 1991 2091 2288 2199 2097 2192
8 2195 2096 2197 2289 2093 1988 2095 2193
8 2096 2195 2290 2198 1990 2092 2194 2098
8 2097 1996 2099 2196 2199 2102 2200 2291
8 2196 2099 1999 2104 2291 2200 2105 2204
8 2100 2197 2292 2201 1994 2096 2198 2101
8 1995 2098 2198 2101 2102 2199 2293 2202
8 2206 2107 2204 2296 2106 2001 2104 2203
8 2207 2108 2205 2297 2107 2002 2105 2204
8 2209 2110 2207 2299 2109 2004 2107 2206
8 2210 2111 2208 2300 2110 2005 2108 2207
8 2212 2113 2210 2302 2112 2007 2110 2209
8 2213 2114 2211 2303 2113 2008 2111 2210
8 2220 2117 2213 2305 2120 2011 2113 2212
8 2216 2115 2214 2306 2117 2009 2114 2213
8 2216 2115 2009 2117 2311 2217 2116 2219
8 2219 2116 2010 2119 2314 2218 2118 2222
8 2315 2219 2117 2220 2223 2119 2011 2120
8 2122 2012 2121 2225 2222 2118 2221 2317
8 2318 2222 2119 2223 2226 2122 2013 2123
8 2125 2015 2124 2228 2225 2121 2224 2320
8 2126 2016 2125 2229 2226 2122 2225 2321
8 2128 2018 2127 2231 2228 2124 2227 2323
8 2129 2019 2128 2232 2229 2125 2228 2324
8 2131 2021 2130 2234 2231 2127 2230 2326
8 2132 2022 2131 2235 2232 2128 2231 2327
8 2134 2024 2133 2236 2234 2130 2233 2328
8 2135 2025 2134 2237 2235 2131 2234 2329
8 2137 2028 2136 2238 2237 2134 2236 2330
8 2157 2050 2158 2259 2240 2139 2239 2332
8 2257 2157 2240 2334 2161 2054 2140 2242
8 2240 2139 2241 2335 2140 2033 2141 2243
8 2242 2140 2243 2337 2144 2035 2143 2247
8 2243 2141 2244 2338 2143 2034 2142 2246
8 2246 2142 2245 2341 2146 2036 2145 2249
8 2247 2143 2246 2342 2147 2037 2146 2250
8 2249 2145 2248 2343 2149 2038 2148 2251
8 2250 2146 2249 2344 2150 2039 2149 2252
8 2252 2149 2251 2345 2152 2042 2151 2253
8 2169 2271 2347 2254 2062 2170 2255 2154
8 2189 2085 2188 2285 2255 2154 2254 2347
8 2348 2255 2155 2256 2286 2189 2086 2190
8 2272 2170 2063 2171 2348 2255 2155 2256
8 2349 2258 2157 2257 2263 2164 2054 2161
8 2258 2159 2261 2351 2157 2050 2158 2259
8 2258 2159 2056 2164 2351 2261 2165 2264
8 2262 2163 2060 2167 2355 2264 2168 2269
8 2162 2055 2163 2262 2263 2164 2264 2355
8 2357 2266 2165 2264 2268 2166 2061 2168
8 2268 2166 2076 2182 2361 2267 2181 2280
8 2281 2182 2268 2362 2183 2077 2168 2269
8 2271 2169 2270 2364 2177 2075 2180 2277
8 2172 2070 2170 2272 2273 2177 2271 2365
8 2072 2173 2274 2178 2177 2273 2366 2277
8 2071 2174 2275 2176 2178 2274 2367 2276
8 2275 2176 2276 2367 2184 2083 2186 2282
8 2283 2187 2084 2186 2368 2278 2179 2276
8 2178 2074 2180 2277 2276 2179 2278 2368
8 2283 2187 2279 2370 2186 2084 2181 2280
8 2281 2182 2082 2185 2371 2280 2186 2282
8 2188 2285 2374 2284 2100 2197 2292 2201
8 2286 2189 2095 2193 2375 2285 2197 2289
8 2192 2097 2196 2287 2288 2199 2291 2376
8 2287 2196 2104 2203 2376 2291 2204 2296
8 2194 2098 2199 2288 2290 2198 2293 2377
8 2289 2197 2096 2195 2378 2292 2198 2290
8 2291 2200 2105 2204 2379 2294 2205 2297
8 2199 2102 2200 2291 2293 2202 2294 2379
8 2198 2101 2202 2293 2292 2201 2295 2380
8 2299 2207 2297 2383 2206 2107 2204 2296
8 2300 2208 2298 2384 2207 2108 2205 2297
8 2302 2210 2300 2386 2209 2110 2207 2299
8 2303 2211 2301 2387 2210 2111 2208 2300
8 2305 2213 2303 2389 2212 2113 2210 2302
8 2306 2214 2304 2390 2213 2114 2211 2303
8 2310 2216 2306 2392 2220 2117 2213 2305
8 2308 2215 2307 2393 2216 2115 2214 2306
8 2308 2215 2115 2216 2396 2309 2217 2311
8 2310 2216 2117 2220 2398 2311 2219 2315
8 2311 2217 2116 2219 2399 2312 2218 2314
8 2314 2218 2118 2222 2402 2313 2221 2317
8 2315 2219 2119 2223 2403 2314 2222 2318
8 2225 2121 2224 2320 2317 2221 2316 2405
8 2226 2122 2225 2321 2318 2222 2317 2406
8 2228 2124 2227 2323 2320 2224 2319 2408
8 2229 2125 2228 2324 2321 2225 2320 2409
8 2231 2127 2230 2326 2323 2227 2322 2411
8 2232 2128 2231 2327 2324 2228 2323 2412
8 2234 2130 2233 2328 2326 2230 2325 2413
8 2235 2131 2234 2329 2327 2231 2326 2414
8 2237 2134 2236 2330 2329 2234 2328 2415
8 2259 2158 2260 2352 2332 2239 2331 2417
8 2257 2157 2259 2350 2334 2240 2332 2419
8 2240 2139 2239 2332 2335 2241 2333 2420
8 2334 2240 2335 2422 2242 2140 2243 2337
8 2335 2241 2336 2423 2243 2141 2244 2338
8 2337 2243 2338 2425 2247 2143 2246 2342
8 2338 2244 2339 2426 2246 2142 2245 2341
8 2341 2245 2340 2428 2249 2145 2248 2343
8 2342 2246 2341 2429 2250 2146 2249 2344
8 2344 2249 2343 2430 2252 2149 2251 2345
8 2188 2285 2347 2254 2284 2374 2432 2346
8 2347 2254 2346 2432 2271 2169 2270 2364
8 2365 2271 2170 2272 2433 2347 2255 2348
8 2286 2189 2285 2375 2348 2255 2347 2433
8 2349 2258 2351 2435 2257 2157 2259 2350
8 2349 2258 2164 2263 2435 2351 2264 2355
8 2259 2158 2261 2351 2352 2260 2354 2437
8 2356 2265 2354 2437 2264 2165 2261 2351
8 2441 2357 2264 2355 2362 2268 2168 2269
8 2356 2265 2165 2264 2442 2358 2266 2357
8 2443 2359 2266 2357 2361 2267 2166 2268
8 2370 2279 2360 2446 2280 2181 2267 2361
8 2362 2268 2182 2281 2447 2361 2280 2371
8 2180 2277 2368 2278 2270 2364 2449 2363
8 2271 2365 2273 2177 2364 2450 2366 2277
8 2372 2283 2186 2282 2451 2368 2276 2367
8 2178 2274 2367 2276 2277 2366 2451 2368
8 2283 2187 2278 2368 2370 2279 2369 2452
8 2372 2283 2370 2453 2282 2186 2280 2371
8 2284 2374 2455 2373 2201 2292 2380 2295
8 2375 2285 2197 2289 2456 2374 2292 2378
8 2376 2291 2204 2296 2457 2379 2297 2383
8 2288 2199 2291 2376 2377 2293 2379 2457
8 2198 2290 2378 2292 2293 2377 2458 2380
8 2293 2202 2294 2379 2380 2295 2381 2459
8 2384 2298 2381 2459 2297 2205 2294 2379
8 2386 2300 2384 2463 2299 2207 2297 2383
8 2387 2301 2385 2464 2300 2208 2298 2384
8 2389 2303 2387 2466 2302 2210 2300 2386
8 2390 2304 2388 2467 2303 2211 2301 2387
8 2392 2306 2390 2469 2305 2213 2303 2389
8 2393 2307 2391 2470 2306 2214 2304 2390
8 2395 2308 2393 2472 2310 2216 2306 2392
8 2308 2215 2309 2396 2393 2307 2394 2473
8 2395 2308 2216 2310 2475 2396 2311 2398
8 2396 2309 2217 2311 2476 2397 2312 2399
8 2398 2311 2219 2315 2478 2399 2314 2403
8 2399 2312 2218 2314 2479 2400 2313 2402
8 2317 2221 2316 2405 2402 2313 2401 2482
8 2403 2314 2222 2318 2483 2402 2317 2406
8 2320 2224 2319 2408 2405 2316 2404 2485
8 2321 2225 2320 2409 2406 2317 2405 2486
8 2323 2227 2322 2411 2408 2319 2407 2488
8 2324 2228 2323 2412 2409 2320 2408 2489
8 2326 2230 2325 2413 2411 2322 2410 2490
8 2327 2231 2326 2414 2412 2323 2411 2491
8 2329 2234 2328 2415 2414 2326 2413 2492
8 2417 2331 2260 2352 2494 2416 2353 2438
8 2350 2259 2352 2436 2419 2332 2417 2496
8 2332 2239 2331 2417 2420 2333 2418 2497
8 2334 2240 2332 2419 2422 2335 2420 2499
8 2420 2333 2421 2500 2335 2241 2336 2423
8 2422 2335 2423 2502 2337 2243 2338 2425
8 2423 2336 2424 2503 2338 2244 2339 2426
8 2425 2338 2426 2505 2342 2246 2341 2429
8 2426 2339 2427 2506 2341 2245 2340 2428
8 2429 2341 2428 2507 2344 2249 2343 2430
8 2432 2346 2284 2374 2509 2431 2373 2455
8 2432 2346 2431 2509 2364 2270 2363 2449
8 2375 2285 2374 2456 2433 2347 2432 2510
8 2347 2433 2365 2271 2432 2510 2450 2364
8 2350 2259 2351 2435 2436 2352 2437 2514
8 2440 2356 2437 2514 2355 2264 2351 2435
8 2352 2260 2354 2437 2438 2353 2439 2516
8 2356 2265 2358 2442 2437 2354 2439 2516
8 2440 2356 2264 2355 2518 2442 2357 2441
8 2519 2443 2357 2441 2447 2361 2268 2362
8 2443 2359 2444 2520 2357 2266 2358 2442
8 2443 2359 2267 2361 2520 2444 2360 2446
8 2446 2360 2279 2370 2523 2445 2369 2452
8 2453 2370 2446 2524 2371 2280 2361 2447
8 2449 2363 2448 2525 2368 2278 2369 2452
8 2366 2277 2364 2450 2451 2368 2449 2526
8 2372 2283 2368 2451 2453 2370 2452 2527
8 2455 2373 2295 2380 2529 2454 2382 2460
8 2456 2374 2292 2378 2530 2455 2380 2458
8 2377 2293 2379 2457 2458 2380 2459 2531
8 2463 2384 2459 2531 2383 2297 2379 2457
8 2533 2461 2382 2460 2459 2381 2295 2380
8 2464 2385 2461 2533 2384 2298 2381 2459
8 2466 2387 2464 2537 2386 2300 2384 2463
8 2467 2388 2465 2538 2387 2301 2385 2464
8 2469 2390 2467 2540 2389 2303 2387 2466
8 2470 2391 2468 2541 2390 2304 2388 2467
8 2472 2393 2470 2543 2392 2306 2390 2469
8 2393 2307 2394 2473 2470 2391 2471 2544
8 2395 2308 2396 2475 2472 2393 2473 2546
8 2396 2309 2397 2476 2473 2394 2474 2547
8 2475 2396 2311 2398 2549 2476 2399 2478
8 2476 2397 2312 2399 2550 2477 2400 2479
8 2478 2399 2314 2403 2552 2479 2402 2483
8 2479 2400 2313 2402 2553 2480 2401 2482
8 2405 2316 2404 2485 2482 2401 2481 2556
8 2406 2317 2405 2486 2483 2402 2482 2557
8 2408 2319 2407 2488 2485 2404 2484 2559
8 2409 2320 2408 2489 2486 2405 2485 2560
8 2411 2322 2410 2490 2488 2407 2487 2561
8 2412 2323 2411 2491 2489 2408 2488 2562
8 2414 2326 2413 2492 2491 2411 2490 2563
8 2513 2434 2493 2565 2438 2353 2416 2494
8 2496 2417 2352 2436 2567 2494 2438 2515
8 2494 2416 2495 2568 2417 2331 2418 2497
8 2419 2332 2417 2496 2499 2420 2497 2570
8 2497 2418 2498 2571 2420 2333 2421 2500
8 2499 2420 2500 2573 2422 2335 2423 2502
8 2500 2421 2501 2574 2423 2336 2424 2503
8 2502 2423 2503 2576 2425 2338 2426 2505
8 2503 2424 2504 2577 2426 2339 2427 2506
8 2505 2426 2506 2578 2429 2341 2428 2507
8 2509 2431 2373 2455 2580 2508 2454 2529
8 2509 2431 2508 2580 2449 2363 2448 2525
8 2432 2510 2581 2509 2374 2456 2530 2455
8 2432 2510 2450 2364 2509 2581 2526 2449
8 2583 2511 2434 2513 2516 2439 2353 2438
8 2436 2352 2437 2514 2515 2438 2516 2588
8 2440 2356 2442 2518 2514 2437 2516 2588
8 2442 2358 2444 2520 2516 2439 2517 2589
8 2519 2443 2520 2591 2441 2357 2442 2518
8 2519 2443 2361 2447 2591 2520 2446 2524
8 2446 2360 2445 2523 2520 2444 2521 2592
8 2525 2448 2522 2593 2452 2369 2445 2523
8 2524 2446 2370 2453 2594 2523 2452 2527
8 2526 2449 2525 2595 2451 2368 2452 2527
8 2534 2462 2528 2597 2460 2382 2454 2529
8 2530 2455 2380 2458 2598 2529 2460 2532
8 2599 2533 2460 2532 2531 2459 2380 2458
8 2537 2464 2533 2599 2463 2384 2459 2531
8 2534 2462 2382 2460 2601 2535 2461 2533
8 2538 2465 2535 2601 2464 2385 2461 2533
8 2540 2467 2538 2604 2466 2387 2464 2537
8 2541 2468 2539 2605 2467 2388 2465 2538
8 2543 2470 2541 2607 2469 2390 2467 2540
8 2470 2391 2471 2544 2541 2468 2542 2608
8 2472 2393 2473 2546 2543 2470 2544 2610
8 2473 2394 2474 2547 2544 2471 2545 2611
8 2475 2396 2476 2549 2546 2473 2547 2613
8 2476 2397 2477 2550 2547 2474 2548 2614
8 2549 2476 2399 2478 2616 2550 2479 2552
8 2479 2400 2480 2553 2550 2477 2551 2617
8 2552 2479 2402 2483 2619 2553 2482 2557
8 2482 2401 2481 2556 2553 2480 2554 2620
8 2485 2404 2484 2559 2556 2481 2555 2623
8 2486 2405 2485 2560 2557 2482 2556 2624
8 2488 2407 2487 2561 2559 2484 2558 2625
8 2489 2408 2488 2562 2560 2485 2559 2626
8 2491 2411 2490 2563 2562 2488 2561 2627
8 2513 2434 2512 2585 2565 2493 2564 2630
8 2586 2513 2565 2632 2515 2438 2494 2567
8 2565 2493 2566 2633 2494 2416 2495 2568
8 2567 2494 2568 2635 2496 2417 2497 2570
8 2568 2495 2569 2636 2497 2418 2498 2571
8 2570 2497 2571 2638 2499 2420 2500 2573
8 2571 2498 2572 2639 2500 2421 2501 2574
8 2573 2500 2574 2641 2502 2423 2503 2576
8 2574 2501 2575 2642 2503 2424 2504 2577
8 2576 2503 2577 2643 2505 2426 2506 2578
8 2597 2528 2579 2645 2529 2454 2508 2580
8 2580 2508 2579 2645 2525 2448 2522 2593
8 2581 2509 2455 2530 2646 2580 2529 2598
8 2581 2509 2580 2646 2526 2449 2525 2595
8 2583 2511 2582 2648 2513 2434 2512 2585
8 2583 2511 2439 2516 2648 2582 2517 2589
8 2649 2583 2513 2586 2588 2516 2438 2515
8 2589 2517 2444 2520 2653 2587 2521 2592
8 2518 2442 2520 2591 2588 2516 2589 2654
8 2593 2522 2590 2655 2523 2445 2521 2592
8 2524 2446 2523 2594 2591 2520 2592 2656
8 2595 2525 2593 2657 2527 2452 2523 2594
8 2602 2536 2596 2659 2534 2462 2528 2597
8 2600 2534 2597 2660 2532 2460 2529 2598
8 2600 2534 2460 2532 2661 2601 2533 2599
8 2604 2538 2601 2661 2537 2464 2533 2599
8 2602 2536 2462 2534 2663 2603 2535 2601
8 2601 2535 2465 2538 2663 2603 2539 2605
8 2607 2541 2605 2665 2540 2467 2538 2604
8 2608 2542 2606 2666 2541 2468 2539 2605
8 2543 2470 2544 2610 2607 2541 2608 2668
8 2544 2471 2545 2611 2608 2542 2609 2669
8 2546 2473 2547 2613 2610 2544 2611 2671
8 2547 2474 2548 2614 2611 2545 2612 2672
8 2549 2476 2550 2616 2613 2547 2614 2674
8 2550 2477 2551 2617 2614 2548 2615 2675
8 2552 2479 2553 2619 2616 2550 2617 2677
8 2553 2480 2554 2620 2617 2551 2618 2678
8 2557 2482 2556 2624 2619 2553 2620 2680
8 2556 2481 2555 2623 2620 2554 2621 2681
8 2559 2484 2558 2625 2623 2555 2622 2683
8 2560 2485 2559 2626 2624 2556 2623 2684
8 2562 2488 2561 2627 2626 2559 2625 2685
8 2690 2629 2564 2630 2650 2584 2512 2585
8 2586 2513 2585 2651 2632 2565 2630 2691
8 2630 2564 2631 2692 2565 2493 2566 2633
8 2632 2565 2633 2694 2567 2494 2568 2635
8 2633 2566 2634 2695 2568 2495 2569 2636
8 2635 2568 2636 2697 2570 2497 2571 2638
8 2636 2569 2637 2698 2571 2498 2572 2639
8 2638 2571 2639 2700 2573 2500 2574 2641
8 2639 2572 2640 2701 2574 2501 2575 2642
8 2641 2574 2642 2702 2576 2503 2577 2643
8 2597 2528 2596 2659 2645 2579 2644 2704
8 2645 2579 2644 2704 2593 2522 2590 2655
8 2660 2597 2645 2705 2598 2529 2580 2646
8 2646 2580 2645 2705 2595 2525 2593 2657
8 2650 2584 2512 2585 2707 2647 2582 2648
8 2648 2582 2517 2589 2707 2647 2587 2653
8 2649 2583 2648 2708 2586 2513 2585 2651
8 2649 2583 2516 2588 2708 2648 2589 2654
8 2655 2590 2652 2710 2592 2521 2587 2653
8 2654 2589 2520 2591 2711 2653 2592 2656
8 2657 2593 2655 2712 2594 2523 2592 2656
8 2602 2536 2603 2663 2659 2596 2658 2714
8 2662 2602 2659 2715 2600 2534 2597 2660
8 2662 2602 2534 2600 2717 2663 2601 2661
8 2661 2601 2538 2604 2717 2663 2605 2665
8 2666 2606 2664 2718 2605 2539 2603 2663
8 2668 2608 2666 2720 2607 2541 2605 2665
8 2608 2542 2609 2669 2666 2606 2667 2721
8 2610 2544 2611 2671 2668 2608 2669 2723
8 2611 2545 2612 2672 2669 2609 2670 2724
8 2613 2547 2614 2674 2671 2611 2672 2726
8 2614 2548 2615 2675 2672 2612 2673 2727
8 2616 2550 2617 2677 2674 2614 2675 2729
8 2617 2551 2618 2678 2675 2615 2676 2730
8 2619 2553 2620 2680 2677 2617 2678 2732
8 2620 2554 2621 2681 2678 2618 2679 2733
8 2624 2556 2623 2684 2680 2620 2681 2735
8 2681 2621 2555 2623 2736 2682 2622 2683
8 2626 2559 2625 2685 2684 2623 2683 2737
8 2688 2628 2584 2650 2740 2686 2647 2707
8 2688 2628 2687 2742 2650 2584 2629 2690
8 2690 2629 2689 2745 2630 2564 2631 2692
8 2746 2690 2630 2691 2709 2650 2585 2651
8 2691 2630 2692 2747 2632 2565 2633 2694
8 2692 2631 2693 2748 2633 2566 2634 2695
8 2694 2633 2695 2750 2635 2568 2636 2697
8 2695 2634 2696 2751 2636 2569 2637 2698
8 2697 2636 2698 2753 2638 2571 2639 2700
8 2698 2637 2699 2754 2639 2572 2640 2701
8 2700 2639 2701 2755 2641 2574 2642 2702
8 2659 2596 2658 2714 2704 2644 2703 2757
8 2704 2644 2703 2757 2655 2590 2652 2710
8 2660 2597 2659 2715 2705 2645 2704 2758
8 2705 2645 2704 2758 2657 2593 2655 2712
8 2759 2706 2647 2707 2710 2652 2587 2653
8 2709 2650 2585 2651 2760 2707 2648 2708
8 2708 2648 2589 2654 2760 2707 2653 2711
8 2712 2655 2710 2761 2656 2592 2653 2711
8 2763 2713 2658 2714 2718 2664 2603 2663
8 2662 2602 2663 2717 2715 2659 2714 2764
8 2720 2666 2718 2767 2665 2605 2663 2717
8 2768 2719 2664 2718 2721 2667 2606 2666
8 2668 2608 2669 2723 2720 2666 2721 2770
8 2669 2609 2670 2724 2721 2667 2722 2771
8 2671 2611 2672 2726 2723 2669 2724 2773
8 2672 2612 2673 2727 2724 2670 2725 2774
8 2674 2614 2675 2729 2726 2672 2727 2776
8 2675 2615 2676 2730 2727 2673 2728 2777
8 2677 2617 2678 2732 2729 2675 2730 2779
8 2678 2618 2679 2733 2730 2676 2731 2780
8 2680 2620 2681 2735 2732 2678 2733 2782
8 2733 2679 2621 2681 2783 2734 2682 2736
8 2735 2681 2623 2684 2784 2736 2683 2737
8 2740 2686 2647 2707 2787 2738 2706 2759
8 2688 2628 2686 2740 2742 2687 2739 2789
8 2743 2688 2650 2709 2790 2740 2707 2760
8 2742 2687 2741 2792 2690 2629 2689 2745
8 2743 2688 2742 2793 2709 2650 2690 2746
8 2745 2689 2744 2795 2692 2631 2693 2748
8 2746 2690 2745 2796 2691 2630 2692 2747
8 2747 2692 2748 2797 2694 2633 2695 2750
8 2748 2693 2749 2798 2695 2634 2696 2751
8 2750 2695 2751 2800 2697 2636 2698 2753
8 2751 2696 2752 2801 2698 2637 2699 2754
8 2753 2698 2754 2802 2700 2639 2701 2755
8 2763 2713 2756 2804 2714 2658 2703 2757
8 2759 2706 2652 2710 2804 2756 2703 2757
8 2715 2659 2714 2764 2758 2704 2757 2805
8 2758 2704 2757 2805 2712 2655 2710 2761
8 2806 2759 2707 2760 2761 2710 2653 2711
8 2765 2716 2762 2808 2718 2664 2713 2763
8 2809 2763 2714 2764 2767 2718 2663 2717
8 2765 2716 2664 2718 2811 2766 2719 2768
8 2813 2768 2718 2767 2770 2721 2666 2720
8 2814 2769 2719 2768 2771 2722 2667 2721
8 2723 2669 2724 2773 2770 2721 2771 2816
8 2724 2670 2725 2774 2771 2722 2772 2817
8 2726 2672 2727 2776 2773 2724 2774 2819
8 2727 2673 2728 2777 2774 2725 2775 2820
8 2729 2675 2730 2779 2776 2727 2777 2822
8 2730 2676 2731 2780 2777 2728 2778 2823
8 2732 2678 2733 2782 2779 2730 2780 2825
8 2780 2731 2679 2733 2826 2781 2734 2783
8 2782 2733 2681 2735 2827 2783 2736 2784
8 2830 2785 2738 2787 2804 2756 2706 2759
8 2789 2739 2686 2740 2832 2786 2738 2787
8 2790 2740 2707 2760 2833 2787 2759 2806
8 2742 2687 2739 2789 2792 2741 2788 2835
8 2743 2688 2740 2790 2793 2742 2789 2836
8 2792 2741 2791 2838 2745 2689 2744 2795
8 2793 2742 2792 2839 2746 2690 2745 2796
8 2795 2744 2794 2841 2748 2693 2749 2798
8 2796 2745 2795 2842 2747 2692 2748 2797
8 2797 2748 2798 2843 2750 2695 2751 2800
8 2798 2749 2799 2844 2751 2696 2752 2801
8 2800 2751 2801 2845 2753 2698 2754 2802
8 2808 2762 2803 2847 2763 2713 2756 2804
8 2809 2763 2804 2848 2764 2714 2757 2805
8 2806 2759 2710 2761 2848 2804 2757 2805
8 2765 2716 2766 2811 2808 2762 2807 2850
8 2810 2765 2808 2851 2767 2718 2763 2809
8 2810 2765 2718 2767 2852 2811 2768 2813
8 2811 2766 2719 2768 2853 2812 2769 2814
8 2855 2814 2768 2813 2816 2771 2721 2770
8 2856 2815 2769 2814 2817 2772 2722 2771
8 2773 2724 2774 2819 2816 2771 2817 2858
8 2774 2725 2775 2820 2817 2772 2818 2859
8 2776 2727 2777 2822 2819 2774 2820 2861
8 2777 2728 2778 2823 2820 2775 2821 2862
8 2779 2730 2780 2825 2822 2777 2823 2864
8 2823 2778 2731 2780 2865 2824 2781 2826
8 2825 2780 2733 2782 2866 2826 2783 2827
8 2869 2828 2785 2830 2847 2803 2756 2804
8 2871 2829 2786 2832 2830 2785 2738 2787
8 2872 2830 2787 2833 2848 2804 2759 2806
8 2789 2739 2786 2832 2835 2788 2831 2874
8 2836 2789 2740 2790 2875 2832 2787 2833
8 2792 2741 2788 2835 2838 2791 2834 2877
8 2793 2742 2789 2836 2839 2792 2835 2878
8 2838 2791 2837 2880 2795 2744 2794 2841
8 2839 2792 2838 2881 2796 2745 2795 2842
8 2841 2794 2840 2882 2798 2749 2799 2844
8 2842 2795 2841 2883 2797 2748 2798 2843
8 2843 2798 2844 2884 2800 2751 2801 2845
8 2886 2846 2803 2847 2850 2807 2762 2808
8 2851 2808 2847 2887 2809 2763 2804 2848
8 2850 2807 2766 2811 2889 2849 2812 2853
8 2810 2765 2811 2852 2851 2808 2850 2890
8 2852 2811 2768 2813 2891 2853 2814 2855
8 2853 2812 2769 2814 2892 2854 2815 2856
8 2894 2856 2814 2855 2858 2817 2771 2816
8 2817 2772 2818 2859 2856 2815 2857 2895
8 2819 2774 2820 2861 2858 2817 2859 2897
8 2820 2775 2821 2862 2859 2818 2860 2898
8 2822 2777 2823 2864 2861 2820 2862 2900
8 2823 2778 2824 2865 2862 2821 2863 2901
8 2864 2823 2780 2825 2902 2865 2826 2866
8 2904 2867 2828 2869 2886 2846 2803 2847
8 2869 2828 2868 2906 2830 2785 2829 2871
8 2907 2869 2830 2872 2887 2847 2804 2848
8 2871 2829 2870 2909 2832 2786 2831 2874
8 2910 2871 2832 2875 2872 2830 2787 2833
8 2835 2788 2831 2874 2877 2834 2873 2912
8 2836 2789 2832 2875 2878 2835 2874 2913
8 2877 2834 2876 2915 2838 2791 2837 2880
8 2839 2792 2835 2878 2881 2838 2877 2916
8 2880 2837 2879 2917 2841 2794 2840 2882
8 2881 2838 2880 2918 2842 2795 2841 2883
8 2883 2841 2882 2919 2843 2798 2844 2884
8 2921 2885 2846 2886 2889 2849 2807 2850
8 2922 2886 2847 2887 2890 2850 2808 2851
8 2889 2849 2812 2853 2924 2888 2854 2892
8 2890 2850 2811 2852 2925 2889 2853 2891
8 2891 2853 2814 2855 2926 2892 2856 2894
8 2892 2854 2815 2856 2927 2893 2857 2895
8 2858 2817 2859 2897 2894 2856 2895 2929
8 2859 2818 2860 2898 2895 2857 2896 2930
8 2861 2820 2862 2900 2897 2859 2898 2932
8 2862 2821 2863 2901 2898 2860 2899 2933
8 2864 2823 2865 2902 2900 2862 2901 2934
8 2904 2867 2846 2886 2936 2903 2885 2921
8 2904 2867 2903 2936 2869 2828 2868 2906
8 2937 2904 2869 2907 2922 2886 2847 2887
8 2906 2868 2905 2939 2871 2829 2870 2909
8 2907 2869 2906 2940 2872 2830 2871 2910
8 2909 2870 2908 2942 2874 2831 2873 2912
8 2910 2871 2909 2943 2875 2832 2874 2913
8 2912 2873 2911 2945 2877 2834 2876 2915
8 2878 2835 2874 2913 2916 2877 2912 2946
8 2915 2876 2914 2947 2880 2837 2879 2917
8 2916 2877 2915 2948 2881 2838 2880 2918
8 2918 2880 2917 2949 2883 2841 2882 2919
8 2921 2885 2849 2889 2951 2920 2888 2924
8 2952 2921 2886 2922 2925 2889 2850 2890
8 2924 2888 2854 2892 2954 2923 2893 2927
8 2925 2889 2853 2891 2955 2924 2892 2926
8 2926 2892 2856 2894 2956 2927 2895 2929
8 2895 2857 2896 2930 2927 2893 2928 2957
8 2897 2859 2898 2932 2929 2895 2930 2959
8 2898 2860 2899 2933 2930 2896 2931 2960
8 2900 2862 2901 2934 2932 2898 2933 2961
8 2936 2903 2885 2921 2963 2935 2920 2951
8 2936 2903 2935 2963 2906 2868 2905 2939
8 2937 2904 2886 2922 2964 2936 2921 2952
8 2937 2904 2936 2964 2907 2869 2906 2940
8 2939 2905 2938 2966 2909 2870 2908 2942
8 2940 2906 2939 2967 2910 2871 2909 2943
8 2942 2908 2941 2969 2912 2873 2911 2945
8 2943 2909 2942 2970 2913 2874 2912 2946
8 2945 2911 2944 2971 2915 2876 2914 2947
8 2946 2912 2945 2972 2916 2877 2915 2948
8 2948 2915 2947 2973 2918 2880 2917 2949
8 2951 2920 2888 2924 2975 2950 2923 2954
8 2952 2921 2889 2925 2976 2951 2924 2955
8 2927 2893 2928 2957 2954 2923 2953 2978
8 2955 2924 2892 2926 2979 2954 2927 2956
8 2929 2895 2930 2959 2956 2927 2957 2980
8 2930 2896 2931 2960 2957 2928 2958 2981
8 2932 2898 2933 2961 2959 2930 2960 2982
8 2951 2920 2950 2975 2963 2935 2962 2984
8 2963 2935 2962 2984 2939 2905 2938 2966
8 2964 2936 2921 2952 2985 2963 2951 2976
8 2964 2936 2963 2985 2940 2906 2939 2967
8 2966 2938 2965 2987 2942 2908 2941 2969
8 2967 2939 2966 2988 2943 2909 2942 2970
8 2969 2941 2968 2989 2945 2911 2944 2971
8 2970 2942 2969 2990 2946 2912 2945 2972
8 2972 2945 2971 2991 2948 2915 2947 2973
8 2954 2923 2953 2978 2975 2950 2974 2993
8 2976 2951 2924 2955 2994 2975 2954 2979
8 2957 2928 2958 2981 2978 2953 2977 2995
8 2956 2927 2957 2980 2979 2954 2978 2996
8 2959 2930 2960 2982 2980 2957 2981 2997
8 2984 2962 2983 2999 2966 2938 2965 2987
8 2975 2950 2974 2993 2984 2962 2983 2999
8 2976 2951 2975 2994 2985 2963 2984 3000
8 2985 2963 2984 3000 2967 2939 2966 2988
8 2987 2965 2986 3001 2969 2941 2968 2989
8 2988 2966 2987 3002 2970 2942 2969 2990
8 2990 2969 2989 3003 2972 2945 2971 2991
8 2978 2953 2977 2995 2993 2974 2992 3004
8 2979 2954 2978 2996 2994 2975 2993 3005
8 2980 2957 2981 2997 2996 2978 2995 3006
8 2974 2993 2999 2983 2992 3004 3007 2998
8 2983 2999 2987 2965 2998 3007 3001 2986
8 3000 2984 2999 3008 2988 2966 2987 3002
8 2994 2975 2993 3005 3000 2984 2999 3008
8 3002 2987 3001 3009 2990 2969 2989 3003
8 2996 2978 2995 3006 3005 2993 3004 3010
8 3005 2993 3004 3010 3008 2999 3007 3011
8 3008 2999 3007 3011 3002 2987 3001 3009

CELL_TYPES 1910
12
12
12
12
12
12
12
12
12
12
12
12
12
12
12
12
12
12
12
12
12
12
12
12
12
12
12
12
12
12
12
12
12
12
12
12
12
12
12
12
12
12
12
12
12
12
12
12
12
12
12
12
12
12
12
12
12
12
12
12
12
12
12
12
12
12
12
12
12
12
12
12
12
12
12
12
12
12
12
12
12
12
12
12
12
12
12
12
12
12
12
12
12
12
12
12
12
12
12
12
12
12
12
12
12
12
12
12
12
12
12
12
12
12
12
12
12
12
12
12
12
12
12
12
12
12
12
12
12
12
12
12
12
12
12
12
12
12
12
12
12
12
12
12
12
12
12
12
12
12
12
12
12
12
12
12
12
12
12
12
12
12
12
12
12
12
12
12
12
12
12
12
12
12
12
12
12
12
12
12
12
12
12
12
12
12
12
12
12
12
12
12
12
12
12
12
12
12
12
12
12
12
12
12
12
12
12
12
12
12
12
12
12
12
12
12
12
12
12
12
12
12
12
12
12
12
12
12
12
12
12
12
12
12
12
12
12
12
12
12
12
12
12
12
12
12
12
12
12
12
12
12
12
12
12
12
12
12
12
12
12
12
12
12
12
12
12
12
12
12
12
12
12
12
12
12
12
12
12
12
12
12
12
12
12
12
12
12
12
12
12
12
12
12
12
12
12
12
12
12
12
12
12
12
12
12
12
12
12
12
12
12
12
12
12
12
12
12
12
12
12
12
12
12
12
12
12
12
12
12
12
12
12
12
12
12
12
12
12
12
12
12
12
12
12
12
12
12
12
12
12
12
12
12
12
12
12
12
12
12
12
12
12
12
12
12
12
12
12
12
12
12
12
12
12
12
12
12
12
12
12
12
12
12
12
12
12
12
12
12
12
12
12
12
12
12
12
12
12
12
12
12
12
12
12
12
12
12
12
12
12
12
12
12
12
12
12
12
12
12
12
12
12
12
12
12
12
12
12
12
12
12
12
12
12
12
12
12
12
12
12
12
12
12
12
12
12
12
12
12
12
12
12
12
12
12
12
12
12
12
12
12
12
12
12
12
12
12
12
12
12
12
12
12
12
12
12
12
12
12
12
12
12
12
12
12
12
12
12
12
12
12
12
12
12
12
12
12
12
12
12
12
12
12
12
12
12
12
12
12
12
12
12
12
12
12
12
12
12
12
12
12
12
12
12
12
12
12
12
12
12
12
12
12
12
12
12
12
12
12
12
12
12
12
12
12
12
12
12
12
12
12
12
12
12
12
12
12
12
12
12
12
12
12
12
12
12
12
12
12
12
12
12
12
12
12
12
12
12
12
12
12
12
12
12
12
12
12
12
12
12
12
12
12
12
12
12
12
12
12
12
12
12
12
12
12
12
12
12
12
12
12
12
12
12
12
12
12
12
12
12
12
12
12
12
12
12
12
12
12
12
12
12
12
12
12
12
12
12
12
12
12
12
12
12
12
12
12
12
12
12
12
12
12
12
12
12
12
12
12
12
12
12
12
12
12
12
12
12
12
12
12
12
12
12
12
12
12
12
12
12
12
12
12
12
12
12
12
12
12
12
12
12
12
12
12
12
12
12
12
12
12
12
12
12
12
12
12
12
12
12
12
12
12
12
12
12
12
12
12
12
12
12
12
12
12
12
12
12
12
12
12
12
12
12
12
12
12
12
12
12
12
12
12
12
12
12
12
12
12
12
12
12
12
12
12
12
12
12
12
12
12
12
12
12
12
12
12
12
12
12
12
12
12
12
12
12
12
12
12
12
12
12
12
12
12
12
12
12
12
12
12
12
12
12
12
12
12
12
12
12
12
12
12
12
12
12
12
12
12
12
12
12
12
12
12
12
12
12
12
12
12
12
12
12
12
12
12
12
12
12
12
12
12
12
12
12
12
12
12
12
12
12
12
12
12
12
12
12
12
12
12
12
12
12
12
12
12
12
12
12
12
12
12
12
12
12
12
12
12
12
12
12
12
12
12
12
12
12
12
12
12
12
12
12
12
12
12
12
12
12
12
12
12
12
12
12
12
12
12
12
12
12
12
12
12
12
12
12
12
12
12
12
12
12
12
12
12
12
12
12
12
12
12
12
12
12
12
12
12
12
12
12
12
12
12
12
12
12
12
12
12
12
12
12
12
12
12
12
12
12
12
12
12
12
12
12
12
12
12
12
12
12
12
12
12
12
12
12
12
12
12
12
12
12
12
12
12
12
12
12
12
12
12
12
12
12
12
12
12
12
12
12
12
12
12
12
12
12
12
12
12
12
12
12
12
12
12
12
12
12
12
12
12
12
12
12
12
12
12
12
12
12
12
12
12
12
12
12
12
12
12
12
12
12
12
12
12
12
12
12
12
12
12
12
12
12
12
12
12
12
12
12
12
12
12
12
12
12
12
12
12
12
12
12
12
12
12
12
12
12
12
12
12
12
12
12
12
12
12
12
12
12
12
12
12
12
12
12
12
12
12
12
12
12
12
12
12
12
12
12
12
12
12
12
12
12
12
12
12
12
12
12
12
12
12
12
12
12
12
12
12
12
12
12
12
12
12
12
12
12
12
12
12
12
12
12
12
12
12
12
12
12
12
12
12
12
12
12
12
12
12
12
12
12
12
12
12
12
12
12
12
12
12
12
12
12
12
12
12
12
12
12
12
12
12
12
12
12
12
12
12
12
12
12
12
12
12
12
12
12
12
12
12
12
12
12
12
12
12
12
12
12
12
12
12
12
12
12
12
12
12
12
12
12
12
12
12
12
12
12
12
12
12
12
12
12
12
12
12
12
12
12
12
12
12
12
12
12
12
12
12
12
12
12
12
12
12
12
12
12
12
12
12
12
12
12
12
12
12
12
12
12
12
12
12
12
12
12
12
12
12
12
12
12
12
12
12
12
12
12
12
12
12
12
12
12
12
12
12
12
12
12
12
12
12
12
12
12
12
12
12
12
12
12
12
12
12
12
12
12
12
12
12
12
12
12
12
12
12
12
12
12
12
12
12
12
12
12
12
12
12
12
12
12
12
12
12
12
12
12
12
12
12
12
12
12
12
12
12
12
12
12
12
12
12
12
12
12
12
12
12
12
12
12
12
12
12
12
12
12
12
12
12
12
12
12
12
12
12
12
12
12
12
12
12
12
12
12
12
12
12
12
12
12
12
12
12
12
12
12
12
12
12
12
12
12
12
12
12
12
12
12
12
12
12
12
12
12
12
12
12
12
12
12
12
12
12
12
12
12
12
12
12
12
12
12
12
12
12
12
12
12
12
12
12
12
12
12
12
12
12
12
12
12
12
12
12
12
12
12
12
12
12
12
12
12
12
12
12
12
12
12
12
12
12
12
12
12
12
12
12
12
12
12
12
12
12
12
12
12
12
12
12
12
12
12
12
12
12
12
12
12
12
12
12
12
12
12
12
12
12
12
12
12
12
12
12
12
12
12
12
12
12
12
12
12
12
12
12
12
12
12
12
12
12
12
12
12
12
12
12
12
12
12
12
12
12
12
12
12
12
12
12
12
12
12
12
12
12
12
12
12
12
12
12
12
12
12
12
12
12
12
12
12
12
12
12
12
12
12
12
12
12
12
12
12
12
12
12
12
12
12
12
12
12
12
12
12
12
12
12
12
12
12
12
12
12
12
12
12
12
12
12
12
12
12
12
12
12
12
12
12
12
12
12
12
12
12
12
12
12
12
12
12
12
12
12
12
12
12
12
12
12
12
12
12
12
12
12
12
12
12
12
12
12
12
12
12
12
12
12
12
12
12
12
12
12
12
12
12
12
12
12
12
12
12
12
12
12
12
12
12
12
12
12
12
12
12
12
12
12
12
12
12
12
12
12
12
12
12
12
12
12
12
12
12
12
12
12
12
12
12
12
12
12
12
12
12
12
12
12
12
12
12
12
12
12
12
12
12
12
12
12
12
12
12
12
12
12
12
12
12
12
12
12
12
12
12
12
12
12
12
12
12
12
12
12
12
12
12
12
12
12
12
12
12
12
12
12
12
12
12
12
12
12
12
12
12
12
12
12
12
12
12
12
12
12
12
12
12
12
12
12
12
12
12
12
12
12
12
12
12
12
12
12
12
12
12
12
12
12
12
12
12
12
12
12
12
12
12
12
12
12
12
12
12
12
12
12
12
12
12
12
12
12
12
12
12
12
12
12
12
12
12
12
12
12
12
12
12
12
12
12
12
12
12
12
12
12
12
12
12
12
12
12
12
12
12
12
12
12
12
12
12
12
12
12
12
12
12
12
12
12
12
12
12
12
12
12
12
12
12
12
12
12
12
12
12
12
12
12
12
12
12
12
12
12
12
12

POINT_DATA 3012
SCALARS Jp_lamdaP float 4
LOOKUP_TABLE default
1 1 1 1
1 1 1 1
1 1 1 1
1 1 1 1
1 1 1 1
1 1 1 1
0.999967 1 1 0.999967
1 1 1 1
1 1 1 1
1 1 1 1
1 1 1 1
0.999998 1 1 0.999998
1 1 1 1
1 1 1 1
1 1 1 1
1 1 1 1
1 1 1 1
1 1 1 1
0.999967 1 1 0.999967
1 1 1 1
1 1 1 1
1 1 1 1
0.999935 1 1 0.999935
0.999958 1 1 0.999958
1 1 1 1
0.999976 1 1 0.999976
0.999886 1 1 0.999886
1 1 1 1
1 1 1 1
1 1 1 1
1 1 1 1
0.999999 1 1 0.999999
1 1 1 1
1 1 1 1
0.99998 1 1 0.99998
1 1 1 1
0.999995 1 1 0.999995
1 1 1 1
0.999908 1 1 0.999908
1 1 1 1
1 1 1 1
1 1 1 1
1 1 1 1
1 1 1 1
0.99995 1 1 0.99995
1 1 1 1
0.999964 1 1 0.999964
1 1 1 1
1 1 1 1
1 1 1 1
0.999968 1 1 0.999968
1 1 1 1
1 1 1 1
1 1 1 1
1 1 1 1
0.999936 1 1 0.999936
0.999977 1 1 0.999977
0.999959 1 1 0.999959
0.999883 1 1 0.999883
1 1 1 1
1 1 1 1
0.999954 1 1 0.999954
0.999927 1 1 0.999927
0.999947 1 1 0.999947
0.999809 1 1 0.999809
0.999853 1 1 0.999853
1 1 1 1
0.999984 1 1 0.999984
0.999908 1 1 0.999908
0.999761 1 1 0.999761
1 1 1 1
1 1 1 1
1 1 1 1
0.999999 1 1 0.999999
1 1 1 1
1 1 1 1
0.999983 1 1 0.999983
1 1 1 1
0.999996 1 1 0.999996
1 1 1 1
0.999908 1 1 0.999908
1 1 1 1
1 1 1 1
0.999973 1 1 0.999973
0.999989 1 1 0.999989
0.999843 1 1 0.999843
1 1 1 1
0.999896 1 1 0.999896
0.99992 1 1 0.99992
0.999812 1 1 0.999812
1 1 1 1
1 1 1 1
1 1 1 1
1 1 1 1
1 1 1 1
1 1 1 1
0.999952 1 1 0.999952
1 1 1 1
0.999965 1 1 0.999965
1 1 1 1
0.999944 1 1 0.999944
0.999958 1 1 0.999958
0.999745 1 1 0.999745
0.999968 1 1 0.999968
0.999774 1 1 0.999774
1 1 1 1
1 1 1 1
1 1 1 1
1 1 1 1
0.999936 1 1 0.999936
0.999959 1 1 0.999959
0.999977 1 1 0.999977
0.999881 1 1 0.999881
1 1 1 1
1 1 1 1
0.999937 1 1 0.999937
0.999927 1 1 0.999927
1 1 1 1
0.999992 1 1 0.999992
0.999948 1 1 0.999948
0.999801 1 1 0.999801
0.999905 1 1 0.999905
0.999859 1 1 0.999859
0.999762 1 1 0.999762
0.999949 1 1 0.999949
0.999925 1 1 0.999925
0.999762 1 1 0.999762
0.999778 1 1 0.999778
0.999825 1 1 0.999825
0.999691 1 1 0.999691
1 1 1 1
0.999747 1 1 0.999747
1 1 1 1
0.999913 1 1 0.999913
0.999777 1 1 0.999777
0.999713 1 1 0.999713
1 1 1 1
0.999938 1 1 0.999938
1 1 1 1
1 1 1 1
0.999985 1 1 0.999985
1 1 1 1
1 1 1 1
0.999997 1 1 0.999997
0.999907 1 1 0.999907
1 1 1 1
1 1 1 1
0.999975 1 1 0.999975
0.999991 1 1 0.999991
0.999843 1 1 0.999843
1 1 1 1
0.999897 1 1 0.999897
0.99992 1 1 0.99992
0.999809 1 1 0.999809
1 1 1 1
1 1 1 1
0.999946 1 1 0.999946
0.999814 1 1 0.999814
0.999874 1 1 0.999874
0.999738 1 1 0.999738
0.999933 1 1 0.999933
0.999798 1 1 0.999798
0.999818 1 1 0.999818
0.999769 1 1 0.999769
1 1 1 1
1 1 1 1
1 1 1 1
1 1 1 1
1 1 1 1
1 1 1 1
1 1 1 1
0.999966 1 1 0.999966
0.999954 1 1 0.999954
1 1 1 1
1 1 1 1
0.999945 1 1 0.999945
0.99996 1 1 0.99996
0.999745 1 1 0.999745
0.999969 1 1 0.999969
0.999774 1 1 0.999774
0.999943 1 1 0.999943
0.999731 1 1 0.999731
0.99976 1 1 0.99976
0.999647 1 1 0.999647
0.999792 1 1 0.999792
0.999678 1 1 0.999678
1 1 1 1
1 1 1 1
0.99992 1 1 0.99992
0.999928 1 1 0.999928
1 1 1 1
1 1 1 1
0.999949 1 1 0.999949
0.999793 1 1 0.999793
0.999864 1 1 0.999864
0.999902 1 1 0.999902
0.999763 1 1 0.999763
0.999948 1 1 0.999948
0.999925 1 1 0.999925
0.999746 1 1 0.999746
0.999783 1 1 0.999783
1 1 1 1
1 1 1 1
0.999918 1 1 0.999918
0.999826 1 1 0.999826
0.999681 1 1 0.999681
0.999775 1 1 0.999775
0.999752 1 1 0.999752
0.999713 1 1 0.999713
1 1 1 1
0.999938 1 1 0.999938
0.999736 1 1 0.999736
0.999769 1 1 0.999769
0.999654 1 1 0.999654
0.99965 1 1 0.99965
0.999729 1 1 0.999729
0.999644 1 1 0.999644
1 1 1 1
0.999703 1 1 0.999703
0.999923 1 1 0.999923
0.999797 1 1 0.999797
0.999726 1 1 0.999726
0.9997 1 1 0.9997
0.999932 1 1 0.999932
0.999951 1 1 0.999951
0.999818 1 1 0.999818
0.999977 1 1 0.999977
1 1 1 1
1 1 1 1
0.999993 1 1 0.999993
0.999844 1 1 0.999844
1 1 1 1
0.99992 1 1 0.99992
0.999897 1 1 0.999897
0.999805 1 1 0.999805
1 1 1 1
1 1 1 1
0.999946 1 1 0.999946
0.999814 1 1 0.999814
0.999875 1 1 0.999875
0.999738 1 1 0.999738
0.999934 1 1 0.999934
0.999802 1 1 0.999802
0.999817 1 1 0.999817
0.999764 1 1 0.999764
1 1 1 1
0.999941 1 1 0.999941
0.999954 1 1 0.999954
0.999834 1 1 0.999834
0.999712 1 1 0.999712
0.999775 1 1 0.999775
0.999687 1 1 0.999687
0.999829 1 1 0.999829
0.999756 1 1 0.999756
0.999755 1 1 0.999755
0.999733 1 1 0.999733
0.999983 1 1 0.999983
1 1 1 1
1 1 1 1
1 1 1 1
1 1 1 1
1 1 1 1
1 1 1 1
1 1 1 1
1 1 1 1
0.999971 1 1 0.999971
0.999962 1 1 0.999962
0.999775 1 1 0.999775
0.999745 1 1 0.999745
0.999946 1 1 0.999946
1 1 1 1
0.999943 1 1 0.999943
0.999731 1 1 0.999731
0.99976 1 1 0.99976
0.999646 1 1 0.999646
0.999792 1 1 0.999792
0.999678 1 1 0.999678
0.999729 1 1 0.999729
0.999635 1 1 0.999635
0.999661 1 1 0.999661
0.999615 1 1 0.999615
0.999695 1 1 0.999695
0.999644 1 1 0.999644
0.999946 1 1 0.999946
0.999925 1 1 0.999925
0.99973 1 1 0.99973
0.999788 1 1 0.999788
1 1 1 1
1 1 1 1
0.999924 1 1 0.999924
0.999827 1 1 0.999827
0.999672 1 1 0.999672
0.999756 1 1 0.999756
0.999773 1 1 0.999773
0.999714 1 1 0.999714
1 1 1 1
0.999939 1 1 0.999939
0.999729 1 1 0.999729
0.999769 1 1 0.999769
0.999652 1 1 0.999652
0.99966 1 1 0.99966
1 1 1 1
0.999923 1 1 0.999923
0.999803 1 1 0.999803
0.99973 1 1 0.99973
0.999642 1 1 0.999642
0.999719 1 1 0.999719
0.999703 1 1 0.999703
0.999699 1 1 0.999699
0.999932 1 1 0.999932
0.999815 1 1 0.999815
0.999951 1 1 0.999951
0.99965 1 1 0.99965
0.999652 1 1 0.999652
0.999604 1 1 0.999604
0.999613 1 1 0.999613
0.999683 1 1 0.999683
0.999645 1 1 0.999645
0.999929 1 1 0.999929
0.999695 1 1 0.999695
0.999824 1 1 0.999824
0.999736 1 1 0.999736
0.999686 1 1 0.999686
0.999715 1 1 0.999715
0.999968 1 1 0.999968
0.999824 1 1 0.999824
0.999808 1 1 0.999808
0.999767 1 1 0.999767
0.999814 1 1 0.999814
1 1 1 1
1 1 1 1
0.999946 1 1 0.999946
0.999876 1 1 0.999876
0.999738 1 1 0.999738
0.999934 1 1 0.999934
0.999817 1 1 0.999817
0.999805 1 1 0.999805
0.999759 1 1 0.999759
1 1 1 1
0.999941 1 1 0.999941
0.999954 1 1 0.999954
0.999834 1 1 0.999834
0.999711 1 1 0.999711
0.999776 1 1 0.999776
0.999687 1 1 0.999687
0.999829 1 1 0.999829
0.99976 1 1 0.99976
0.999753 1 1 0.999753
0.999742 1 1 0.999742
1 1 1 1
0.999963 1 1 0.999963
0.999834 1 1 0.999834
0.999838 1 1 0.999838
0.999766 1 1 0.999766
0.999668 1 1 0.999668
0.999725 1 1 0.999725
0.999668 1 1 0.999668
0.99976 1 1 0.99976
0.999728 1 1 0.999728
0.999692 1 1 0.999692
0.999978 1 1 0.999978
0.999882 1 1 0.999882
0.999987 1 1 0.999987
0.999984 1 1 0.999984
1 1 1 1
1 1 1 1
1 1 1 1
1 1 1 1
1 1 1 1
1 1 1 1
1 1 1 1
1 1 1 1
1 1 1 1
1 1 1 1
1 1 1 1
0.999792 1 1 0.999792
0.99976 1 1 0.99976
0.999678 1 1 0.999678
0.999646 1 1 0.999646
0.999731 1 1 0.999731
0.999943 1 1 0.999943
0.999729 1 1 0.999729
0.999635 1 1 0.999635
0.999661 1 1 0.999661
0.999614 1 1 0.999614
0.999694 1 1 0.999694
0.999644 1 1 0.999644
0.999631 1 1 0.999631
0.999608 1 1 0.999608
0.999626 1 1 0.999626
0.999608 1 1 0.999608
0.999659 1 1 0.999659
0.999656 1 1 0.999656
0.999723 1 1 0.999723
0.999769 1 1 0.999769
0.999649 1 1 0.999649
0.99967 1 1 0.99967
1 1 1 1
0.999923 1 1 0.999923
0.999809 1 1 0.999809
0.99973 1 1 0.99973
0.99964 1 1 0.99964
0.999703 1 1 0.999703
0.999712 1 1 0.999712
0.999699 1 1 0.999699
0.999933 1 1 0.999933
0.999811 1 1 0.999811
0.999951 1 1 0.999951
0.999643 1 1 0.999643
0.999652 1 1 0.999652
0.999599 1 1 0.999599
0.999615 1 1 0.999615
0.999929 1 1 0.999929
0.999824 1 1 0.999824
0.999742 1 1 0.999742
0.999686 1 1 0.999686
0.999649 1 1 0.999649
0.99968 1 1 0.99968
0.999696 1 1 0.999696
0.999719 1 1 0.999719
0.999825 1 1 0.999825
0.999761 1 1 0.999761
0.999966 1 1 0.999966
0.99981 1 1 0.99981
0.999598 1 1 0.999598
0.999598 1 1 0.999598
0.999574 1 1 0.999574
0.999609 1 1 0.999609
0.999685 1 1 0.999685
0.999665 1 1 0.999665
0.999829 1 1 0.999829
0.999724 1 1 0.999724
0.999764 1 1 0.999764
0.999689 1 1 0.999689
0.999661 1 1 0.999661
0.999722 1 1 0.999722
0.999978 1 1 0.999978
0.999821 1 1 0.999821
0.999772 1 1 0.999772
0.999744 1 1 0.999744
0.999738 1 1 0.999738
1 1 1 1
0.999711 1 1 0.999711
0.999954 1 1 0.999954
0.99994 1 1 0.99994
0.999833 1 1 0.999833
0.999776 1 1 0.999776
0.999686 1 1 0.999686
0.999829 1 1 0.999829
0.999752 1 1 0.999752
0.999765 1 1 0.999765
0.999751 1 1 0.999751
1 1 1 1
0.999963 1 1 0.999963
0.999834 1 1 0.999834
0.999838 1 1 0.999838
0.999764 1 1 0.999764
0.999667 1 1 0.999667
0.999725 1 1 0.999725
0.999666 1 1 0.999666
0.999761 1 1 0.999761
0.999731 1 1 0.999731
0.999696 1 1 0.999696
0.999972 1 1 0.999972
0.999845 1 1 0.999845
0.999765 1 1 0.999765
0.999765 1 1 0.999765
0.999735 1 1 0.999735
0.999659 1 1 0.999659
0.9997 1 1 0.9997
0.999683 1 1 0.999683
0.999702 1 1 0.999702
0.999661 1 1 0.999661
0.999979 1 1 0.999979
0.999854 1 1 0.999854
0.999874 1 1 0.999874
0.999805 1 1 0.999805
0.99989 1 1 0.99989
0.99999 1 1 0.99999
0.999988 1 1 0.999988
1 1 1 1
0.999985 1 1 0.999985
1 1 1 1
1 1 1 1
1 1 1 1
1 1 1 1
1 1 1 1
1 1 1 1
1 1 1 1
1 1 1 1
1 1 1 1
1 1 1 1
1 1 1 1
0.999694 1 1 0.999694
0.999661 1 1 0.999661
0.999644 1 1 0.999644
0.999614 1 1 0.999614
0.999635 1 1 0.999635
0.999729 1 1 0.999729
0.999632 1 1 0.999632
0.999607 1 1 0.999607
0.999626 1 1 0.999626
0.999606 1 1 0.999606
0.999658 1 1 0.999658
0.999657 1 1 0.999657
0.999602 1 1 0.999602
0.999603 1 1 0.999603
0.999623 1 1 0.999623
0.999599 1 1 0.999599
0.999664 1 1 0.999664
0.999674 1 1 0.999674
0.999637 1 1 0.999637
0.999651 1 1 0.999651
0.999594 1 1 0.999594
0.999617 1 1 0.999617
0.999929 1 1 0.999929
0.999824 1 1 0.999824
0.999749 1 1 0.999749
0.999689 1 1 0.999689
0.999652 1 1 0.999652
0.999696 1 1 0.999696
0.999674 1 1 0.999674
0.999722 1 1 0.999722
0.999825 1 1 0.999825
0.999755 1 1 0.999755
0.999965 1 1 0.999965
0.999811 1 1 0.999811
0.999599 1 1 0.999599
0.999599 1 1 0.999599
0.999571 1 1 0.999571
0.99961 1 1 0.99961
0.999829 1 1 0.999829
0.999769 1 1 0.999769
0.999689 1 1 0.999689
0.999683 1 1 0.999683
0.999676 1 1 0.999676
0.999658 1 1 0.999658
0.999725 1 1 0.999725
0.999732 1 1 0.999732
0.999772 1 1 0.999772
0.999735 1 1 0.999735
0.999743 1 1 0.999743
0.999967 1 1 0.999967
0.999824 1 1 0.999824
0.999578 1 1 0.999578
0.999562 1 1 0.999562
0.99963 1 1 0.99963
0.999707 1 1 0.999707
0.99978 1 1 0.99978
0.999759 1 1 0.999759
0.999723 1 1 0.999723
0.999632 1 1 0.999632
0.999642 1 1 0.999642
0.999967 1 1 0.999967
0.999858 1 1 0.999858
0.99975 1 1 0.99975
0.999749 1 1 0.999749
0.999694 1 1 0.999694
0.999714 1 1 0.999714
1 1 1 1
0.999964 1 1 0.999964
0.999666 1 1 0.999666
0.999837 1 1 0.999837
0.999834 1 1 0.999834
0.999762 1 1 0.999762
0.999726 1 1 0.999726
0.999663 1 1 0.999663
0.999761 1 1 0.999761
0.999701 1 1 0.999701
0.999735 1 1 0.999735
0.999972 1 1 0.999972
0.999845 1 1 0.999845
0.999769 1 1 0.999769
0.999764 1 1 0.999764
0.999731 1 1 0.999731
0.999658 1 1 0.999658
0.999698 1 1 0.999698
0.999685 1 1 0.999685
0.999698 1 1 0.999698
0.999653 1 1 0.999653
0.999855 1 1 0.999855
0.999755 1 1 0.999755
0.999721 1 1 0.999721
0.999717 1 1 0.999717
0.999707 1 1 0.999707
0.999719 1 1 0.999719
0.999653 1 1 0.999653
0.999669 1 1 0.999669
0.999658 1 1 0.999658
0.999585 1 1 0.999585
0.999981 1 1 0.999981
0.99986 1 1 0.99986
0.999771 1 1 0.999771
0.999867 1 1 0.999867
0.99989 1 1 0.99989
0.999795 1 1 0.999795
0.999739 1 1 0.999739
0.999791 1 1 0.999791
0.999896 1 1 0.999896
0.999992 1 1 0.999992
0.999991 1 1 0.999991
1 1 1 1
0.999989 1 1 0.999989
1 1 1 1
1 1 1 1
1 1 1 1
1 1 1 1
1 1 1 1
1 1 1 1
1 1 1 1
1 1 1 1
1 1 1 1
1 1 1 1
1 1 1 1
0.999658 1 1 0.999658
0.999626 1 1 0.999626
0.999657 1 1 0.999657
0.999605 1 1 0.999605
0.999606 1 1 0.999606
0.999632 1 1 0.999632
0.999601 1 1 0.999601
0.999604 1 1 0.999604
0.99962 1 1 0.99962
0.999593 1 1 0.999593
0.999664 1 1 0.999664
0.999683 1 1 0.999683
0.999605 1 1 0.999605
0.999602 1 1 0.999602
0.999622 1 1 0.999622
0.999721 1 1 0.999721
0.9996 1 1 0.9996
0.999601 1 1 0.999601
0.999569 1 1 0.999569
0.999611 1 1 0.999611
0.999829 1 1 0.999829
0.999774 1 1 0.999774
0.999688 1 1 0.999688
0.99968 1 1 0.99968
0.999687 1 1 0.999687
0.999726 1 1 0.999726
0.999655 1 1 0.999655
0.999742 1 1 0.999742
0.999773 1 1 0.999773
0.999733 1 1 0.999733
0.999742 1 1 0.999742
0.999957 1 1 0.999957
0.999826 1 1 0.999826
0.999575 1 1 0.999575
0.999567 1 1 0.999567
0.999633 1 1 0.999633
0.99978 1 1 0.99978
0.99973 1 1 0.99973
0.999631 1 1 0.999631
0.999703 1 1 0.999703
0.999656 1 1 0.999656
0.999756 1 1 0.999756
0.999968 1 1 0.999968
0.999749 1 1 0.999749
0.999718 1 1 0.999718
0.999696 1 1 0.999696
0.999753 1 1 0.999753
0.99985 1 1 0.99985
0.999569 1 1 0.999569
0.99956 1 1 0.99956
0.999669 1 1 0.999669
0.999754 1 1 0.999754
0.999749 1 1 0.999749
0.999693 1 1 0.999693
0.99966 1 1 0.99966
0.999588 1 1 0.999588
0.999976 1 1 0.999976
0.999877 1 1 0.999877
0.999773 1 1 0.999773
0.999675 1 1 0.999675
0.999719 1 1 0.999719
0.999676 1 1 0.999676
0.999973 1 1 0.999973
0.999845 1 1 0.999845
0.999657 1 1 0.999657
0.999763 1 1 0.999763
0.999773 1 1 0.999773
0.999728 1 1 0.999728
0.999696 1 1 0.999696
0.999688 1 1 0.999688
0.999695 1 1 0.999695
0.999646 1 1 0.999646
0.999854 1 1 0.999854
0.999758 1 1 0.999758
0.999727 1 1 0.999727
0.999721 1 1 0.999721
0.99971 1 1 0.99971
0.999723 1 1 0.999723
0.999656 1 1 0.999656
0.999688 1 1 0.999688
0.999653 1 1 0.999653
0.999578 1 1 0.999578
0.99976 1 1 0.99976
0.999695 1 1 0.999695
0.999679 1 1 0.999679
0.999681 1 1 0.999681
0.999727 1 1 0.999727
0.999721 1 1 0.999721
0.999581 1 1 0.999581
0.999916 1 1.00036 0.999556
0.999865 1 1 0.999865
0.999776 1 1 0.999776
0.999723 1 1 0.999723
0.99989 1 1 0.99989
0.999784 1 1 0.999784
0.999896 1 1 0.999896
0.999731 1 1 0.999731
0.999795 1 1 0.999795
0.999689 1 1 0.999689
0.999727 1 1 0.999727
0.999797 1 1 0.999797
0.9999 1 1 0.9999
0.999993 1 1 0.999993
0.999992 1 1 0.999992
1 1 1 1
0.999991 1 1 0.999991
1 1 1 1
1 1 1 1
1 1 1 1
1 1 1 1
1 1 1 1
1 1 1 1
1 1 1 1
1 1 1 1
1 1 1 1
1 1 1 1
1 1 1 1
0.999664 1 1 0.999664
0.999617 1 1 0.999617
0.999692 1 1 0.999692
0.999587 1 1 0.999587
0.999604 1 1 0.999604
0.999601 1 1 0.999601
0.999602 1 1 0.999602
0.999602 1 1 0.999602
0.999627 1 1 0.999627
0.999718 1 1 0.999718
0.999604 1 1 0.999604
0.999615 1 1 0.999615
0.999676 1 1 0.999676
0.999573 1 1 0.999573
0.999572 1 1 0.999572
0.999637 1 1 0.999637
0.99978 1 1 0.99978
0.999738 1 1 0.999738
0.999629 1 1 0.999629
0.999698 1 1 0.999698
0.999754 1 1 0.999754
0.999669 1 1 0.999669
0.999748 1 1 0.999748
0.999723 1 1 0.999723
0.999698 1 1 0.999698
0.999968 1 1 0.999968
0.999756 1 1 0.999756
0.999842 1 1 0.999842
0.999575 1 1 0.999575
0.999558 1 1 0.999558
0.999661 1 1 0.999661
0.999748 1 1 0.999748
0.999668 1 1 0.999668
0.999593 1 1 0.999593
0.99976 1 1 0.99976
0.999692 1 1 0.999692
0.999983 1 1 0.999983
0.999877 1 1 0.999877
0.999719 1 1 0.999719
0.999678 1 1 0.999678
0.99968 1 1 0.99968
0.999767 1 1 0.999767
0.999589 1 1 0.999589
0.999576 1 1 0.999576
0.999699 1 0.999946 0.999753
0.999769 1 1 0.999769
0.999704 1 1 0.999704
0.999991 1 1.00041 0.999576
0.999611 1 1 0.999611
0.999997 1 1 0.999997
0.99992 1 1 0.99992
0.999882 1 1 0.999882
0.999776 1 1 0.999776
0.999693 1 1 0.999693
0.999634 1 1 0.999634
0.999696 1 1 0.999696
0.999648 1 1 0.999648
0.999854 1 1 0.999854
0.999762 1 1 0.999762
0.999727 1 1 0.999727
0.999725 1 1 0.999725
0.999733 1 1 0.999733
0.999714 1 1 0.999714
0.999658 1 1 0.999658
0.999706 1 1 0.999706
0.999648 1 1 0.999648
0.999571 1 1 0.999571
0.999759 1 1 0.999759
0.999701 1 1 0.999701
0.999685 1 1 0.999685
0.999685 1 1 0.999685
0.999729 1 1 0.999729
0.999717 1 1 0.999717
0.99959 1 1 0.99959
0.999745 1 1.00019 0.999553
0.99971 1 1 0.99971
0.999676 1 1 0.999676
0.999661 1 1 0.999661
0.999631 1 1 0.999631
0.999679 1 0.999935 0.999744
0.999564 1 1 0.999564
1.00011 1 1.0006 0.999511
0.999781 1 1 0.999781
0.999723 1 1 0.999723
0.99968 1 1 0.99968
0.999896 1 1 0.999896
0.999799 1 1 0.999799
0.999723 1 1 0.999723
0.9999 1 1 0.9999
0.999796 1 1 0.999796
0.999683 1 1 0.999683
0.999736 1 1 0.999736
0.999653 1 1 0.999653
0.999676 1 1 0.999676
0.999741 1 1 0.999741
0.999807 1 1 0.999807
0.9999 1 1 0.9999
0.999992 1 1 0.999992
0.999993 1 1 0.999993
1 1 1 1
0.999993 1 1 0.999993
1 1 1 1
1 1 1 1
1 1 1 1
1 1 1 1
1 1 1 1
0.999999 1 1 0.999999
1 1 1 1
1 1 1 1
1 1 1 1
1 1 1 1
1 1 1 1
1 1 1 1
0.999714 1 1 0.999714
0.999632 1 1 0.999632
0.999601 1 1 0.999601
0.999599 1 1 0.999599
0.999609 1 1 0.999609
0.99961 1 1 0.99961
0.999688 1 1 0.999688
0.99962 1 1 0.99962
0.99963 1 1 0.99963
0.999711 1 1 0.999711
0.999581 1 1 0.999581
0.999556 1 1 0.999556
0.999654 1 1 0.999654
0.999747 1 1 0.999747
0.999677 1 1 0.999677
0.999599 1 1 0.999599
0.999765 1 1 0.999765
0.99969 1 1 0.99969
0.999719 1 1 0.999719
0.99968 1 1 0.99968
0.999685 1 1 0.999685
0.999991 1 1 0.999991
0.999877 1 1 0.999877
0.999761 1 1 0.999761
0.999587 1 1 0.999587
0.999995 1 1 0.999995
0.999914 1 1 0.999914
0.999578 1 1 0.999578
0.999738 1 1 0.999738
0.999709 1 1 0.999709
0.999622 1 1.00002 0.999601
0.999735 1 1.00016 0.99958
0.999766 1 1 0.999766
0.999897 1 1 0.999897
0.999776 1 1 0.999776
0.999698 1 1 0.999698
0.999657 1 1 0.999657
0.999626 1 1 0.999626
0.999694 1 1 0.999694
0.999578 1 1 0.999578
0.999655 1 1 0.999655
0.999442 1 0.999603 0.99984
0.999649 1 1 0.999649
0.999672 1 1 0.999672
1.0007 1 1.00117 0.999538
0.999918 1 1 0.999918
0.999909 1 1 0.999909
0.999842 1 1 0.999842
0.99978 1 1 0.99978
0.999711 1 1 0.999711
0.999628 1 1 0.999628
0.999587 1 1 0.999587
0.999657 1 1 0.999657
0.999757 1 1 0.999757
0.999707 1 1 0.999707
0.999731 1 1 0.999731
0.999713 1 1 0.999713
0.99969 1 1 0.99969
0.999691 1 1 0.999691
0.999598 1 1 0.999598
0.999615 1 1.00006 0.99955
0.99971 1 1 0.99971
0.999693 1 1 0.999693
0.999661 1 1 0.999661
0.999657 1 1.00004 0.999621
0.999731 1 0.999992 0.99974
0.999565 1 1 0.999565
1.00005 1 1.00054 0.999509
0.999665 1 1 0.999665
1.00061 1.00138 0.999526 0.999706
0.999631 1 1 0.999631
1.00001 1 1.00046 0.999547
0.9995 1 0.999933 0.999567
1.00056 1 1.00109 0.999475
0.993901 1.00544 0.989017 0.999497
0.999723 1 1 0.999723
0.99968 1 1 0.99968
0.99965 1 1 0.99965
0.9999 1 1 0.9999
0.999796 1 1 0.999796
0.999744 1 1 0.999744
0.999677 1 1 0.999677
0.9999 1 1 0.9999
0.999802 1 1 0.999802
0.999651 1 1 0.999651
0.999741 1 1 0.999741
0.999683 1 1 0.999683
0.999632 1 1 0.999632
0.999692 1 1 0.999692
0.999744 1 1 0.999744
0.999793 1 1 0.999793
0.999884 1 1 0.999884
0.999815 1 1 0.999815
0.999883 1 1 0.999883
0.999992 1 1 0.999992
0.999992 1 1 0.999992
1 1 1 1
0.999992 1 1 0.999992
1 1 1 1
1 1 1 1
1 1 1 1
1 1 1 1
1 1 1 1
1 1 1 1
0.999999 1 1 0.999999
1 1 1 1
1 1 1 1
1 1 1 1
1 1 1 1
1 1 1 1
1 1 1 1
0.999701 1 1 0.999701
0.999604 1 1 0.999604
0.999614 1 1 0.999614
0.99962 1 1 0.99962
0.999636 1 1 0.999636
0.999718 1 1 0.999718
0.999647 1 1 0.999647
0.997322 1.00224 0.995308 0.99978
0.999682 1.00017 0.999705 0.99981
0.999938 1 1 0.999938
0.999584 1 1 0.999584
0.99958 1 1 0.99958
0.999723 1 1 0.999723
0.999713 1 1 0.999713
0.999592 1 1 0.999592
0.999584 1 1 0.999584
0.999763 1 1 0.999763
0.999699 1 1 0.999699
0.999666 1 1 0.999666
0.999617 1 1 0.999617
0.999994 1 1 0.999994
0.999696 1 1 0.999696
0.999912 1 1 0.999912
0.999775 1 1 0.999775
0.999908 1 1 0.999908
0.999571 1 1 0.999571
0.999925 1 1 0.999925
0.999909 1 1 0.999909
0.99983 1 1 0.99983
0.999657 1 1 0.999657
0.999324 1 0.999505 0.999818
0.999674 1 1 0.999674
1.00049 1 1.00096 0.999535
0.999653 1 1 0.999653
0.999789 1 1 0.999789
0.999707 1 1 0.999707
0.999654 1 1 0.999654
0.99963 1 1.00003 0.999595
0.999633 1 1 0.999633
0.999605 1 1.00004 0.99956
0.997209 1 0.997426 0.999782
0.999444 1 0.999725 0.999719
1.00028 1 1.00073 0.99955
1.00046 1 1.00084 0.999621
0.999831 1 1 0.999831
0.999801 1 1 0.999801
0.999765 1 1 0.999765
0.999711 1 1 0.999711
0.999656 1 1 0.999656
0.999588 1 1 0.999588
1.00117 1 1.0016 0.999572
0.99971 1 1 0.99971
0.99966 1 1 0.99966
0.99971 1 1 0.99971
0.999735 1 1 0.999735
0.999567 1 1 0.999567
0.999636 1 1.00002 0.999612
0.999931 1 1.00042 0.999506
0.999668 1 1 0.999668
1.00076 1.00148 0.99957 0.999714
0.999631 1 1 0.999631
0.99988 1 1.00033 0.999546
0.999559 1.00011 0.99987 0.999582
1.00118 1 1.00171 0.999472
0.997714 1.008 0.990262 0.999533
0.999637 1 1 0.999637
1.00089 1.00183 0.999532 0.999535
0.9996 1 1 0.9996
1.00254 1 1.00304 0.999498
1.00041 1 1.00095 0.999466
0.962041 0.963823 1.00004 0.998111
0.99327 1.00115 0.99264 0.999482
0.98521 1.00878 0.977123 0.999497
0.951985 0.961289 0.990677 0.999641
0.961125 0.984978 0.975943 0.999837
0.99968 1 1 0.99968
0.99965 1 1 0.99965
0.999621 1 1 0.999621
0.9999 1 1 0.9999
0.999796 1 1 0.999796
0.999741 1 1 0.999741
0.999691 1 1 0.999691
0.99965 1 1 0.99965
0.999736 1 1 0.999736
0.999891 1 1 0.999891
0.999799 1 1 0.999799
0.999637 1 1 0.999637
0.999689 1 1 0.999689
0.999696 1 1 0.999696
0.999639 1 1 0.999639
0.99972 1 1 0.99972
0.999791 1 1 0.999791
0.999883 1 1 0.999883
0.999808 1 1 0.999808
0.999742 1 1 0.999742
0.999794 1 1 0.999794
0.999803 1 1 0.999803
0.999893 1 1 0.999893
0.999883 1 1 0.999883
0.999991 1 1 0.999991
0.999991 1 1 0.999991
1 1 1 1
0.999992 1 1 0.999992
1 1 1 1
1 1 1 1
1 1 1 1
1 1 1 1
1 1 1 1
1 1 1 1
1 1 1 1
1 1 1 1
0.999998 1 1 0.999998
1 1 1 1
1 1 1 1
1 1 1 1
1 1 1 1
1 1 1 1
0.999641 1 1 0.999641
0.99962 1 1 0.99962
0.999725 1 1 0.999725
0.996795 1.0018 0.995225 0.999778
0.999643 1 1 0.999643
0.999707 1.00007 0.999863 0.999776
0.999629 1 1.00004 0.999592
0.9811 0.984914 0.99692 0.999206
0.999718 1.00014 0.999727 0.999855
0.999943 1 1 0.999943
0.999938 1 1 0.999938
0.999854 1 1 0.999854
0.999865 1 1 0.999865
0.999563 1 1 0.999563
0.999659 1 1 0.999659
0.999296 1 0.999499 0.999797
0.999677 1 1 0.999677
1.00019 1 1.00066 0.999531
0.999656 1 1 0.999656
0.999652 1 1 0.999652
0.999656 1 1.00005 0.999604
0.999639 1 1 0.999639
0.999909 1 1 0.999909
0.999704 1 1 0.999704
0.999797 1 1 0.999797
0.999932 1 1 0.999932
0.999818 1 1 0.999818
0.999606 1 1.00003 0.999571
0.999843 1 1 0.999843
0.999809 1 1 0.999809
0.999766 1 1 0.999766
0.998134 1.00003 0.998326 0.999783
0.999271 1 0.999551 0.99972
1.00044 1 1.00082 0.99962
1.00029 1 1.00074 0.999553
0.999714 1 1 0.999714
0.999659 1 1 0.999659
1.00056 1 1.00099 0.999573
0.999611 1 1.00003 0.999585
0.99959 1 0.999959 0.99963
0.997944 1.00045 0.99774 0.999758
0.999717 1 1.00019 0.999528
1.00048 1 1.00092 0.999566
0.999742 1 1 0.999742
0.999727 1 1 0.999727
0.999624 1 1 0.999624
1.00159 1 1.00207 0.999521
0.959984 0.963719 0.998058 0.998062
0.999672 1 1 0.999672
0.999631 1 1 0.999631
1.00093 1.00149 0.99972 0.999723
0.999811 1.00021 1 0.999597
1.00186 1 1.0024 0.99947
0.99984 1 1.00029 0.999545
1.00158 1.01037 0.991726 0.999569
0.999639 1 1 0.999639
1.00132 1.00255 0.999236 0.999534
0.999601 1 1 0.999601
1.00214 1 1.00264 0.9995
1.00011 1 1.00063 0.999477
0.962754 0.964303 1.00011 0.998288
0.989165 0.99787 0.992208 0.999061
0.989187 1.01045 0.979437 0.999507
0.956124 0.963843 0.992567 0.99942
0.959584 0.981772 0.977554 0.999842
0.999628 1 1 0.999628
0.962922 0.966468 0.99716 0.999169
0.97409 0.986532 0.987505 0.999882
0.99243 1.00044 0.992491 0.999497
1.00134 1 1.00176 0.999583
1.00793 1 1.00843 0.9995
1.00143 1.01017 0.991902 0.999448
0.973727 0.971744 1.00405 0.997994
0.992765 1.00561 0.988195 0.999015
0.953034 0.965752 0.987244 0.999582
0.991065 1.00642 0.984845 0.999893
0.999651 1 1 0.999651
0.999621 1 1 0.999621
0.999595 1 1 0.999595
0.999898 1 1 0.999898
0.999805 1 1 0.999805
0.999727 1 1 0.999727
0.999686 1 1 0.999686
0.999641 1 1 0.999641
0.999883 1 1 0.999883
0.999694 1 1 0.999694
0.999729 1 1 0.999729
0.999798 1 1 0.999798
0.999631 1 1 0.999631
0.999666 1 1 0.999666
0.999793 1 1.0002 0.999596
0.999724 1 1 0.999724
0.999805 1 1 0.999805
0.999808 1 1 0.999808
0.999733 1 1 0.999733
0.999734 1 1 0.999734
0.999722 1 1 0.999722
0.999687 1 1 0.999687
0.999697 1 1 0.999697
0.99978 1 1 0.99978
0.999794 1 1 0.999794
0.999887 1 1 0.999887
0.999792 1 1 0.999792
0.999887 1 1 0.999887
0.99999 1 1 0.99999
0.999883 1 1 0.999883
0.999991 1 1 0.999991
1 1 1 1
0.999991 1 1 0.999991
1 1 1 1
1 1 1 1
1 1 1 1
1 1 1 1
1 1 1 1
0.99994 1 1 0.99994
1 1 1 1
1 1 1 1
1 1 1 1
1 1 1 1
1 1 1 1
1 1 1 1
1 1 1 1
1 1 1 1
1 1 1 1
0.996308 1.00175 0.994788 0.999776
0.99964 1 1 0.99964
0.999742 1 1 0.999742
0.981235 0.98446 0.997262 0.999461
0.999821 1.00008 0.999883 0.999855
0.999609 1 1.00003 0.999575
1.0012 1 1.00159 0.999602
0.987438 0.986526 1.00163 0.999299
0.964912 0.967083 1.00011 0.997641
0.949786 0.961092 0.989101 0.999127
0.961115 0.979556 0.981318 0.999853
0.999851 1 1 0.999851
0.999942 1 1 0.999942
0.999938 1 1 0.999938
0.99985 1 1 0.99985
0.999794 1 1 0.999794
0.99981 1 1 0.99981
0.999855 1 1 0.999855
0.999859 1 1 0.999859
0.999609 1 1.00003 0.999583
0.998939 1.00002 0.999138 0.999783
0.99906 1 0.999339 0.999721
1.00045 1 1.00083 0.999619
1.00033 1 1.00077 0.999556
1.00002 1 1.00045 0.999574
0.999651 1 1.00007 0.999582
0.999662 1 1 0.999662
0.999817 1 1 0.999817
0.999717 1 1 0.999717
0.999855 1 1 0.999855
0.999767 1 1 0.999767
0.999091 1.00001 0.999465 0.999621
0.999746 1 1 0.999746
0.99973 1 1 0.99973
0.997263 1.00019 0.997315 0.999757
0.999596 1 1.00006 0.999541
1.00093 1 1.00138 0.999552
0.999623 1 1 0.999623
1.00161 1 1.00208 0.999524
0.990807 1.00504 0.986212 0.999624
1.00209 1.00036 1.00217 0.999559
0.999649 1 1.00015 0.999498
1.00459 1 1.0051 0.999492
0.999692 1 1 0.999692
0.999653 1 1 0.999653
1.00009 1 1.00054 0.999547
0.96263 0.969183 0.993728 0.999508
0.963659 0.965575 0.99988 0.998136
0.999642 1 1 0.999642
0.999602 1 1 0.999602
1.00173 1.00346 0.998742 0.999532
0.999751 1 1.00026 0.999487
1.00165 1 1.00215 0.999503
0.962542 0.964993 0.999863 0.997597
0.990795 0.998094 0.993105 0.99958
0.99349 1.01256 0.981644 0.999516
0.952082 0.962788 0.989701 0.99917
0.957726 0.978639 0.97878 0.999847
0.999627 1 1 0.999627
0.96038 0.968082 0.992484 0.999557
0.975311 0.985249 0.990018 0.999893
0.99359 1.00051 0.993589 0.999493
1.00047 1 1.00089 0.999585
1.00716 1 1.00765 0.999511
0.997394 1.0076 0.990434 0.999429
0.97451 0.973153 1.00363 0.997776
0.987936 1.00098 0.987484 0.999477
0.952659 0.965884 0.987169 0.999128
0.985945 1.00503 0.981123 0.999888
0.999602 1 1 0.999602
0.991533 0.993299 0.998292 0.99993
1.01097 1.01282 0.998236 0.999938
1.00804 1 1.00853 0.999512
1.0058 1 1.00616 0.999646
1.00432 1.00361 1.00103 0.999689
0.990807 0.999644 0.991385 0.999772
0.978112 0.975366 1.00494 0.997888
0.966562 0.982813 0.984343 0.999107
1.00362 1.01476 0.989105 0.999912
0.999622 1 1 0.999622
0.999592 1 1 0.999592
1 1 1.00042 0.999578
0.999883 1 1 0.999883
0.999805 1 1 0.999805
0.999739 1 1 0.999739
0.999692 1 1 0.999692
0.999624 1 1 0.999624
0.999805 1 1 0.999805
0.999672 1 1 0.999672
0.999724 1 1 0.999724
0.999835 1 1.00024 0.99959
1.00011 1 1.00055 0.99956
0.99973 1 1.00009 0.999643
0.999728 1 1 0.999728
0.999808 1 1 0.999808
0.999723 1 1 0.999723
0.999733 1 1 0.999733
0.999722 1 1 0.999722
0.999686 1 1 0.999686
0.999706 1 1 0.999706
0.999678 1 1 0.999678
0.999659 1 1 0.999659
0.999667 1 1 0.999667
0.999702 1 1 0.999702
0.999704 1 1 0.999704
0.999698 1 1 0.999698
0.999768 1 1 0.999768
0.99978 1 1 0.99978
0.999876 1 1 0.999876
0.999794 1 1 0.999794
0.999886 1 1 0.999886
0.999987 1 1 0.999987
0.99988 1 1 0.99988
0.999989 1 1 0.999989
1 1 1 1
0.99999 1 1 0.99999
1 1 1 1
1 1 1 1
1 1 1 1
1 1 1 1
1 1 1 1
0.999946 1 1 0.999946
1 1 1 1
0.99994 1 1 0.99994
1 1 1 1
1 1 1 1
1 1 1 1
1 1 1 1
1 1 1 1
1 1 1 1
1 1 1 1
1 1 1 1
0.957606 0.965329 0.99239 0.999607
0.978596 0.98804 0.990521 0.99992
0.982558 0.98512 0.997719 0.99968
0.999837 1 0.999984 0.999853
0.999587 1 1.00003 0.999558
0.986747 0.985026 1.00196 0.999793
1.00043 1.00002 1.0008 0.999613
0.968801 0.96931 1.00136 0.998121
0.954143 0.962413 0.991775 0.999629
0.95942 0.979289 0.979848 0.99986
0.999944 0.995541 1.00465 0.999773
0.973631 0.972805 1.00277 0.998085
0.952016 0.964664 0.987282 0.999601
0.983191 1.00313 0.980249 0.999874
0.999774 1 1 0.999774
0.999856 1 1 0.999856
0.999942 1 1 0.999942
0.999847 1 1 0.999847
0.9998 1 1 0.9998
0.999788 1 1 0.999788
0.999812 1 1 0.999812
0.999826 1 1 0.999826
0.999848 1 1 0.999848
0.999854 1 1 0.999854
0.998637 1 0.999025 0.999611
0.996874 1.00005 0.997069 0.999754
0.999554 1 1 0.999554
1.00132 1 1.00178 0.999538
1.0015 1 1.00198 0.999527
0.999622 1 1 0.999622
0.999732 1 1 0.999732
0.99975 1 1 0.99975
0.993082 1.00383 0.989689 0.999602
0.999689 1 1 0.999689
0.999645 1 1 0.999645
1.00035 1.00022 1.00057 0.999557
1.00016 1 1.00066 0.9995
1.00364 1 1.00416 0.999483
1.00066 1 1.00112 0.999539
0.985348 1.01251 0.973682 0.999477
1.00816 1 1.00868 0.999492
1.00423 1 1.00476 0.999478
0.999687 1 1 0.999687
0.999636 1 1 0.999636
0.999576 1 1 0.999576
0.991795 0.99454 0.997359 0.999881
0.963093 0.968443 0.995351 0.999121
0.961695 0.965399 0.998115 0.998044
0.999626 1 1 0.999626
0.999629 1 1.00004 0.999588
0.994994 1.00051 0.994997 0.999489
1.00657 1 1.00705 0.999523
0.957018 0.966193 0.991377 0.999119
0.972195 0.97207 1.00164 0.998493
0.989412 1.00219 0.988178 0.999063
0.994265 1.00518 0.989718 0.999417
0.953385 0.965275 0.98805 0.999627
0.97794 0.987409 0.990534 0.999875
0.982833 1.00138 0.981599 0.999875
0.9996 1 1 0.9996
0.988556 0.992191 0.996427 0.999909
1.01172 1.0137 0.998114 0.999937
1.00748 1 1.00797 0.999515
1.00609 1 1.00645 0.999647
1.00747 1.00315 1.00495 0.999358
0.988911 0.999731 0.990017 0.999151
0.977378 0.976766 1.00278 0.997852
0.972185 0.984037 0.988287 0.999665
0.999901 1.0129 0.987272 0.999895
0.99967 1 1 0.99967
1.011 1.01125 0.999791 0.999962
1.01008 1.01207 0.998063 0.999968
1.00736 1 1.00757 0.999789
0.997281 0.994694 1.00269 0.999908
0.986413 0.983453 1.00501 0.998006
0.983918 0.998477 0.985765 0.999648
1.00068 1.01601 0.985025 0.999885
0.999589 1 1 0.999589
0.999942 1 1.00036 0.999586
1.0009 1 1.0013 0.999596
0.999805 1 1 0.999805
0.999724 1 1 0.999724
0.999678 1 1 0.999678
0.999866 1 1.00028 0.999584
0.999728 1 1 0.999728
0.999675 1 1.00003 0.999644
1.00049 1 1.00093 0.999558
1.00043 1 1.00086 0.999578
0.999784 1 1.00021 0.999572
0.999667 1 1 0.999667
0.999733 1 1 0.999733
0.999722 1 1 0.999722
0.999685 1 1 0.999685
0.99968 1 1 0.99968
0.999707 1 1 0.999707
0.999662 1 1 0.999662
0.99965 1 1 0.99965
0.999637 1 1 0.999637
0.999643 1 1 0.999643
0.999667 1 1 0.999667
0.999676 1 1 0.999676
0.999682 1 1 0.999682
0.999745 1 1 0.999745
0.999719 1 1 0.999719
0.999709 1 1 0.999709
0.999757 1 1 0.999757
0.999699 1 1 0.999699
0.999768 1 1 0.999768
0.999863 1 1 0.999863
0.999779 1 1 0.999779
0.999875 1 1 0.999875
0.999984 1 1 0.999984
0.999886 1 1 0.999886
0.999987 1 1 0.999987
1 1 1 1
0.999988 1 1 0.999988
1 1 1 1
1 1 1 1
1 1 1 1
1 1 1 1
1 1 1 1
0.999919 1 1 0.999919
1 1 1 1
0.999934 1 1 0.999934
1 1 1 1
1 1 1 1
0.99994 1 1 0.99994
1 1 1 1
1 1 1 1
1 1 1 1
1 1 1 1
1 1 1 1
1 1 1 1
0.991595 0.993542 0.998104 0.999936
0.959807 0.966421 0.993787 0.999365
1.00893 1.01274 0.99629 0.999947
0.975575 0.984652 0.990868 0.999913
0.9835 0.983685 1.00054 0.999274
0.99975 1.00008 1.00004 0.999624
0.969214 0.969125 1.00147 0.998624
0.952121 0.962653 0.989903 0.999147
0.958227 0.979555 0.978358 0.999866
0.997029 0.997072 1.00037 0.999591
0.973101 0.970836 1.00434 0.998004
0.954332 0.967644 0.9871 0.999132
0.981301 1.00289 0.978595 0.99988
0.99635 1.00424 0.992388 0.999757
0.97504 0.972381 1.00484 0.997899
0.970581 0.986129 0.984579 0.999649
0.99852 1.0161 0.982785 0.999909
0.999731 1 1 0.999731
0.999782 1 1 0.999782
0.999862 1 1 0.999862
0.999806 1 1 0.999806
0.999748 1 1 0.999748
0.999793 1 1 0.999793
0.999815 1 1 0.999815
0.999818 1 1 0.999818
0.999833 1 1 0.999833
0.999841 1 1 0.999841
0.995614 1.00287 0.993186 0.999579
0.998464 1 0.998908 0.999556
1.00057 1 1.00106 0.999503
1.00296 1 1.00349 0.999474
1.00129 1 1.00176 0.999531
0.999637 1 1 0.999637
0.999686 1 1 0.999686
0.999688 1 1 0.999688
0.987583 1.0101 0.978217 0.999477
0.99964 1 1 0.99964
0.999663 1 1.00009 0.999572
1.00762 1 1.00814 0.999485
1.00409 1 1.00462 0.999477
0.987692 1.01062 0.977831 0.999471
1.01746 1 1.01794 0.999533
1.0003 1 1.00078 0.999523
0.999647 1 1 0.999647
0.999582 1 1 0.999582
1.01018 1.01044 0.999768 0.999971
0.992262 0.994304 0.998035 0.999911
0.963435 0.969235 0.994439 0.999574
0.999598 1 1 0.999598
1.00621 1 1.00656 0.999647
1.00652 1 1.00701 0.999517
0.992187 0.993914 0.998331 0.999932
0.977176 0.974785 1.00465 0.997815
0.987263 0.998838 0.988684 0.999725
1.00874 1.002 1.00772 0.99901
0.965734 0.981118 0.985192 0.999116
1.0127 1.0148 0.997988 0.999936
1.00194 1.01313 0.98906 0.999892
0.999678 1 1 0.999678
1.01226 1.01238 0.999921 0.999963
1.01119 1.01339 0.997863 0.999968
1.00758 0.999985 1.0079 0.999695
0.996618 0.996159 1.00074 0.999716
0.988499 0.985553 1.00511 0.997893
1.0034 1.01651 0.987195 0.999903
0.982211 0.994847 0.987862 0.999429
0.999741 1 1 0.999741
1.00375 1.00432 0.99944 0.999993
1.00824 1.01014 0.998138 0.99998
1.00137 1.01501 0.986645 0.999908
1.00603 0.99655 1.00961 0.999908
0.982847 0.98238 1.00232 0.998163
0.978947 0.995927 0.983399 0.999544
0.999862 1 1.00027 0.999594
1.00067 1 1.00109 0.999579
1.00319 1 1.00355 0.999642
0.999728 1 1 0.999728
0.999645 1 1 0.999645
1.00093 1 1.00138 0.999556
0.99967 1 1 0.99967
0.999896 1 1.00033 0.999571
1.00083 1 1.00126 0.999565
0.999946 1 1.00035 0.999592
0.999603 1 1 0.999603
0.999682 1 1 0.999682
0.999707 1 1 0.999707
0.999664 1 1 0.999664
0.999638 1 1 0.999638
0.999649 1 1 0.999649
0.999625 1 1 0.999625
0.999661 1 1 0.999661
0.999785 1 1.00019 0.999594
0.999668 1 1 0.999668
0.999675 1 1 0.999675
0.999625 1 1 0.999625
0.999697 1 1 0.999697
0.999749 1 1 0.999749
0.999683 1 1 0.999683
0.999775 1 1 0.999775
0.999741 1 1 0.999741
0.999736 1 1 0.999736
0.999714 1 1 0.999714
0.999762 1 1 0.999762
0.999853 1 1 0.999853
0.999768 1 1 0.999768
0.999863 1 1 0.999863
0.99998 1 1 0.99998
0.999875 1 1 0.999875
0.999983 1 1 0.999983
1 1 1 1
0.999986 1 1 0.999986
1 1 1 1
1 1 1 1
1 1 1 1
1 1 1 1
1 1 1 1
0.999886 1 1 0.999886
0.999983 1 1 0.999983
0.999918 1 1 0.999918
1 1 1 1
0.999993 1 1 0.999993
0.999922 1 1 0.999922
1 1 1 1
1 1 1 1
1 1 1 1
1 1 1 1
1 1 1 1
1 1 1 1
1.00978 1.01001 0.999802 0.999968
0.987921 0.992056 0.995945 0.999886
0.961834 0.966589 0.995914 0.999164
0.999788 1 1 0.999788
1.01132 1.01252 0.998833 0.999974
1.0108 1.01357 0.997324 0.999947
0.973491 0.984303 0.989139 0.999875
0.994268 0.998178 0.99669 0.999391
0.975834 0.971501 1.00643 0.998043
0.958064 0.969571 0.988499 0.999629
0.980755 1.00096 0.97994 0.999868
0.994864 1.00777 0.987945 0.999235
0.976524 0.973802 1.00485 0.997952
0.968609 0.985599 0.983348 0.999404
0.997792 1.01593 0.98225 0.999895
0.977878 1.00022 0.978478 0.99917
0.980352 0.978351 1.00459 0.997463
0.979902 0.994658 0.986009 0.999144
0.997786 1.01732 0.980921 0.999872
0.999686 1 1 0.999686
0.999726 1 1 0.999726
0.999789 1 1 0.999789
0.999735 1 1 0.999735
0.999756 1 1 0.999756
0.999798 1 1 0.999798
0.99982 1 1 0.99982
0.99984 1 1 0.99984
0.989627 1.00753 0.982749 0.999477
1.00698 1 1.0075 0.999479
0.999689 1 1 0.999689
1.00385 1 1.00438 0.999477
0.999735 1 1.00017 0.999569
0.999645 1 1 0.999645
0.999648 1 1 0.999648
0.988622 1.00979 0.979561 0.99947
0.999583 1 1 0.999583
1.00112 1 1.0016 0.99952
1.01759 1 1.01807 0.999528
0.999642 1 1 0.999642
1.0037 1.00289 1.00118 0.999636
1.01322 1 1.01363 0.999589
0.999569 1 1 0.999569
0.999599 1 1 0.999599
1.00271 1.00277 0.999951 0.999995
1.00944 1.00968 0.999789 0.999972
0.992497 0.993991 0.998555 0.999942
0.999687 1 1 0.999687
1.008 0.999979 1.00842 0.999603
1.01349 1.01354 0.999995 0.999963
0.984895 0.979776 1.00733 0.997915
1.00053 0.999927 1.00138 0.999222
0.977981 0.993046 0.985606 0.999212
1.0119 1.01425 0.997711 0.999969
1.0068 1.01694 0.990105 0.999921
0.99973 1 1 0.99973
1.00332 1.00385 0.999473 0.999994
1.00696 1.00845 0.998539 0.999984
1.00409 0.996099 1.00808 0.999938
1.00031 1.01475 0.98588 0.999893
0.981246 0.985338 0.997519 0.998324
0.976981 0.993924 0.983824 0.999116
1.0057 0.998715 1.0072 0.99979
0.99955 0.999396 1.00015 1
1.01233 1.0128 0.999562 0.999972
0.985145 1.00269 0.982632 0.999871
0.98064 0.992562 0.988825 0.999154
0.998306 0.992867 1.00533 1.00015
0.976285 0.980168 0.997868 0.998167
1.00045 1 1.00089 0.999562
1.00231 1 1.00268 0.999632
1.01222 1 1.01262 0.999602
0.999672 1 1 0.999672
0.999936 1 1.00037 0.99957
1.00109 1 1.00154 0.999552
0.999604 1 1 0.999604
1.00002 1 1.00043 0.999589
1.00296 1 1.00337 0.999589
0.999638 1 1 0.999638
0.999649 1 1 0.999649
0.9998 1 1.00018 0.999621
1.00139 1 1.00183 0.999566
0.999679 1 1 0.999679
0.999717 1 1.00011 0.999604
0.999863 1 1.00031 0.999553
0.999621 1 1 0.999621
0.999675 1 1 0.999675
0.999618 1 1 0.999618
0.999726 1 1 0.999726
0.999747 1 1 0.999747
0.999704 1 1 0.999704
0.999787 1 1 0.999787
0.999748 1 1 0.999748
0.999684 1 1 0.999684
0.999851 1 1 0.999851
0.999773 1 1 0.999773
0.999738 1 1 0.999738
0.999766 1 1 0.999766
0.999853 1 1 0.999853
0.999975 1 1 0.999975
0.999863 1 1 0.999863
0.999979 1 1 0.999979
1 1 1 1
0.999982 1 1 0.999982
1 1 1 1
1 1 1 1
1 1 1 1
1 1 1 1
1 1 1 1
0.999869 1 1 0.999869
0.999975 1 1 0.999975
0.999893 1 1 0.999893
1 1 1 1
0.999983 1 1 0.999983
0.999918 1 1 0.999918
1 1 1 1
1 1 1 1
0.999987 1 1 0.999987
1 1 1 1
1 1 1 1
1 1 1 1
1.0043 1.00436 0.99994 0.999993
1.00956 1.00993 0.999664 0.999968
0.989791 0.992855 0.99703 0.999884
0.999791 1 1 0.999791
0.999771 1 1 0.999771
0.999735 1 1 0.999735
1.0067 1.00957 0.99718 0.999981
1.01194 1.01334 0.998642 0.999974
1.01289 1.01442 0.998546 0.999947
0.998258 1.01157 0.987111 0.99973
0.97603 0.972513 1.0057 0.997926
0.966407 0.983553 0.983415 0.999138
0.999777 1.0169 0.983261 0.999902
0.976091 0.998163 0.978216 0.999664
0.983903 0.980024 1.00596 0.998009
0.981978 0.998642 0.983718 0.999589
1.00024 1.01765 0.982993 0.999896
0.974461 0.993503 0.981034 0.999795
0.979978 0.980908 1.00096 0.998096
0.981324 0.999036 0.982792 0.99947
0.997598 1.01373 0.984171 0.999914
0.999672 1 1 0.999672
0.999686 1 1 0.999686
0.999721 1 1 0.999721
0.999734 1 1 0.999734
0.999764 1 1 0.999764
0.999823 1 1 0.999823
0.989482 1.00883 0.981345 0.999469
1.01745 1 1.01794 0.999522
0.999648 1 1 0.999648
1.00183 1 1.00231 0.999518
0.999585 1 1 0.999585
0.999641 1 1 0.999641
0.999595 1 1 0.999595
1.00058 1.0039 0.997063 0.999628
0.999575 1 1 0.999575
1.01372 1 1.01412 0.999605
0.999601 1 1 0.999601
1.02039 0.999185 1.02147 0.99976
1.00012 1 1.00044 0.999681
0.999564 1 1 0.999564
0.998809 0.998714 1.00009 1
1.00176 1.00183 0.999933 0.999997
1.0087 1.00891 0.999822 0.999973
0.999718 1 1 0.999718
1.00186 0.995452 1.00645 0.999986
1.00286 1.00336 0.999513 0.999995
0.986591 0.988722 0.998829 0.999016
0.982469 0.999543 0.983327 0.999584
1.00595 1.00693 0.999034 0.999988
1.00231 1.0158 0.986813 0.999901
1.00478 0.99937 1.00561 0.999801
0.999315 0.999099 1.00022 1
1.01303 1.01366 0.999411 0.999972
1.00029 0.992749 1.0079 0.999694
0.983842 1.00269 0.981327 0.999876
0.982159 0.996462 0.986037 0.999604
0.976428 0.980467 0.997672 0.998204
1.01893 1 1.01905 0.999882
1.00429 1.0043 0.999992 0.999992
1.01042 1.01317 0.997341 0.999944
0.961429 0.979227 0.981974 0.999848
0.972316 0.984428 0.988048 0.999645
0.989427 0.985207 1.00617 0.998122
0.979059 0.99146 0.987961 0.999525
1.00129 1 1.00167 0.999622
1.01337 1 1.01377 0.999606
1.01946 1 1.01987 0.999597
0.999605 1 1 0.999605
1.00014 1 1.00055 0.999586
1.00239 1 1.00281 0.99959
1.01019 1 1.01067 0.999519
0.999936 1 1.00032 0.999617
1.00168 1 1.00212 0.999555
1.00405 1 1.00456 0.999487
0.999613 1 1 0.999613
1.00021 1 1.00066 0.999551
1.00001 1 1.00048 0.999527
0.999589 1 1 0.999589
0.999691 1 1 0.999691
0.999613 1 1 0.999613
0.999611 1 1 0.999611
0.99976 1 1 0.99976
0.999734 1 1 0.999734
0.999783 1 1 0.999783
0.999753 1 1 0.999753
0.999711 1 1 0.999711
0.999854 1 1 0.999854
0.999788 1 1 0.999788
0.999747 1 1 0.999747
0.999969 1 1 0.999969
0.999852 1 1 0.999852
0.99977 1 1 0.99977
0.999854 1 1 0.999854
0.999974 1 1 0.999974
1 1 1 1
0.999978 1 1 0.999978
1 1 1 1
1 1 1 1
1 1 1 1
1 1 1 1
1 1 1 1
0.999868 1 1 0.999868
0.999984 1 1 0.999984
0.999875 1 1 0.999875
1 1 1 1
0.999983 1 1 0.999983
0.999899 1 1 0.999899
1 1 1 1
1 1 1 1
0.999983 1 1 0.999983
1 1 1 1
1 1 1 1
1 1 1 1
0.999627 0.999364 1.00026 1
1.00403 1.00411 0.999931 0.999993
1.00922 1.00983 0.999426 0.999969
0.999767 1 1 0.999767
0.999735 1 1 0.999735
0.999794 1 1 0.999794
0.99977 1 1 0.99977
0.999727 1 1 0.999727
0.999722 1 1 0.999722
0.999689 1 1 0.999689
1.00893 1.01099 0.997996 0.99997
1.00594 1.00822 0.997753 0.999985
1.01244 1.01417 0.998326 0.999974
1.00335 1.01789 0.985796 0.99992
0.98045 1.00331 0.978045 0.99915
0.985216 0.979902 1.00693 0.998506
0.977609 0.99586 0.982568 0.999089
0.979359 0.993336 0.986433 0.999489
0.985119 0.984935 1.00213 0.998057
0.979699 0.997244 0.983324 0.999067
0.995909 1.01335 0.9829 0.999884
0.986222 0.988849 0.997464 0.99988
0.977566 0.985021 0.994404 0.998016
0.985218 1.00212 0.983544 0.999584
0.988807 1.0052 0.983793 0.999896
0.999652 1 1 0.999652
0.999671 1 1 0.999671
0.999686 1 1 0.999686
0.999733 1 1 0.999733
0.996658 1.00489 0.992182 0.99962
1.01459 1 1.01497 0.999621
0.99964 1 1 0.99964
0.999591 1 1 0.999591
0.999582 1 1 0.999582
0.999606 1 1 0.999606
0.99956 1 1 0.99956
1.01121 0.997233 1.01424 0.999777
1.00014 1 1.00044 0.999705
0.99956 1 1 0.99956
1.02374 0.993606 1.03044 0.999897
1.00349 1 1.00395 0.999542
1.00265 1.00266 0.999993 0.999995
0.998827 0.998752 1.00007 1
1.00083 1.00088 0.999945 0.999999
1.00412 1 1.00431 0.999811
1.00048 0.992058 1.00839 1.00011
0.999062 0.998823 1.00024 1
0.977141 0.98033 0.998611 0.998134
0.977178 0.993706 0.984248 0.999105
1.01359 1.01452 0.999113 0.999972
0.984285 1.00067 0.98376 0.999866
1.02087 0.999596 1.02142 0.999866
1.004 1.00403 0.999974 0.999993
1.01227 1.01399 0.998361 0.999943
0.983551 0.993877 0.989525 1.00009
0.95984 0.978697 0.980874 0.999856
0.969337 0.983081 0.986616 0.999395
0.991265 0.984338 1.00877 0.998282
1.00581 1 1.00596 0.999845
1.01018 1.01015 1.00006 0.999965
0.98019 0.988276 0.9919 0.999917
0.951439 0.963398 0.98799 0.99959
0.982936 0.978129 1.00698 0.997951
0.976782 0.996497 0.980881 0.999321
1.01473 1 1.01513 0.99961
1.02008 1 1.02049 0.999595
1.02006 1 1.02054 0.999531
1.00189 1 1.0023 0.999591
1.01065 1 1.01112 0.999529
1.00781 1 1.00837 0.999444
1.00215 1 1.0026 0.999545
1.0041 1 1.00463 0.999476
1.00251 1 1.00306 0.999456
1.00065 1 1.0011 0.999548
1.00014 1 1.00062 0.999517
0.99998 1 1.00045 0.999531
0.999597 1 1 0.999597
0.99965 1 1 0.99965
0.999583 1 1 0.999583
0.99974 1 1 0.99974
0.999697 1 1 0.999697
0.999605 1 1 0.999605
0.99978 1 1 0.99978
0.999756 1 1 0.999756
0.999741 1 1 0.999741
0.99985 1 1 0.99985
0.999787 1 1 0.999787
0.999759 1 1 0.999759
0.999964 1 1 0.999964
0.999854 1 1 0.999854
0.999788 1 1 0.999788
1 1 1 1
0.999969 1 1 0.999969
0.999852 1 1 0.999852
0.999973 1 1 0.999973
1 1 1 1
1 1 1 1
1 1 1 1
1 1 1 1
1 1 1 1
0.99977 1 1 0.99977
0.999855 1 1 0.999855
0.999978 1 1 0.999978
0.999868 1 1 0.999868
1 1 1 1
0.999986 1 1 0.999986
0.999881 1 1 0.999881
1 1 1 1
1 1 1 1
0.999992 1 1 0.999992
1 1 1 1
1 1 1 1
1 1 1 1
1.00367 1.00391 0.999772 0.999994
0.999413 0.999082 1.00033 1
1.0038 1.00386 0.999955 0.999994
0.99977 1 1 0.99977
0.999731 1 1 0.999731
0.99973 1 1 0.99973
0.999723 1 1 0.999723
0.999712 1 1 0.999712
0.999769 1 1 0.999769
0.99972 1 1 0.99972
0.999722 1 1 0.999722
0.99969 1 1 0.99969
0.999688 1 1 0.999688
1.01023 1.01097 0.999334 0.999939
1.00975 1.01208 0.99773 0.99997
1.00491 1.00665 0.998285 0.999989
0.997146 1.01337 0.984107 0.999881
0.984026 1.00172 0.982801 0.999531
0.983862 0.993003 0.991553 0.999235
0.979308 0.98302 0.998084 0.998137
0.990371 0.988232 1.00281 0.999354
0.977261 0.982249 0.996836 0.99808
0.98253 0.998376 0.984758 0.999361
0.985685 1.00385 0.982007 0.999893
1.0103 0.985978 1.02528 0.999404
0.982738 0.984442 1.00013 0.998143
0.964421 0.982768 0.98218 0.999136
0.963379 0.984616 0.97857 0.999858
0.999688 1 1 0.999688
0.999654 1 1 0.999654
0.999669 1 1 0.999669
1.00314 0.995542 1.00784 0.999794
1.00014 1 1.00041 0.99973
0.999611 1 1 0.999611
0.999555 1 1 0.999555
0.999598 1 1.00003 0.999565
1.00397 1 1.00444 0.999536
1.02386 0.995283 1.02882 0.999897
1.00391 1 1.00435 0.999554
1.01277 0.999006 1.01406 0.999725
1.00957 1.0096 1 0.999969
1.00173 1.00173 0.999995 0.999997
0.998845 0.998796 1.00005 1
1.02249 0.999181 1.02348 0.999851
0.98537 0.992819 0.992982 0.999511
1.00377 1.00376 1.00001 0.999993
0.982729 0.981885 1.00327 0.997602
0.968081 0.981935 0.986755 0.999124
1.01409 1.01482 0.999335 0.999942
0.95905 0.978994 0.979761 0.999864
1.00621 1 1.00636 0.999851
1.01003 1.01006 1 0.999966
0.976609 0.984734 0.991838 0.999911
0.972769 0.993983 0.979036 0.999613
0.95435 0.966835 0.987949 0.999126
0.985799 0.97978 1.00853 0.997639
0.986676 1.00028 0.986664 0.99973
0.99247 0.994029 0.998499 0.999932
0.950061 0.961374 0.989102 0.999122
0.976223 0.973755 1.00467 0.997874
0.979451 0.999868 0.979958 0.999614
1.02023 1 1.02064 0.999593
1.02143 1 1.02191 0.99953
1.01167 1 1.01222 0.999459
1.0109 1 1.01137 0.999539
1.00736 1 1.00792 0.999448
1.00178 1 1.00233 0.999451
1.00393 1 1.00447 0.999465
1.00186 1 1.0024 0.999459
0.999554 1 1 0.999554
1.00019 1 1.00068 0.999508
0.999763 1 1.00023 0.999536
0.999619 1 1 0.999619
0.999652 1 1 0.999652
0.99963 1 1 0.99963
0.9996 1 1 0.9996
0.999704 1 1 0.999704
0.99964 1 1 0.99964
0.999576 1 1 0.999576
0.999782 1 1 0.999782
0.999746 1 1 0.999746
0.999703 1 1 0.999703
0.999839 1 1 0.999839
0.99978 1 1 0.99978
0.999753 1 1 0.999753
0.999958 1 1 0.999958
0.99985 1 1 0.99985
0.99979 1 1 0.99979
1 1 1 1
0.999964 1 1 0.999964
0.999855 1 1 0.999855
1 1 1 1
1 1 1 1
0.999969 1 1 0.999969
1 1 1 1
1 1 1 1
1 1 1 1
0.999763 1 1 0.999763
0.999844 1 1 0.999844
0.999767 1 1 0.999767
0.999973 1 1 0.999973
0.999855 1 1 0.999855
1 1 1 1
0.99998 1 1 0.99998
0.999868 1 1 0.999868
1 1 1 1
1 1 1 1
0.999988 1 1 0.999988
1 1 1 1
1 1 1 1
1 1 1 1
1.00972 1.00976 1 0.999964
1.00334 1.00355 0.999797 0.999994
0.999181 0.99882 1.00036 1
0.999741 1 1 0.999741
0.999773 1 1 0.999773
0.999727 1 1 0.999727
0.999728 1 1 0.999728
0.999734 1 1 0.999734
0.999712 1 1 0.999712
0.999706 1 1 0.999706
0.999698 1 1 0.999698
0.999722 1 1 0.999722
0.99969 1 1 0.99969
0.999688 1 1 0.999688
0.99968 1 1 0.99968
0.976537 0.986725 0.989792 0.999882
1.01072 1.01156 0.999232 0.999938
1.0109 1.01347 0.997496 0.999971
0.984568 1.00141 0.983304 0.999873
0.979883 0.997283 0.983406 0.999133
0.976313 0.983971 0.994184 0.998021
0.992325 0.984767 1.00775 0.999923
1.01124 0.98575 1.02591 0.999946
0.960925 0.980884 0.979783 0.999867
0.984608 0.985823 1.00095 0.997817
0.965817 0.981601 0.984265 0.99965
1.00315 0.993837 1.00947 0.999902
0.982773 0.97954 1.00518 0.998135
0.949762 0.962307 0.987315 0.999644
1.00015 1 1.00041 0.999745
0.999688 1 1 0.999688
0.999657 1 1 0.999657
1.02405 0.997116 1.02711 0.999897
1.00459 1 1.00506 0.99953
0.999619 1 1.00005 0.999569
1.0042 1 1.00465 0.999558
1.01181 0.999584 1.01251 0.999726
1.00911 1 1.00939 0.999726
0.991051 0.993744 0.997409 0.999881
1.00886 1.00889 1 0.999971
1.00083 1.00081 1.00002 0.999999
1.00668 1 1.00683 0.999859
0.972474 0.995635 0.976918 0.999816
1.00978 1.00998 0.999839 0.999966
0.989937 0.981278 1.01036 0.99848
0.957669 0.968815 0.988869 0.999621
0.973715 0.984164 0.98951 0.999871
0.984672 1.00103 0.983923 0.999729
0.988449 0.992509 0.996026 0.999883
0.954265 0.962329 0.991991 0.999626
0.979585 1.00019 0.980261 0.999122
0.978889 0.976009 1.00504 0.997918
0.983153 1.00817 0.975646 0.999526
0.958463 0.966213 0.992365 0.999611
0.973889 0.973214 1.00264 0.998061
0.982891 1.00466 0.9792 0.99911
1.02335 1 1.02383 0.999529
1.01118 1 1.01173 0.999459
1.00256 1 1.00305 0.999505
1.00715 1 1.00771 0.999453
1.00175 1 1.0023 0.999454
0.999638 1 1 0.999638
1.00139 1 1.00193 0.999462
0.999622 1 1.00006 0.999562
0.999716 1 1 0.999716
0.999571 1 1.00003 0.999542
0.999622 1 1 0.999622
0.999723 1 1 0.999723
0.999724 1 1 0.999724
0.999659 1 1 0.999659
0.999658 1 1 0.999658
0.999677 1 1 0.999677
0.999637 1 1 0.999637
0.999603 1 1 0.999603
0.999765 1 1 0.999765
0.999704 1 1 0.999704
0.99963 1 1 0.99963
0.999834 1 1 0.999834
0.999782 1 1 0.999782
0.999753 1 1 0.999753
0.999948 1 1 0.999948
0.99984 1 1 0.99984
0.99978 1 1 0.99978
1 1 1 1
0.999958 1 1 0.999958
0.999849 1 1 0.999849
1 1 1 1
1 1 1 1
0.999965 1 1 0.999965
1 1 1 1
1 1 1 1
1 1 1 1
0.999774 1 1 0.999774
0.999765 1 1 0.999765
0.999835 1 1 0.999835
0.999965 1 1 0.999965
0.999844 1 1 0.999844
0.999764 1 1 0.999764
1 1 1 1
0.999974 1 1 0.999974
0.999855 1 1 0.999855
1 1 1 1
1 1 1 1
0.999982 1 1 0.999982
1 1 1 1
1 1 1 1
1 1 1 1
0.990315 0.992232 0.998133 0.999935
1.01092 1.01096 1 0.999963
1.00297 1.00315 0.99982 0.999995
0.999738 1 1 0.999738
0.999752 1 1 0.999752
0.999721 1 1 0.999721
0.999733 1 1 0.999733
0.999738 1 1 0.999738
0.999713 1 1 0.999713
0.9997 1 1 0.9997
0.999709 1 1 0.999709
0.999687 1 1 0.999687
0.99969 1 1 0.99969
0.999688 1 1 0.999688
0.99968 1 1 0.99968
0.954007 0.962335 0.991695 0.999648
0.976054 0.985435 0.99058 0.9999
1.0113 1.01221 0.999163 0.999937
0.958838 0.977795 0.980734 0.999876
0.961612 0.979842 0.982226 0.999153
0.988912 0.989286 1.00103 0.998596
1.01661 0.986021 1.03165 0.999387
1.00343 0.993626 1.01052 0.999355
0.950393 0.963965 0.986719 0.999192
0.986472 0.983206 1.00497 0.99836
0.998568 0.993452 1.00582 0.999331
0.978683 0.976506 1.00413 0.99811
1.00785 1 1.00819 0.999669
1.00001 1 1.00027 0.999745
0.999689 1 1 0.999689
1.01062 1 1.0109 0.999728
1.0045 1 1.00494 0.999561
1.00888 1 1.00916 0.999726
1.00173 1.00058 1.00149 0.999657
0.961676 0.969619 0.992275 0.99953
0.99171 0.99359 0.998199 0.999909
1.00808 1.00812 0.99999 0.999973
0.981941 1.00122 0.98101 0.99973
0.978825 0.998903 0.980226 0.999668
0.990245 0.993354 0.996991 0.99988
0.97805 0.974564 1.00568 0.997909
0.952057 0.962512 0.98999 0.999139
0.984077 1.00739 0.977299 0.999549
0.960317 0.967226 0.993494 0.999358
0.974722 0.972148 1.00467 0.997987
0.981789 1.0036 0.978647 0.999616
0.986995 1.01242 0.975433 0.999441
0.96515 0.967187 1.00026 0.997636
0.991678 1.00177 0.990184 0.999737
1.01076 1 1.0113 0.999458
1.00229 1 1.00279 0.999499
0.999204 1.00028 0.999258 0.999661
1.00164 1 1.00219 0.999457
0.999546 1 0.999906 0.99964
0.999254 1 0.999403 0.999851
0.999619 1 1.00005 0.99957
0.999717 1 1 0.999717
0.999825 1 1 0.999825
0.999625 1 1 0.999625
0.999723 1 1 0.999723
0.999781 1 1 0.999781
0.999758 1 1 0.999758
0.999732 1 1 0.999732
0.999714 1 1 0.999714
0.999685 1 1 0.999685
0.99966 1 1 0.99966
0.999665 1 1 0.999665
0.999729 1 1 0.999729
0.999684 1 1 0.999684
0.999644 1 1 0.999644
0.999823 1 1 0.999823
0.999764 1 1 0.999764
0.999703 1 1 0.999703
0.999937 1 1 0.999937
0.999834 1 1 0.999834
0.999781 1 1 0.999781
1 1 1 1
0.999948 1 1 0.999948
0.99984 1 1 0.99984
1 1 1 1
1 1 1 1
0.999958 1 1 0.999958
1 1 1 1
1 1 1 1
1 1 1 1
0.999778 1 1 0.999778
0.999768 1 1 0.999768
0.999829 1 1 0.999829
0.999767 1 1 0.999767
0.999835 1 1 0.999835
0.999954 1 1 0.999954
1 1 1 1
0.999965 1 1 0.999965
0.999844 1 1 0.999844
1 1 1 1
1 1 1 1
0.999975 1 1 0.999975
1 1 1 1
1 1 1 1
1 1 1 1
0.963451 0.967622 0.996485 0.999202
0.98865 0.991576 0.997137 0.999912
1.01218 1.01222 1 0.999963
0.999734 1 1 0.999734
0.999721 1 1 0.999721
0.999755 1 1 0.999755
0.999757 1 1 0.999757
0.999728 1 1 0.999728
0.999702 1 1 0.999702
0.999711 1 1 0.999711
0.999688 1 1 0.999688
0.999716 1 1 0.999716
0.999679 1 1 0.999679
0.99991 1 1.00026 0.999652
0.999685 1 1 0.999685
0.999681 1 1 0.999681
0.975402 0.97684 1.00086 0.997667
0.957371 0.964826 0.992844 0.999425
0.976795 0.986286 0.990496 0.99988
0.950705 0.964321 0.986206 0.99967
0.982927 0.979273 1.00619 0.99756
1.00633 0.994428 1.01206 0.999912
0.99941 0.994609 1.00522 0.999614
0.979481 0.977566 1.0038 0.99817
0.992877 0.999127 0.994318 0.999423
1.00632 1.00121 1.00568 0.99943
1.00631 1 1.00665 0.999661
0.999746 1 1 0.999746
1.00761 1 1.00789 0.999727
1.00074 1.00081 1.0002 0.999728
0.961411 0.965271 0.997893 0.998105
0.962792 0.969019 0.994411 0.999158
0.992302 0.993447 0.998909 0.999938
0.984924 1.00691 0.978587 0.999573
0.985727 1.00832 0.978468 0.999106
0.962847 0.96739 0.996145 0.999155
0.976352 0.971796 1.00667 0.998033
0.98566 1.01103 0.975456 0.999437
0.968506 0.968885 1.00149 0.998117
0.989636 1.0042 0.986268 0.999219
0.981574 1.00993 0.972435 0.999473
0.998287 0.99301 1.00554 0.999774
1.00189 1 1.00239 0.999493
0.998174 1.00029 0.998226 0.999656
0.996913 1.00044 0.996675 0.999799
0.999379 1 0.999738 0.999641
0.999 1 0.999151 0.99985
0.998982 1 0.999093 0.999888
0.999719 1 1 0.999719
0.999819 1 1 0.999819
0.999819 1 1 0.999819
0.999723 1 1 0.999723
0.999776 1 1 0.999776
0.999768 1 1 0.999768
0.999766 1 1 0.999766
0.999734 1 1 0.999734
0.999739 1 1 0.999739
0.999713 1 1 0.999713
0.999706 1 1 0.999706
0.999713 1 1 0.999713
0.999683 1 1 0.999683
0.999662 1 1 0.999662
0.9998 1 1 0.9998
0.999734 1 1 0.999734
0.999692 1 1 0.999692
0.999924 1 1 0.999924
0.999823 1 1 0.999823
0.999764 1 1 0.999764
1 1 1 1
0.999937 1 1 0.999937
0.999835 1 1 0.999835
1 1 1 1
1 1 1 1
0.999947 1 1 0.999947
1 1 1 1
1 1 1 1
1 1 1 1
0.999772 1 1 0.999772
0.999778 1 1 0.999778
0.999819 1 1 0.999819
0.999762 1 1 0.999762
0.999824 1 1 0.999824
0.999943 1 1 0.999943
0.999835 1 1 0.999835
0.999955 1 1 0.999955
1 1 1 1
1 1 1 1
1 1 1 1
0.999966 1 1 0.999966
1 1 1 1
1 1 1 1
1 1 1 1
0.969196 0.970669 1.00031 0.998174
0.962714 0.969593 0.993318 0.999585
0.990663 0.992709 0.998006 0.999933
0.999721 1 1 0.999721
0.999757 1 1 0.999757
0.99973 1 1 0.99973
0.999758 1 1 0.999758
0.99975 1 1 0.99975
0.99974 1 1 0.99974
0.99969 1 1 0.99969
0.999713 1 1 0.999713
0.99968 1 1 0.99968
0.999708 1 1 0.999708
0.999665 1 1 0.999665
0.999591 1 1.00011 0.999476
0.999709 1 1.00006 0.999652
0.99968 1 1 0.99968
0.991176 0.994079 0.997342 0.999737
0.972349 0.973864 1.00033 0.998114
0.95434 0.963779 0.991033 0.999166
0.977024 0.975301 1.00371 0.998064
0.997864 0.994275 1.0037 0.999905
0.993313 0.997076 0.996397 0.999828
0.99695 1.00419 0.993324 0.999465
1.00333 1.00049 1.00337 0.999464
1.00528 1 1.00563 0.999653
0.998466 1.00074 0.997932 0.999797
0.98809 0.986386 1.00245 0.999283
0.965464 0.966874 1.00035 0.998191
0.962623 0.969504 0.993304 0.999595
0.984502 1.00946 0.975829 0.999433
0.993578 1.00773 0.986247 0.999702
0.969344 0.96849 1.00227 0.998615
0.982679 1.00764 0.975739 0.999476
0.993759 0.99398 1.00019 0.999585
0.984273 1.00307 0.981634 0.999622
1.00201 1 1.00249 0.999528
0.996923 1.0002 0.997068 0.999652
0.996367 1.00028 0.99629 0.9998
0.997106 1 0.997308 0.999797
0.998886 1 0.999038 0.999848
0.999098 1 0.999214 0.999884
0.999583 1 0.999799 0.999784
0.999813 1 1 0.999813
0.999814 1 1 0.999814
0.999738 1 1 0.999738
0.999772 1 1 0.999772
0.99977 1 1 0.99977
0.99972 1 1 0.99972
0.999774 1 1 0.999774
0.999739 1 1 0.999739
0.999711 1 1 0.999711
0.999711 1 1 0.999711
0.999705 1 1 0.999705
0.999721 1 1 0.999721
0.99977 1 1 0.99977
0.999718 1 1 0.999718
0.999682 1 1 0.999682
0.999905 1 1 0.999905
0.9998 1 1 0.9998
0.999738 1 1 0.999738
1 1 1 1
0.999923 1 1 0.999923
0.999822 1 1 0.999822
1 1 1 1
1 1 1 1
0.999936 1 1 0.999936
1 1 1 1
1 1 1 1
1 1 1 1
0.999767 1 1 0.999767
0.999776 1 1 0.999776
0.999815 1 1 0.999815
0.999779 1 1 0.999779
0.999818 1 1 0.999818
0.999934 1 1 0.999934
0.99982 1 1 0.99982
0.999943 1 1 0.999943
1 1 1 1
0.999955 1 1 0.999955
1 1 1 1
1 1 1 1
1 1 1 1
1 1 1 1
1 1 1 1
0.984563 0.986272 0.998582 0.999685
0.964975 0.967849 0.998896 0.998134
0.960108 0.968205 0.992471 0.999158
0.999732 1 1 0.999732
0.999731 1 1 0.999731
0.999758 1 1 0.999758
0.999739 1 1 0.999739
0.999749 1 1 0.999749
0.99976 1 1 0.99976
0.99971 1 1 0.99971
0.999682 1 1 0.999682
0.999714 1 1 0.999714
0.999683 1 1 0.999683
0.999573 1 1 0.999573
0.999336 1 1 0.999336
0.999612 1 1.00013 0.999483
0.999651 1 1 0.999651
0.996562 1.00044 0.996637 0.999485
0.991853 0.995444 0.996885 0.999506
0.974131 0.974818 1.00072 0.99858
0.996424 0.998572 0.998504 0.999344
1.00056 1.00433 0.996864 0.999381
1.00199 1 1.00249 0.999499
0.999787 1 1.00002 0.999767
0.988999 0.985341 1.00397 0.999739
0.962875 0.966694 0.997922 0.998124
0.983736 1.00526 0.979094 0.999478
0.990129 0.994539 0.996186 0.999377
0.988005 1.00229 0.98614 0.999603
1.00096 1 1.00137 0.999586
0.999155 1.00008 0.999502 0.99957
0.999532 1 1 0.999532
0.995989 1.00024 0.995951 0.999801
0.997983 1.00005 0.998138 0.999798
0.999685 1 1 0.999685
0.999263 1 0.999384 0.999879
0.999738 1 0.999957 0.999781
0.999678 1 1 0.999678
0.999809 1 1 0.999809
0.999746 1 1 0.999746
0.999669 1 1 0.999669
0.999772 1 1 0.999772
0.99972 1 1 0.99972
0.99969 1 1 0.99969
0.999744 1 1 0.999744
0.999713 1 1 0.999713
0.999711 1 1 0.999711
0.999703 1 1 0.999703
0.999717 1 1 0.999717
0.999761 1 1 0.999761
0.999883 1 1 0.999883
0.999776 1 1 0.999776
0.999723 1 1 0.999723
0.999999 1 1 0.999999
0.999904 1 1 0.999904
0.9998 1 1 0.9998
1 1 1 1
1 1 1 1
0.999923 1 1 0.999923
1 1 1 1
1 1 1 1
1 1 1 1
0.99975 1 1 0.99975
0.999768 1 1 0.999768
0.999812 1 1 0.999812
0.99978 1 1 0.99978
0.999818 1 1 0.999818
0.999924 1 1 0.999924
0.999818 1 1 0.999818
0.999934 1 1 0.999934
1 1 1 1
0.999943 1 1 0.999943
1 1 1 1
1 1 1 1
1 1 1 1
1 1 1 1
1 1 1 1
0.997897 1.00046 0.997702 0.999733
0.984862 0.987573 0.998008 0.999245
0.966016 0.968098 0.999659 0.99819
0.999741 1 1 0.999741
0.999683 1 1 0.999683
0.999735 1 1 0.999735
0.999739 1 1 0.999739
0.999747 1 1 0.999747
0.999756 1 1 0.999756
0.999617 1 1 0.999617
0.99972 1 1 0.99972
0.999701 1 1 0.999701
0.999576 1 1 0.999576
0.999418 1 1 0.999418
0.999565 1.00017 0.999889 0.999507
0.999431 1.00008 1 0.999347
0.99949 1 1 0.99949
0.998488 1.00209 0.996901 0.999501
0.990627 0.994916 0.996435 0.999252
1.00254 1.00418 0.999072 0.999298
0.999764 1 1 0.999764
1.00094 1 1.00116 0.999776
0.987313 0.98512 1.00298 0.999248
0.992179 1.00185 0.990765 0.999583
0.999948 1 1.0003 0.999646
0.998974 1.00021 0.999187 0.999581
0.99956 1 1 0.99956
0.999581 1 1 0.999581
0.999697 1 1 0.999697
0.998814 1.00007 0.998947 0.9998
0.999689 1 1 0.999689
0.9996 1 1 0.9996
0.999779 1 1 0.999779
0.99968 1 1 0.99968
0.999618 1 1 0.999618
0.999753 1 1 0.999753
0.999669 1 1 0.999669
0.999644 1 1 0.999644
0.99972 1 1 0.99972
0.999689 1 1 0.999689
0.999689 1 1 0.999689
0.999715 1 1 0.999715
0.999711 1 1 0.999711
0.999748 1 1 0.999748
0.999714 1 1 0.999714
0.999759 1 1 0.999759
0.999863 1 1 0.999863
0.999996 1 1 0.999996
0.999883 1 1 0.999883
0.999781 1 1 0.999781
1 1 1 1
0.999998 1 1 0.999998
0.999904 1 1 0.999904
1 1 1 1
1 1 1 1
1 1 1 1
0.999711 1 1 0.999711
0.999745 1 1 0.999745
0.999798 1 1 0.999798
0.999768 1 1 0.999768
0.999812 1 1 0.999812
0.999913 1 1 0.999913
0.999821 1 1 0.999821
0.999924 1 1 0.999924
1 1 1 1
0.999933 1 1 0.999933
1 1 1 1
1 1 1 1
1 1 1 1
1 1 1 1
1 1 1 1
0.999612 1 0.999879 0.999733
0.997541 1.0001 0.997693 0.999744
0.984262 0.986214 0.998319 0.999701
0.999655 1 1 0.999655
0.999762 1 1 0.999762
0.999608 1 1 0.999608
0.99968 1 1 0.99968
0.999738 1 1 0.999738
0.99949 1 1 0.99949
0.999751 1 1 0.999751
0.999616 1 1 0.999616
0.999492 1 1 0.999492
0.999578 1 1 0.999578
0.999404 1 1 0.999404
0.999508 1.00007 0.99994 0.999501
0.999358 1 1 0.999358
1.0001 1.00337 0.997224 0.999516
0.999783 1 1 0.999783
0.99976 1 1 0.99976
1.00203 1 1.00224 0.999785
0.998777 1.00027 0.998911 0.999591
0.999587 1 1 0.999587
0.999575 1 1 0.999575
0.999702 1 1 0.999702
0.999665 1 1 0.999665
0.999694 1 1 0.999694
0.999605 1 1 0.999605
0.999593 1 1 0.999593
0.999682 1 1 0.999682
0.999615 1 1 0.999615
0.999603 1 1 0.999603
0.999669 1 1 0.999669
0.999643 1 1 0.999643
0.999652 1 1 0.999652
0.999689 1 1 0.999689
0.999689 1 1 0.999689
0.999724 1 1 0.999724
0.999711 1 1 0.999711
0.999748 1 1 0.999748
0.999844 1 1 0.999844
0.999757 1 1 0.999757
0.999863 1 1 0.999863
0.99999 1 1 0.99999
1 1 1 1
0.999994 1 1 0.999994
0.999882 1 1 0.999882
1 1 1 1
0.999998 1 1 0.999998
1 1 1 1
0.999623 1 1 0.999623
0.999673 1 1 0.999673
0.999706 1 1 0.999706
0.999779 1 1 0.999779
0.999741 1 1 0.999741
0.999798 1 1 0.999798
0.999902 1 1 0.999902
0.999812 1 1 0.999812
0.999913 1 1 0.999913
1 1 1 1
0.999924 1 1 0.999924
1 1 1 1
1 1 1 1
1 1 1 1
1 1 1 1
1 1 1 1
0.999678 1 1 0.999678
0.99985 1.00018 0.999945 0.999727
0.997807 1.00038 0.997676 0.999755
0.99954 1 1 0.99954
0.999675 1 1 0.999675
0.999782 1 1 0.999782
0.999617 1 1 0.999617
0.999676 1 1 0.999676
0.999474 1 1 0.999474
0.99948 1 1 0.99948
0.999616 1 1 0.999616
0.999486 1 1 0.999486
0.99939 1 1 0.99939
0.999851 1.00036 1 0.999495
0.999748 1 1 0.999748
0.999778 1 1 0.999778
0.999756 1 1 0.999756
0.99957 1 1 0.99957
0.999707 1 1 0.999707
0.999665 1 1 0.999665
0.999655 1 1 0.999655
0.99961 1 1 0.99961
0.99959 1 1 0.99959
0.999606 1 1 0.999606
0.999613 1 1 0.999613
0.999602 1 1 0.999602
0.999618 1 1 0.999618
0.999643 1 1 0.999643
0.999651 1 1 0.999651
0.999692 1 1 0.999692
0.999689 1 1 0.999689
0.999724 1 1 0.999724
0.99982 1 1 0.99982
0.999748 1 1 0.999748
0.999844 1 1 0.999844
0.999983 1 1 0.999983
0.999863 1 1 0.999863
0.999988 1 1 0.999988
1 1 1 1
1 1 1 1
0.999992 1 1 0.999992
1 1 1 1
0.999558 1 1 0.999558
0.999667 1 1 0.999667
0.999652 1 1 0.999652
0.999746 1 1 0.999746
0.999674 1 1 0.999674
0.9997 1 1 0.9997
0.999779 1 1 0.999779
0.999887 1 1 0.999887
0.999799 1 1 0.999799
0.999902 1 1 0.999902
0.999998 1 1 0.999998
0.999913 1 1 0.999913
1 1 1 1
1 1 1 1
1 1 1 1
1 1 1 1
1 1 1 1
0.99962 1 1 0.99962
0.999677 1 1 0.999677
0.999857 1.00014 1 0.999721
0.999504 1 1 0.999504
0.999541 1 1 0.999541
0.999695 1 1 0.999695
0.999626 1 1 0.999626
0.999475 1 1 0.999475
0.99947 1 1 0.99947
0.999481 1 1 0.999481
0.999701 1 1 0.999701
0.999732 1 1 0.999732
0.999774 1 1 0.999774
0.999651 1 1 0.999651
0.999665 1 1 0.999665
0.999653 1 1 0.999653
0.99964 1 1 0.99964
0.999586 1 1 0.999586
0.999607 1 1 0.999607
0.999613 1 1 0.999613
0.999601 1 1 0.999601
0.999618 1 1 0.999618
0.999663 1 1 0.999663
0.999651 1 1 0.999651
0.999692 1 1 0.999692
0.999791 1 1 0.999791
0.999724 1 1 0.999724
0.99982 1 1 0.99982
0.999977 1 1 0.999977
0.999844 1 1 0.999844
0.999982 1 1 0.999982
1 1 1 1
0.999986 1 1 0.999986
1 1 1 1
1 1 1 1
0.999522 1 1 0.999522
0.999601 1 1 0.999601
0.999569 1 1 0.999569
0.999723 1 1 0.999723
0.999665 1 1 0.999665
0.999681 1 1 0.999681
0.999856 1 1 0.999856
0.999746 1 1 0.999746
0.999674 1 1 0.999674
0.999779 1 1 0.999779
0.999887 1 1 0.999887
0.999994 1 1 0.999994
0.999902 1 1 0.999902
0.999999 1 1 0.999999
1 1 1 1
1 1 1 1
1 1 1 1
1 1 1 1
0.999599 1 1 0.999599
0.999608 1 1 0.999608
0.999677 1 1 0.999677
0.999497 1 1 0.999497
0.999541 1 1 0.999541
0.999476 1 1 0.999476
0.999652 1 1 0.999652
0.999704 1 1 0.999704
0.999716 1 1 0.999716
0.999647 1 1 0.999647
0.999633 1 1 0.999633
0.999651 1 1 0.999651
0.99964 1 1 0.99964
0.999637 1 1 0.999637
0.999607 1 1 0.999607
0.999614 1 1 0.999614
0.999652 1 1 0.999652
0.999618 1 1 0.999618
0.999663 1 1 0.999663
0.999768 1 1 0.999768
0.999691 1 1 0.999691
0.999791 1 1 0.999791
0.999971 1 1 0.999971
0.999819 1 1 0.999819
0.999976 1 1 0.999976
1 1 1 1
0.99998 1 1 0.99998
1 1 1 1
1 1 1 1
0.999595 1 1 0.999595
0.999554 1 1 0.999554
0.999518 1 1 0.999518
0.999669 1 1 0.999669
0.999607 1 1 0.999607
0.999581 1 1 0.999581
0.999819 1 1 0.999819
0.999712 1 1 0.999712
0.999663 1 1 0.999663
0.999984 1 1 0.999984
0.999857 1 1 0.999857
0.999746 1 1 0.999746
0.999887 1 1 0.999887
0.999995 1 1 0.999995
1 1 1 1
0.999999 1 1 0.999999
1 1 1 1
1 1 1 1
0.999594 1 1 0.999594
0.999595 1 1 0.999595
0.999596 1 1 0.999596
0.999489 1 1 0.999489
0.999619 1 1 0.999619
0.999656 1 1 0.999656
0.999707 1 1 0.999707
0.999644 1 1 0.999644
0.999635 1 1 0.999635
0.999645 1 1 0.999645
0.99964 1 1 0.99964
0.999638 1 1 0.999638
0.999657 1 1 0.999657
0.999616 1 1 0.999616
0.999653 1 1 0.999653
0.999755 1 1 0.999755
0.999663 1 1 0.999663
0.999767 1 1 0.999767
0.999966 1 1 0.999966
0.99979 1 1 0.99979
0.999969 1 1 0.999969
1 1 1 1
0.999974 1 1 0.999974
1 1 1 1
1 1 1 1
0.999603 1 1 0.999603
0.999593 1 1 0.999593
0.999595 1 1 0.999595
0.999614 1 1 0.999614
0.999563 1 1 0.999563
0.999515 1 1 0.999515
0.999764 1 1 0.999764
0.999669 1 1 0.999669
0.999613 1 1 0.999613
0.999971 1 1 0.999971
0.999809 1 1 0.999809
0.9997 1 1 0.9997
1 1 1 1
0.999987 1 1 0.999987
0.999858 1 1 0.999858
0.999997 1 1 0.999997
1 1 1 1
1 1 1 1
0.999605 1 1 0.999605
0.999602 1 1 0.999602
0.999591 1 1 0.999591
0.999625 1 1 0.999625
0.999618 1 1 0.999618
0.99966 1 1 0.99966
0.999636 1 1 0.999636
0.999646 1 1 0.999646
0.99968 1 1 0.99968
0.999639 1 1 0.999639
0.999665 1 1 0.999665
0.999742 1 1 0.999742
0.999653 1 1 0.999653
0.999756 1 1 0.999756
0.999962 1 1 0.999962
0.999767 1 1 0.999767
0.999965 1 1 0.999965
1 1 1 1
0.999968 1 1 0.999968
1 1 1 1
1 1 1 1
0.999606 1 1 0.999606
0.999618 1 1 0.999618
0.999602 1 1 0.999602
0.999632 1 1 0.999632
0.999596 1 1 0.999596
0.999594 1 1 0.999594
0.999729 1 1 0.999729
0.999626 1 1 0.999626
0.999572 1 1 0.999572
0.999961 1 1 0.999961
0.999759 1 1 0.999759
0.999668 1 1 0.999668
1 1 1 1
0.999975 1 1 0.999975
0.9998 1 1 0.9998
1 1 1 1
0.99999 1 1 0.99999
1 1 1 1
0.999618 1 1 0.999618
0.999605 1 1 0.999605
0.999611 1 1 0.999611
0.999661 1 1 0.999661
0.999625 1 1 0.999625
0.999616 1 1 0.999616
0.999646 1 1 0.999646
0.99968 1 1 0.99968
0.999744 1 1 0.999744
0.999673 1 1 0.999673
0.999748 1 1 0.999748
0.999957 1 1 0.999957
0.999756 1 1 0.999756
0.99996 1 1 0.99996
1 1 1 1
0.999963 1 1 0.999963
1 1 1 1
1 1 1 1
0.999626 1 1 0.999626
0.999602 1 1 0.999602
0.999648 1 1 0.999648
0.999619 1 1 0.999619
0.999602 1 1 0.999602
0.999736 1 1 0.999736
0.99963 1 1 0.99963
0.999599 1 1 0.999599
0.999955 1 1 0.999955
0.999734 1 1 0.999734
0.999638 1 1 0.999638
1 1 1 1
0.999963 1 1 0.999963
0.999754 1 1 0.999754
1 1 1 1
0.999979 1 1 0.999979
1 1 1 1
0.999658 1 1 0.999658
0.99962 1 1 0.99962
0.999606 1 1 0.999606
0.999732 1 1 0.999732
0.999661 1 1 0.999661
0.999625 1 1 0.999625
0.999681 1 1 0.999681
0.999745 1 1 0.999745
0.999952 1 1 0.999952
0.999754 1 1 0.999754
0.999956 1 1 0.999956
1 1 1 1
0.999959 1 1 0.999959
1 1 1 1
1 1 1 1
0.999653 1 1 0.999653
0.999622 1 1 0.999622
0.999598 1 1 0.999598
0.999742 1 1 0.999742
0.999647 1 1 0.999647
0.99962 1 1 0.99962
0.999954 1 1 0.999954
0.999736 1 1 0.999736
0.999629 1 1 0.999629
1 1 1 1
0.999956 1 1 0.999956
0.99974 1 1 0.99974
1 1 1 1
0.999966 1 1 0.999966
1 1 1 1
0.999743 1 1 0.999743
0.999651 1 1 0.999651
0.999621 1 1 0.999621
0.999948 1 1 0.999948
0.999734 1 1 0.999734
0.999661 1 1 0.999661
0.999745 1 1 0.999745
0.999952 1 1 0.999952
1 1 1 1
0.999955 1 1 0.999955
1 1 1 1
1 1 1 1
0.999745 1 1 0.999745
0.999651 1 1 0.999651
0.999618 1 1 0.999618
0.999954 1 1 0.999954
0.999742 1 1 0.999742
0.999647 1 1 0.999647
1 1 1 1
0.999954 1 1 0.999954
0.999735 1 1 0.999735
1 1 1 1
0.999958 1 1 0.999958
1 1 1 1
0.999947 1 1 0.999947
0.999737 1 1 0.999737
0.999645 1 1 0.999645
1 1 1 1
0.999948 1 1 0.999948
0.999735 1 1 0.999735
0.999951 1 1 0.999951
1 1 1 1
1 1 1 1
0.999951 1 1 0.999951
0.999745 1 1 0.999745
0.999649 1 1 0.999649
1 1 1 1
0.999954 1 1 0.999954
0.999741 1 1 0.999741
1 1 1 1
0.999954 1 1 0.999954
1 1 1 1
0.999999 1 1 0.999999
0.999948 1 1 0.999948
0.999731 1 1 0.999731
1 1 1 1
0.999947 1 1 0.999947
1 1 1 1
1 1 1 1
0.999952 1 1 0.999952
0.999745 1 1 0.999745
1 1 1 1
0.999954 1 1 0.999954
1 1 1 1
1 1 1 1
0.999948 1 1 0.999948
1 1 1 1
1 1 1 1
0.999952 1 1 0.999952
1 1 1 1
1 1 1 1
1 1 1 1

VECTORS lamdaE float
0.999008 0.999589 0.997184
0.999192 0.998606 0.998944
0.998969 0.999632 0.997222
0.998958 1.00009 0.996905
0.998918 0.999908 0.997079
0.999132 0.999127 0.997365
0.999498 1.00034 0.995373
0.999222 0.998519 0.998969
0.998783 0.999891 0.998793
0.999018 0.99899 0.998929
0.999354 0.998198 0.9978
0.999499 0.999945 0.995523
0.999225 0.999973 0.996656
0.998904 1.00011 0.996991
0.998929 0.999672 0.997263
0.998909 1.00015 0.996946
0.999104 0.99913 0.997409
0.998873 0.999972 0.997114
0.999523 1.00032 0.995373
0.999153 0.999992 0.998576
0.999036 1.00002 0.996871
0.998895 1.00007 0.996995
0.9999 1.00022 0.994794
0.999587 1.00037 0.995192
0.999282 0.998581 0.997603
0.999418 1.0002 0.995638
1.00042 1.00103 0.992983
0.999256 0.998425 0.998995
0.998819 0.999944 0.997947
0.999053 0.999094 0.998176
0.999345 0.998103 0.999044
0.999465 0.999977 0.995524
0.998869 1.00028 0.997005
0.998934 0.999761 0.997273
0.999652 1.00041 0.995505
0.999443 0.997714 0.99915
0.999497 1.00012 0.995985
0.999515 0.999637 0.995787
0.999959 1.00136 0.993241
0.999612 0.9973 0.999186
0.99921 1.00001 0.998534
0.99896 1.00008 0.997815
0.999324 0.999988 0.998452
0.999002 1.00001 0.99691
1.00032 0.999961 0.993813
0.998831 1.00016 0.998739
1.00006 1.0001 0.99512
0.998857 1.00023 0.996986
0.998826 1.00004 0.997152
0.999075 0.999124 0.997454
0.999548 1.00031 0.995371
0.999143 0.999978 0.997677
0.998991 1.00005 0.99691
0.999262 0.998547 0.997645
0.998848 1.00014 0.997031
0.999928 1.0002 0.994793
0.999439 1.00019 0.99564
0.999621 1.00035 0.995192
1.00045 1.00104 0.992939
0.999231 0.999993 0.998515
0.999084 0.999976 0.99684
1.00024 0.999965 0.994858
1.00005 1.00006 0.994694
0.999715 1.00034 0.995
1.00142 1.00028 0.991852
1.0007 1.00071 0.992544
0.999454 0.998052 0.99782
0.999389 0.999875 0.996002
1.00009 1.00128 0.99333
1.00101 1.00099 0.991576
0.998846 0.999768 0.998776
0.999381 0.998014 0.999081
0.999094 0.998901 0.998917
0.999429 1.00002 0.995525
0.998862 1.0001 0.998701
0.998907 0.999532 0.998816
0.999581 1.00052 0.99472
0.999462 0.997756 0.998549
0.999456 1.00024 0.99528
0.999502 0.999584 0.996137
0.999952 1.00137 0.993228
0.999537 0.997513 0.999155
0.999769 0.998535 0.99639
0.999786 1.00041 0.994471
0.999534 1.00045 0.994943
1.00068 1.0008 0.992387
0.999578 0.999174 0.996678
1.0001 1.0012 0.993139
0.99989 1.00138 0.993361
1.00033 1.0016 0.992249
0.999676 0.997088 0.999219
0.999622 0.997276 0.999196
0.998955 1.00008 0.99867
0.999153 1.00001 0.998572
0.999297 0.999991 0.998471
0.999058 1.00002 0.99774
1.0003 0.999959 0.994314
0.998863 1.00013 0.997851
1.00001 1.00008 0.994719
0.999325 0.999984 0.99845
1.00044 0.99991 0.99359
1.00018 1.00002 0.994971
1.00199 0.999824 0.990753
0.999914 1.00023 0.995219
1.00159 1.00013 0.991257
0.999192 0.999947 0.996719
0.998943 1.00009 0.996948
0.999241 0.998502 0.997688
0.998798 1.00023 0.997071
0.999956 1.00017 0.994792
0.999655 1.00031 0.99519
0.999461 1.00019 0.995641
1.00049 1.00105 0.992895
0.999269 0.999993 0.998488
0.999045 0.999973 0.996887
1.00026 0.999947 0.994167
1.00007 1.00005 0.994683
0.999413 0.998018 0.998447
0.999424 0.999858 0.99613
0.99975 1.00031 0.995003
1.00142 1.00026 0.99176
1.00014 1.00131 0.993276
1.00073 1.00073 0.992602
1.001 1.00099 0.991583
1.00038 0.99995 0.993678
1.00012 0.999965 0.994657
1.00193 0.999801 0.991133
1.00163 0.999996 0.991492
1.00106 1.00048 0.992123
1.00216 1.00012 0.990416
0.999512 0.997682 0.999131
1.00129 1.00064 0.991343
0.999525 0.999453 0.995926
0.99986 1.00135 0.993358
1.00069 1.00146 0.991813
1.00136 1.00086 0.991021
0.999715 0.998753 0.996237
1.00006 1.00048 0.993912
0.998835 1.00001 0.998718
0.998934 0.999374 0.99885
0.999532 1.0006 0.994724
0.999482 0.997706 0.99914
0.999486 0.999574 0.995842
0.999394 1.00034 0.995265
0.999945 1.00138 0.993215
0.99955 0.997492 0.999165
0.999775 0.9985 0.9964
0.999748 1.00038 0.994918
0.99948 1.00043 0.995366
1.00067 1.00078 0.992397
0.999593 0.999142 0.996125
1.00009 1.0012 0.993136
0.99987 1.00141 0.993353
1.00033 1.00159 0.992226
0.999682 0.998831 0.996262
0.999834 0.998257 0.996545
1.00007 1.00042 0.993942
1.00104 1.00052 0.991935
1.00032 1.00105 0.992844
1.00127 1.00082 0.991221
0.999948 1.00106 0.99356
1.00054 1.00126 0.992158
1.00016 1.00197 0.992295
1.00044 1.00184 0.991857
0.999735 0.996876 0.999257
0.999684 0.99706 0.999231
0.999632 0.99725 0.999206
0.999779 0.998463 0.996418
0.99958 0.997465 0.999169
0.998878 1.0001 0.99869
0.999047 1.00004 0.998635
1 1.00007 0.994298
1.00028 0.999948 0.993876
0.999267 0.999992 0.998495
0.999333 0.999986 0.998444
1.00044 0.999911 0.993598
1.00014 1 0.994571
1.00199 0.999828 0.990755
0.999865 1.00025 0.994397
1.00158 1.00014 0.991262
1.00048 0.999908 0.993503
1.0022 0.999732 0.990433
1.00179 0.999952 0.991034
1.00276 0.999642 0.989475
1.00135 1.00031 0.99155
1.00231 0.999923 0.990075
0.999303 0.999992 0.998462
0.999004 0.999964 0.996934
1.00026 0.999942 0.993503
1.0001 1.00003 0.994673
0.999362 0.997977 0.99909
0.999458 0.999855 0.996259
0.999787 1.00026 0.995004
1.00142 1.00025 0.991668
1.00076 1.00075 0.99266
1.00019 1.00133 0.993223
1.001 1.00099 0.99159
1.00039 0.999946 0.993668
1.00014 0.999955 0.994642
1.00192 0.999802 0.990947
1.00165 1.00003 0.991551
0.999492 0.997709 0.999118
0.999524 0.999463 0.996216
0.999913 1.00135 0.99348
1.00105 1.00048 0.992133
1.00214 1.00008 0.99031
1.00064 1.00146 0.991796
1.00133 1.00064 0.991382
1.00135 1.00086 0.991033
0.999702 0.998801 0.996231
1.00007 1.00046 0.993915
1.00214 0.999727 0.990557
1.00177 0.999861 0.991375
1.0027 0.999664 0.989811
1.00241 0.999753 0.989935
1.00164 1.00038 0.991003
1.00255 0.999779 0.989909
0.999617 0.999081 0.996083
1.00171 1.00038 0.99082
0.999865 1.00126 0.993482
1.00027 1.00168 0.992153
1.00103 1.00157 0.991228
1.00159 1.00061 0.990896
1.00003 1.0008 0.993664
1.00007 1.00008 0.994293
1.00021 1.00158 0.992545
0.9997 1.00046 0.994522
0.999564 0.997469 0.999174
0.999782 0.998468 0.99641
0.99941 1.00056 0.995005
1.00067 1.00076 0.992407
0.999588 0.99911 0.996112
0.999849 1.00143 0.993346
1.00008 1.00119 0.993134
1.00034 1.00157 0.992203
0.999691 0.998791 0.996268
0.999836 0.998233 0.996556
1.00006 1.00044 0.993942
1.00104 1.00051 0.991944
1.00031 1.00103 0.992853
1.00127 1.00083 0.991224
0.99992 1.00111 0.993558
1.00055 1.00126 0.992199
1.00016 1.00197 0.99229
1.00043 1.00184 0.991815
0.999884 0.998003 0.996707
1.00003 1.0007 0.993738
1.00007 1.00012 0.994228
1.00021 1.00148 0.992666
1.00169 1.00047 0.99074
1.00083 1.00112 0.991804
1.0016 1.00078 0.990627
1.00014 1.00185 0.992462
1.00073 1.00136 0.991772
1.0002 1.0025 0.991692
1.00054 1.00186 0.991502
1.00013 0.999156 0.995091
0.999961 0.9976 0.996955
0.999791 0.996679 0.999291
0.999743 0.99685 0.999268
0.999692 0.997033 0.999242
0.999822 0.998181 0.996625
0.99963 0.997245 0.999213
0.99977 0.998503 0.996406
0.999569 0.997485 0.999157
0.999859 1.00024 0.994406
1.00013 0.999982 0.994129
1.00157 1.00015 0.991267
1.00198 0.999833 0.990757
1.00043 0.999912 0.993607
0.999337 0.999988 0.998443
1.00048 0.999911 0.993498
1.0022 0.99973 0.990435
1.00178 0.999963 0.991036
1.00276 0.999648 0.989474
1.00134 1.00032 0.991558
1.00232 0.999921 0.990075
1.00226 0.999692 0.990357
1.00298 0.999571 0.989113
1.00255 0.999731 0.989797
1.0031 0.999362 0.989125
1.00203 1.00018 0.990378
1.00271 0.999575 0.989661
1.0004 0.999944 0.993657
1.00017 0.999953 0.994627
1.0019 0.999792 0.990762
1.00166 1.00006 0.99161
0.999472 0.997735 0.999105
0.999527 0.999474 0.996497
0.999965 1.00135 0.993602
1.00105 1.00049 0.992143
1.00213 1.00004 0.990205
1.00137 1.00065 0.991421
1.00058 1.00147 0.99178
1.00134 1.00086 0.991045
0.999689 0.998849 0.996225
1.00007 1.00044 0.993918
1.00212 0.999723 0.990494
1.00177 0.999868 0.991374
1.0027 0.999642 0.989758
1.00241 0.999801 0.990049
0.999612 0.999123 0.996081
0.999891 1.00123 0.993487
1.00027 1.00167 0.992225
1.00168 1.0004 0.990996
1.00254 0.999717 0.989887
1.00098 1.00159 0.991147
1.00171 1.00037 0.990821
1.00156 1.00059 0.990886
1.00004 1.00076 0.99367
1.00022 1.00155 0.992535
1.00007 1.00008 0.994288
1.00288 0.999614 0.989473
1.00257 0.999665 0.989934
1.00306 0.999496 0.989158
1.00284 0.999448 0.989526
1.002 1.00002 0.99047
1.00276 0.999254 0.989956
0.999938 1.00106 0.993559
1.0019 1.00004 0.99076
1.00019 1.00165 0.99252
1.00045 1.00202 0.991492
1.00119 1.00162 0.990717
1.00172 1.00032 0.991087
1.00009 0.999689 0.994651
1.00022 1.00155 0.992552
1.00019 1.00142 0.992643
1.00022 1.0021 0.992102
1.00104 1.00051 0.991953
0.999837 0.998208 0.996567
0.999701 0.99875 0.996273
1.00006 1.00045 0.993941
1.00031 1.00102 0.992862
1.00126 1.00083 0.991226
0.999893 1.00115 0.993557
1.00015 1.00197 0.992285
1.00056 1.00127 0.99224
1.00042 1.00184 0.991773
0.999882 0.997986 0.996717
1.00002 1.00073 0.993735
1.00008 1.00012 0.994232
1.0002 1.00149 0.992657
1.00169 1.00048 0.990735
1.00082 1.00112 0.991814
1.0016 1.00078 0.99063
1.00012 1.00186 0.992465
1.00074 1.00137 0.991815
1.00021 1.00251 0.991673
1.00052 1.00183 0.99162
0.999925 0.997782 0.996851
1.00009 0.999806 0.994522
1.00021 1.00158 0.992585
1.0002 1.00129 0.992864
1.0002 1.00211 0.992043
1.00205 1.00033 0.99018
1.00107 1.00116 0.991288
1.00172 1.00077 0.990406
1.00014 1.00252 0.991816
1.00083 1.00146 0.991481
1.00029 1.00276 0.99099
1.00012 0.999315 0.994947
1.00016 1.0003 0.993936
1.00014 0.99903 0.995209
1.00013 0.999164 0.995091
0.999982 0.997421 0.997497
0.999954 0.997584 0.997192
0.99987 0.996532 0.998417
0.999798 0.996655 0.999301
0.99975 0.996823 0.999278
0.999863 0.99793 0.996803
0.99968 0.997017 0.999258
0.999822 0.998206 0.996611
0.999625 0.997273 0.999199
0.999763 0.998542 0.996393
0.999558 0.997507 0.999146
1.00133 1.00033 0.991567
1.00178 0.999971 0.991037
1.00232 0.999925 0.990075
1.00277 0.999653 0.989474
1.0022 0.999727 0.990437
1.00049 0.999915 0.993495
1.00226 0.999687 0.990353
1.00298 0.999571 0.989117
1.00255 0.999739 0.9898
1.00312 0.999349 0.989095
1.00203 1.00018 0.990373
1.00271 0.999585 0.989661
1.00304 0.999549 0.98902
1.00327 0.999355 0.988752
1.00295 0.99937 0.989379
1.00331 0.999057 0.989074
1.0024 0.99993 0.989914
1.00291 0.998966 0.989875
1.00211 0.999722 0.99043
1.00178 0.999866 0.991373
1.0027 0.999625 0.989705
1.00242 0.999851 0.990163
0.999607 0.999163 0.996079
0.999916 1.0012 0.993491
1.00028 1.00167 0.992297
1.00172 1.00042 0.990989
1.00252 0.999655 0.989865
1.00171 1.00037 0.990822
1.00093 1.0016 0.991066
1.00153 1.00058 0.990876
1.00005 1.00072 0.993677
1.00023 1.00152 0.992525
1.00006 1.00009 0.994283
1.00289 0.999607 0.989366
1.00258 0.999643 0.989935
1.00306 0.999474 0.989106
1.00286 0.999467 0.989544
0.999962 1.00102 0.993565
1.00021 1.00164 0.992511
1.00043 1.00204 0.991575
1.00203 1.00008 0.990501
1.00275 0.999155 0.990005
1.00114 1.00169 0.990641
1.0019 1.00004 0.990763
1.00169 1.00024 0.991122
1.00023 1.00154 0.992563
1.00023 1.00209 0.992053
1.00008 0.999703 0.994644
1.0002 1.00138 0.992694
1.00321 0.999479 0.988805
1.00302 0.99941 0.989314
1.00324 0.999362 0.988865
1.00307 0.999051 0.989456
1.00224 0.99956 0.990514
1.00298 0.998616 0.990177
1.00018 1.00159 0.992591
1.00198 0.999461 0.991165
1.00022 1.00201 0.99196
1.00061 1.00245 0.990905
1.00129 1.0017 0.990331
1.00183 1.00012 0.991094
1.00009 0.999448 0.994876
1.00019 1.00101 0.993037
1.00026 1.0019 0.99216
1.00016 1.00223 0.99202
1.00026 1.00219 0.991925
0.999879 0.99797 0.996726
1.0017 1.00049 0.990731
1.00008 1.00011 0.994236
1.00001 1.00077 0.993731
1.00019 1.0015 0.992648
1.0008 1.00112 0.991825
1.00159 1.00078 0.990633
1.0001 1.00188 0.992469
1.00022 1.00252 0.991654
1.00076 1.00138 0.991858
1.0005 1.0018 0.991737
0.999923 0.997768 0.996858
1.00009 0.999796 0.994527
1.0002 1.00159 0.992581
1.00019 1.0013 0.992859
1.00019 1.00212 0.992029
1.00206 1.00033 0.990174
1.00106 1.00117 0.991291
1.00172 1.00078 0.990383
1.00012 1.00252 0.991827
1.00084 1.00147 0.991511
1.00035 1.00273 0.991049
1.0001 0.999534 0.994763
1.0002 1.00098 0.993155
1.00022 1.00217 0.991981
1.00018 1.00206 0.992163
1.00018 1.00245 0.991766
1.00221 1.00015 0.990026
1.00118 1.00119 0.991022
1.00162 1.00064 0.990586
1.00012 1.00312 0.991203
1.00075 1.00248 0.990623
1.00012 0.999317 0.994951
1.00019 1.00047 0.993592
1.00016 1.00031 0.993862
1.00014 1.00119 0.993221
1.00014 1.00024 0.994025
1.00015 0.998934 0.995297
1.00014 0.999041 0.995208
1.00002 0.997265 0.997575
1.00013 0.999173 0.995092
0.999986 0.997413 0.997509
0.999922 0.996363 0.998479
0.999949 0.99757 0.997426
0.999856 0.996499 0.998874
0.999805 0.996634 0.99931
0.999902 0.997728 0.996931
0.999867 0.997943 0.996793
0.999735 0.996803 0.999296
0.999675 0.997049 0.999245
0.999822 0.998231 0.996597
0.999619 0.997302 0.999185
1.00203 1.00019 0.990369
1.00255 0.999741 0.989802
1.00271 0.999594 0.98966
1.00313 0.999336 0.989064
1.00298 0.999571 0.98912
1.00227 0.999683 0.990349
1.00304 0.999545 0.989021
1.00329 0.999376 0.988695
1.00295 0.999379 0.989383
1.00332 0.999025 0.989072
1.0024 0.999938 0.989902
1.00293 0.99893 0.98988
1.00335 0.999422 0.988543
1.00341 0.999254 0.988619
1.00318 0.998782 0.989424
1.00342 0.998945 0.989042
1.0026 0.999433 0.989936
1.00316 0.998406 0.990083
1.0029 0.999597 0.98926
1.00258 0.999624 0.989935
1.00306 0.999453 0.989054
1.00287 0.999483 0.989562
0.999984 1.00097 0.993571
1.00024 1.00163 0.992503
1.00041 1.00205 0.991659
1.00205 1.00013 0.990532
1.00274 0.999054 0.990055
1.00191 1.00003 0.990767
1.00109 1.00175 0.990565
1.00165 1.00016 0.991157
1.00024 1.00152 0.992573
1.00024 1.00208 0.992003
1.00007 0.999717 0.994637
1.00021 1.00133 0.992745
1.0032 0.999479 0.988808
1.00302 0.999405 0.989329
1.00322 0.999364 0.988879
1.00307 0.999051 0.989468
1.0002 1.00158 0.992592
1.00022 1.00199 0.992026
1.00059 1.00249 0.990899
1.00226 0.999635 0.990477
1.00287 0.998547 0.990375
1.00128 1.00177 0.99029
1.00197 0.999477 0.99118
1.00178 0.999911 0.991213
1.00027 1.00189 0.992162
1.00027 1.00216 0.991918
1.00016 1.00226 0.992004
1.00009 0.999449 0.994787
1.0002 1.00096 0.99309
1.00338 0.999387 0.988561
1.00333 0.999188 0.988842
1.00325 0.998566 0.989598
1.00253 0.998693 0.990801
1.00023 1.00188 0.992226
1.00222 0.998814 0.991562
1.00016 1.00241 0.991545
1.00078 1.00296 0.990077
1.00154 1.00164 0.989968
1.00011 0.999278 0.994867
1.0002 1.00065 0.993561
1.00014 1.00191 0.992387
1.00028 1.00196 0.992068
1.00017 1.0027 0.99158
1.00031 1.00216 0.991785
0.99992 0.997756 0.996864
1.0001 0.999787 0.994532
1.00207 1.00033 0.990167
1.00019 1.00132 0.992854
1.00018 1.0016 0.992577
1.00019 1.00212 0.992015
1.00106 1.00117 0.991294
1.00171 1.00078 0.990359
1.0001 1.00252 0.991838
1.00041 1.00271 0.991108
1.00085 1.00147 0.991541
1.00011 0.999527 0.994768
1.0002 1.00099 0.993153
1.00021 1.00215 0.99202
1.00017 1.00207 0.992154
1.00017 1.00248 0.991732
1.0022 1.00019 0.99001
1.0012 1.00118 0.991003
1.00167 1.00059 0.990614
1.0001 1.00312 0.991158
1.00075 1.00259 0.99052
1.00019 1.0007 0.993449
1.0002 1.00184 0.992268
1.00019 1.00268 0.991577
1.00017 1.00251 0.991659
1.00023 1.00259 0.991501
1.00249 0.998808 0.990782
1.00127 1.00179 0.990395
1.00173 1.00012 0.990484
1.00034 1.00346 0.990685
1.00067 1.00304 0.989653
1.00012 0.999319 0.994954
1.00018 1.00048 0.99364
1.00017 1.00135 0.992788
1.00017 1.00033 0.993788
1.00014 1.00025 0.994024
1.00014 1.00118 0.993117
1.00013 1.00183 0.99256
1.00012 1.00112 0.993116
1.00012 1.00019 0.994104
1.00015 0.998888 0.995337
1.00015 0.998937 0.995298
1.00005 0.997133 0.997633
1.00014 0.999051 0.995207
1.00002 0.997261 0.997585
0.999962 0.996221 0.99853
0.99999 0.997405 0.997521
0.999916 0.996337 0.998476
0.99984 0.99646 0.999334
0.999941 0.997557 0.997026
0.999907 0.997735 0.996925
0.999792 0.996614 0.999323
0.99987 0.997955 0.996783
0.99973 0.99683 0.999285
0.999671 0.99708 0.999231
1.0024 0.999945 0.989891
1.00295 0.99939 0.989386
1.00295 0.998894 0.989885
1.00333 0.998996 0.989071
1.00331 0.999396 0.988639
1.00305 0.999542 0.989022
1.00336 0.999429 0.98852
1.00339 0.999267 0.98864
1.00321 0.998809 0.989371
1.0034 0.998905 0.989019
1.0026 0.999485 0.989932
1.0031 0.998244 0.990244
1.00349 0.999353 0.988351
1.00341 0.999143 0.988738
1.00338 0.99846 0.98946
1.00294 0.998297 0.990521
1.0032 0.999479 0.98881
1.00302 0.9994 0.989343
1.00319 0.999366 0.988894
1.00308 0.999053 0.989481
1.00022 1.00156 0.992593
1.00023 1.00197 0.992092
1.00058 1.00253 0.990893
1.00229 0.99971 0.990441
1.00276 0.99848 0.990573
1.00196 0.999492 0.991194
1.00127 1.00185 0.990248
1.00173 0.999721 0.991333
1.00028 1.00189 0.992164
1.00027 1.00213 0.991912
1.00015 1.00229 0.991987
1.00009 0.999451 0.994699
1.00022 1.0009 0.993143
1.00335 0.999369 0.988607
1.00332 0.999206 0.988872
1.00322 0.998599 0.989675
1.00025 1.00188 0.992219
1.00022 1.00239 0.99163
1.00074 1.00303 0.990061
1.00257 0.998754 0.990721
1.00151 1.00149 0.990158
1.00214 0.998809 0.991525
1.0001 0.999255 0.994888
1.00028 1.00197 0.992061
1.0003 1.00211 0.991844
1.00017 1.00272 0.991556
1.00015 1.0019 0.992421
1.0002 1.00064 0.993488
1.00342 0.999334 0.988577
1.00351 0.998952 0.988713
1.00317 0.998221 0.989987
1.0029 0.997487 0.991395
1.00023 1.00209 0.992006
1.00202 1.00014 0.990463
1.00027 1.00315 0.990725
1.00093 1.00345 0.989413
1.00011 0.999125 0.995014
1.00018 1.00039 0.993866
1.00017 1.00159 0.992747
1.00013 1.00271 0.991602
1.00029 1.00212 0.991876
1.00026 1.00257 0.991469
1.00011 0.999517 0.994773
1.0002 1.001 0.993151
1.0022 1.00023 0.989995
1.00017 1.00209 0.992146
1.00019 1.00214 0.992058
1.00015 1.00251 0.991698
1.00122 1.00117 0.990983
1.00172 1.00053 0.990643
1.00008 1.00312 0.991113
1.00076 1.00271 0.990416
1.0002 1.0007 0.993451
1.00019 1.00186 0.992288
1.00017 1.00266 0.991633
1.00016 1.00254 0.991685
1.00019 1.00261 0.991547
1.00256 0.998842 0.990778
1.00131 1.00169 0.990425
1.00172 1.00016 0.990732
1.00029 1.00348 0.990627
1.00076 1.00326 0.989539
1.0002 1.00156 0.992557
1.00018 1.00251 0.991621
1.0002 1.0031 0.99113
1.00018 1.00283 0.991232
1.00359 0.997344 0.990493
1.00259 0.998205 0.991001
1.00136 1.00232 0.989545
1.0003 1.00423 0.98947
1.00018 1.00048 0.993688
1.00017 1.00137 0.992828
1.00016 1.00201 0.992255
1.00014 1.00025 0.994023
1.00015 1.00117 0.993013
1.00013 1.00019 0.994104
1.00014 1.00184 0.992476
1.00012 1.00111 0.993157
1.00015 1.00233 0.991999
1.00012 1.00174 0.99251
1.0001 1.00108 0.993193
1.00013 1.00013 0.994168
1.00015 0.998884 0.995346
1.00015 0.998882 0.99534
1.00007 0.997069 0.997644
1.00014 0.998937 0.995298
1.00005 0.99714 0.997637
0.999998 0.996106 0.998563
1.00002 0.997257 0.997596
0.999958 0.996193 0.998527
0.999909 0.996311 0.998471
0.99998 0.997393 0.997115
0.999945 0.997563 0.997022
0.999846 0.996444 0.999345
0.999912 0.997742 0.996919
0.999786 0.996637 0.999315
0.999724 0.996858 0.999274
1.0026 0.999537 0.989928
1.00325 0.998834 0.989317
1.00305 0.998081 0.990405
1.00339 0.998859 0.988997
1.00338 0.999277 0.98866
1.00337 0.999437 0.988496
1.00346 0.999358 0.98842
1.0034 0.999142 0.988743
1.00336 0.998454 0.989491
1.00296 0.998214 0.990491
1.00343 0.999315 0.988531
1.00346 0.998777 0.989086
1.00339 0.997972 0.989883
1.00332 0.999352 0.988653
1.00331 0.999224 0.988902
1.00318 0.998629 0.989753
1.00027 1.00187 0.992211
1.00029 1.00237 0.991715
1.0007 1.00311 0.990046
1.0026 0.998812 0.990641
1.00207 0.998805 0.991488
1.00147 1.00134 0.990348
1.00028 1.00199 0.992054
1.00028 1.00206 0.991903
1.00018 1.00273 0.991532
1.0001 0.999232 0.994908
1.00015 1.00189 0.992454
1.0002 1.00063 0.993415
1.00341 0.999327 0.988558
1.00352 0.998932 0.988706
1.00322 0.998278 0.98988
1.00026 1.0021 0.991988
1.00025 1.00308 0.990873
1.00094 1.00341 0.98944
1.00284 0.997569 0.991449
1.00204 1.00004 0.990453
1.00011 0.999112 0.995104
1.00018 1.00038 0.993871
1.00026 1.00211 0.991871
1.00027 1.00254 0.991505
1.00013 1.00268 0.991631
1.00016 1.00161 0.992682
1.00345 0.99918 0.988626
1.00361 0.998631 0.988841
1.00338 0.996833 0.990972
1.00292 0.997692 0.991503
1.00012 1.0026 0.991623
1.00125 1.00326 0.988893
1.00044 1.00379 0.990117
1.00013 0.998966 0.995304
1.00013 0.999972 0.994315
1.00015 1.00024 0.993889
1.00015 1.00137 0.992928
1.00011 1.00235 0.991956
1.00012 1.00324 0.991083
1.00031 1.00198 0.991813
1.00021 1.00321 0.991374
1.0002 1.00069 0.993454
1.00019 1.00188 0.992308
1.00264 0.99887 0.990775
1.00016 1.00257 0.991711
1.00016 1.00263 0.991689
1.00015 1.00264 0.991593
1.00135 1.00158 0.990455
1.00171 1.0002 0.990979
1.00023 1.00349 0.990569
1.00084 1.00346 0.989425
1.00019 1.0016 0.992516
1.00018 1.00249 0.99167
1.00018 1.00306 0.991188
1.00021 1.00284 0.991279
1.00356 0.997258 0.990469
1.00252 0.998472 0.990971
1.00142 1.00224 0.989669
1.00038 1.0042 0.989405
1.00016 1.00227 0.991994
1.0038 0.997608 0.989505
1.00018 1.00306 0.991235
1.00022 1.00356 0.990605
1.00385 0.996372 0.990647
1.00217 1.00078 0.989419
1.00079 1.00434 0.988944
1.00017 1.00139 0.992868
1.00015 1.00202 0.992256
1.00014 1.00254 0.991755
1.00013 1.00019 0.994105
1.00012 1.00111 0.993198
1.00015 1.00184 0.992391
1.00013 1.00011 0.994172
1.0001 1.00109 0.993183
1.00016 1.00233 0.99193
1.00011 1.00175 0.992591
1.00021 1.00259 0.991591
1.00016 1.00223 0.991964
1.00011 1.00167 0.992705
1.00009 1.00098 0.993395
1.00014 1.00008 0.994201
1.00014 0.998894 0.995349
1.00015 0.998882 0.995347
1.00008 0.99706 0.997628
1.00015 0.998877 0.995342
1.00007 0.997089 0.997642
1.00003 0.996054 0.998558
1.00005 0.997148 0.997643
0.999997 0.996076 0.998562
0.999954 0.996166 0.998522
1.00014 0.998822 0.995423
1.00002 0.997235 0.997199
0.999983 0.997402 0.997111
0.999896 0.996288 0.999367
0.999949 0.99757 0.997019
0.99984 0.996467 0.999339
0.999779 0.996659 0.999307
1.00298 0.998133 0.990461
1.00334 0.998446 0.989523
1.00339 0.999142 0.988748
1.00343 0.999364 0.98849
1.00342 0.999321 0.988541
1.00346 0.99879 0.989029
1.00335 0.997954 0.989973
1.00337 0.999127 0.988849
1.00356 0.998419 0.989248
1.00354 0.99794 0.989268
1.0034 0.99932 0.98854
1.00354 0.998918 0.9887
1.00327 0.998335 0.989773
1.00027 1.0021 0.991971
1.00022 1.00301 0.991022
1.00095 1.00336 0.989467
1.00277 0.997647 0.991502
1.00206 0.999937 0.990444
1.00023 1.00211 0.991866
1.00027 1.00251 0.99154
1.00013 1.00265 0.991661
1.00011 0.999096 0.995193
1.00017 1.00038 0.993875
1.00016 1.00163 0.992616
1.00343 0.999155 0.988675
1.00013 0.998963 0.995301
1.00012 0.999971 0.994264
1.00364 0.998616 0.988837
1.00333 0.997044 0.990792
1.00011 1.00255 0.991702
1.00044 1.00393 0.989926
1.00125 1.00309 0.988953
1.00283 0.997646 0.991471
1.00015 1.00025 0.994034
1.00015 1.00136 0.992928
1.00035 1.00205 0.991771
1.00016 1.00284 0.991559
1.00009 1.00333 0.990991
1.00013 1.00233 0.991963
1.00344 0.998774 0.989057
1.00367 0.998156 0.989339
1.0037 0.995346 0.992024
1.00208 1.00054 0.989839
1.00019 1.00288 0.991374
1.00068 1.00468 0.98881
1.00011 0.999873 0.994323
1.00013 1.00011 0.994171
1.00008 1.00091 0.993629
1.00012 1.00123 0.99301
1.00012 1.00212 0.992278
1.00006 1.00296 0.991368
0.999997 1.00405 0.990618
1.00006 1.00276 0.991624
1.00019 1.00163 0.992475
1.00018 1.00248 0.991719
1.00351 0.997186 0.990446
1.00246 0.998757 0.990942
1.00024 1.00286 0.991326
1.00017 1.00303 0.991246
1.00148 1.00218 0.989794
1.00047 1.00418 0.989339
1.00015 1.00227 0.991992
1.00376 0.997554 0.989484
1.00016 1.00301 0.991249
1.00023 1.00353 0.99049
1.00377 0.996395 0.99055
1.00227 1.00071 0.989453
1.00073 1.00442 0.988954
1.00012 1.00292 0.991445
1.0047 0.996102 0.989349
1.00034 1.0032 0.990913
1.00045 1.00429 0.989737
1.00349 0.997503 0.98974
1.00114 1.00342 0.988717
1.00264 1.00113 0.989325
1.00015 1.00202 0.992257
1.00013 1.00255 0.991757
1.00022 1.00276 0.991436
1.00013 1.0001 0.994175
1.0001 1.00109 0.993173
1.00011 1.00176 0.992672
1.00017 1.00234 0.991861
1.00014 1.00008 0.9942
1.00009 1.00099 0.993336
1.00021 1.00259 0.99156
1.00011 1.00167 0.992702
1.00015 1.00223 0.992037
1.00029 1.0025 0.991496
1.00011 1.00205 0.992331
1.00012 1.00157 0.992822
1.0001 1.00091 0.993324
1.00014 1.00008 0.994084
1.0001 1.00094 0.993525
1.00013 1.0001 0.994087
1.00013 0.998902 0.995348
1.00014 0.998895 0.995349
1.0001 0.997077 0.997201
1.00015 0.998881 0.995347
1.00009 0.99708 0.997416
1.00002 0.996 0.999384
1.00007 0.997107 0.997641
1.00003 0.99602 0.99856
0.999994 0.996047 0.998561
1.00015 0.998709 0.995521
1.00014 0.998819 0.995422
1.00005 0.997098 0.997275
1.00001 0.997243 0.997404
0.999939 0.996151 0.999387
0.999986 0.997412 0.997107
0.99989 0.996309 0.999361
0.999834 0.996488 0.999332
1.0033 0.997932 0.990062
1.00346 0.998808 0.988972
1.00341 0.999329 0.988552
1.00337 0.999117 0.988845
1.00347 0.998432 0.989322
1.00364 0.998157 0.989132
1.00337 0.998602 0.98937
1.00382 0.997047 0.990031
1.00406 0.997338 0.989306
1.00012 0.99981 0.994499
1.00342 0.999127 0.988725
1.00367 0.998596 0.988834
1.00328 0.997248 0.990612
1.0001 1.0025 0.991781
1.00044 1.0041 0.989735
1.00125 1.00286 0.989012
1.00274 0.997636 0.991439
1.0004 1.0021 0.991729
1.00011 1.0025 0.991744
1.00006 1.00342 0.990899
1.00013 0.998962 0.995299
1.00015 1.00231 0.991969
1.00014 1.00026 0.994178
1.00014 1.00136 0.992928
1.00012 0.999968 0.994213
1.00346 0.998731 0.989048
1.00012 0.999867 0.994382
1.00013 1.00012 0.994167
1.00008 1.0009 0.993515
1.00372 0.997932 0.989375
1.00355 0.995711 0.991784
1.00022 1.00265 0.991426
1.00052 1.00478 0.98872
1.00205 1.00057 0.989895
1.00012 1.00121 0.993092
1.00013 1.00212 0.992238
1.00007 1.00283 0.991518
0.999993 1.00395 0.990705
1.00007 1.00295 0.991432
1.00359 0.998278 0.989093
1.00402 0.996773 0.99005
1.00342 0.997607 0.990426
1.00111 1.00354 0.988962
1.00008 1.00368 0.990701
1.00006 1.00078 0.993522
1.00009 1.00107 0.993239
1.00008 1.0016 0.9929
1.00008 1.00199 0.992432
1.0001 1.00262 0.991775
0.999974 1.00358 0.991041
0.99984 1.0044 0.990432
1.00014 1.00228 0.99199
1.00014 1.00296 0.991263
1.00375 0.997478 0.989463
1.00368 0.996411 0.990453
1.00239 1.00063 0.989487
1.00025 1.00353 0.990375
1.00066 1.00447 0.988964
1.00011 1.00288 0.991497
1.00468 0.995928 0.989318
1.00027 1.00316 0.990948
1.00028 1.00439 0.989727
1.00361 0.99734 0.98988
1.00113 1.00358 0.988703
1.00271 1.00019 0.989375
1.0002 1.00305 0.99118
1.00473 0.995622 0.990013
1.00019 1.00359 0.990742
1.00007 1.00489 0.98947
1.00168 1.00145 0.989103
0.998155 0.998214 0.971333
0.99856 1.00218 0.984137
1.00217 0.999927 0.991073
0.995185 0.997169 0.977173
0.99639 0.995177 0.97897
1.00012 1.00256 0.991759
1.0002 1.00276 0.991454
1.00035 1.00258 0.991332
1.00014 1.00007 0.9942
1.0001 1.001 0.993278
1.00011 1.00167 0.992698
1.00013 1.00224 0.992111
1.00022 1.00258 0.991529
1.00012 1.00158 0.992748
1.00014 1.00008 0.994135
1.0001 1.00092 0.993386
1.00026 1.00252 0.991535
1.00012 1.00204 0.992302
1.00011 1.00197 0.992395
1.0002 1.00236 0.991846
1.00015 1.00152 0.992658
1.00012 1.00089 0.993339
1.00013 1.00008 0.994089
1.00012 1.0009 0.993453
1.00012 1.00156 0.992855
1.00009 1.00103 0.993341
1.0001 1.00095 0.993424
1.00012 1.00012 0.994182
1.00012 1.0001 0.994088
1.00013 0.998918 0.995334
1.00013 0.998901 0.995349
1.0001 0.997102 0.9972
1.00014 0.998897 0.995348
1.0001 0.997078 0.997201
1.00002 0.995987 0.999384
1.0001 0.9971 0.997204
1.00003 0.995997 0.998964
1.00003 0.995986 0.998562
1.00016 0.998632 0.995583
1.00015 0.998702 0.99552
1.00008 0.996989 0.99734
1.00014 0.998814 0.995421
1.00005 0.997094 0.997479
0.999974 0.996036 0.999405
1.00002 0.997261 0.997184
0.999932 0.99619 0.999378
0.999884 0.996333 0.999354
1.00336 0.998443 0.989397
1.00337 0.999106 0.988841
1.00368 0.99839 0.988996
1.00373 0.997194 0.990149
1.0034 0.998584 0.989256
1.00386 0.997644 0.989161
1.00384 0.998702 0.988248
0.999126 0.998086 0.984206
1.00371 0.997756 0.990435
1.00011 0.999793 0.994525
1.00012 0.999807 0.994498
1.00005 1.00069 0.99376
1.00006 1.00065 0.993789
1.00349 0.998698 0.98904
1.00375 0.997771 0.989411
1.00341 0.99605 0.991543
1.00026 1.00246 0.991478
1.00037 1.00493 0.988631
1.00202 1.00052 0.989951
1.00007 1.0029 0.991411
0.99999 1.00382 0.990791
1.00008 1.00293 0.991495
1.00013 1.00013 0.994163
1.00013 1.00213 0.992198
1.00011 1.0012 0.993175
1.00013 0.999861 0.99444
1.00007 1.00089 0.993401
1.00356 0.998333 0.989203
1.00006 1.00079 0.993638
1.00009 1.00104 0.993307
1.00008 1.00154 0.992879
1.00403 0.996545 0.990113
1.00328 0.997518 0.990422
1.00012 1.00361 0.990697
1.00106 1.0037 0.988877
1.00008 1.00199 0.992469
1.0001 1.00257 0.991784
0.999853 1.00438 0.990436
0.999995 1.0037 0.990941
1.00422 0.996696 0.98919
1.00444 0.996224 0.989414
1.00214 1.00241 0.988287
1.00005 1.00444 0.990049
1.00006 1.00173 0.992655
1.00005 1.00182 0.992602
1.00007 1.0028 0.991621
0.999986 1.00446 0.990149
0.997515 0.998951 0.967791
1.0001 1.00285 0.991549
1.0002 1.00311 0.990983
1.00465 0.995692 0.989286
1.0037 0.997089 0.99002
1.00112 1.00373 0.988689
1.00012 1.00446 0.989717
1.00265 0.999381 0.989426
1.00016 1.00307 0.991214
1.00472 0.995502 0.989899
1.00013 1.00358 0.990752
1.00006 1.00491 0.989504
1.00174 1.00139 0.989142
0.997899 0.997753 0.970981
0.998152 1.00156 0.981208
1.00222 0.999346 0.991445
0.995116 0.997843 0.97629
0.996307 0.9947 0.978381
1.00011 1.00307 0.991328
0.996056 0.996107 0.974524
0.997471 0.995288 0.981144
1.00341 0.99695 0.990817
1.00002 1.00357 0.99077
0.999975 1.00496 0.990036
1.00205 0.999433 0.992617
0.99715 0.999833 0.970125
0.997601 1.00335 0.979772
0.994769 1.00019 0.975704
1.00119 0.995676 0.978884
1.00017 1.00277 0.991471
1.00033 1.00261 0.991344
1.00046 1.00241 0.991328
1.00013 1.00009 0.994186
1.0001 1.00092 0.993447
1.00013 1.00158 0.992675
1.00014 1.00202 0.992274
1.00023 1.00253 0.991573
1.00013 1.00008 0.994087
1.00011 1.00193 0.992406
1.00014 1.00154 0.992746
1.00012 1.00088 0.993399
1.00021 1.00236 0.991766
1.00018 1.00205 0.992136
1.00014 1.00286 0.991518
1.00014 1.00145 0.992824
1.00013 1.00087 0.993452
1.00012 1.0009 0.993454
1.00013 1.00156 0.992768
1.00014 1.00147 0.992817
1.00011 1.00167 0.992664
1.00016 1.00194 0.992334
1.00004 1.00231 0.992159
1.0001 1.00117 0.993182
1.00009 1.00103 0.993339
1.00012 1.00016 0.994139
1.0001 1.00096 0.993323
1.00012 1.00012 0.994129
1.00013 0.998962 0.995296
1.00012 1.0001 0.994089
1.00014 0.998916 0.995334
1.00007 0.99713 0.997622
1.00013 0.998901 0.995349
1.00009 0.997096 0.997412
1.00005 0.995992 0.998541
1.0001 0.99708 0.997201
1.00002 0.995985 0.999384
1.00005 0.995994 0.998545
1.00011 0.999823 0.994496
1.00016 0.998613 0.995602
1.00016 0.998629 0.995582
1.00009 0.996918 0.997384
1.00015 0.998696 0.99552
1.00008 0.996982 0.997343
1 0.995947 0.999419
1.00004 0.997109 0.99767
0.999982 0.996075 0.998985
0.999958 0.996215 0.99854
1.0035 0.997526 0.99027
1.00346 0.998571 0.989141
1.00366 0.997938 0.989017
0.998889 0.998303 0.986358
1.0036 0.997938 0.990549
1.00386 0.998509 0.988166
1.00415 0.99855 0.989776
0.999257 0.998934 0.98534
0.997356 0.999666 0.966266
0.995741 0.99703 0.973466
0.996351 0.994287 0.979228
1.00004 1.00065 0.993691
1.00012 0.999797 0.994525
1.00012 0.999808 0.994498
1.00005 1.0007 0.993718
1.00003 1.00135 0.993184
1.00006 1.0012 0.99327
1.00007 1.00077 0.993677
1.00006 1.00066 0.993738
1.00355 0.998388 0.989314
1.00409 0.99625 0.990178
1.00314 0.997492 0.990416
1.00016 1.00351 0.990694
1.00102 1.00396 0.988791
0.999868 1.00436 0.990439
1.00002 1.00382 0.990842
1.0001 1.00253 0.991793
1.00008 1.00101 0.993375
1.00007 1.00199 0.992506
1.00006 1.0008 0.993753
1.00008 1.00148 0.992858
1.00425 0.997086 0.989024
1.00005 1.00172 0.992705
1.00005 1.00184 0.992601
1.00444 0.996288 0.989394
1.00185 1.002 0.988556
1.00013 1.00447 0.989892
1.0001 1.00281 0.991571
1.00001 1.0044 0.990173
1.00486 0.997407 0.988146
1.00324 1.00027 0.988291
1.00021 1.00464 0.989001
1.00004 1.00465 0.989857
1.00003 1.00218 0.992233
1.0001 1.00255 0.991808
1.00011 1.00367 0.990771
0.996944 0.995547 0.974163
0.997989 0.999502 0.970586
1.00014 1.00309 0.991247
1.00007 1.00356 0.990762
1.00473 0.995345 0.989786
1.00189 1.00138 0.989182
1.00005 1.00491 0.989538
0.998192 0.998401 0.96631
0.998209 1.00116 0.984598
1.00229 0.99887 0.991815
0.994996 0.99749 0.975147
0.996064 0.9944 0.97779
1.00015 1.00297 0.99132
0.996613 0.995197 0.975537
0.997045 0.995429 0.981061
1.00348 0.99723 0.990671
0.999957 1.00388 0.990797
0.999853 1.00489 0.990056
1.00212 0.999377 0.992532
0.996738 0.999862 0.968345
0.997529 1.00492 0.982154
0.994751 1 0.973981
1.00033 0.996121 0.979012
1.00048 1.00239 0.991196
0.998123 0.996437 0.982624
1.00642 0.99666 0.980569
1.00091 1.00044 0.991952
0.999692 1.00394 0.991874
1.00137 1.00268 0.995171
0.998413 1.00209 0.987793
0.99513 1.0029 0.967992
0.994958 0.99921 0.974487
1.0066 0.997907 0.975378
1.00031 1.00265 0.991355
1.00045 1.00244 0.991259
1.00014 1.00276 0.9913
1.00014 1.00008 0.994086
1.00013 1.00086 0.99346
1.00014 1.00156 0.992833
1.00011 1.00189 0.992416
1.00022 1.00236 0.991685
1.00013 1.00087 0.993454
1.00016 1.00204 0.992204
1.00014 1.00145 0.992822
1.00012 1.00288 0.991476
1.00014 1.00313 0.991316
1.00016 1.00223 0.992061
1.00014 1.00146 0.992823
1.00011 1.00091 0.993455
1.00013 1.00156 0.992681
1.00014 1.00147 0.992816
1.00011 1.00168 0.99266
1.00018 1.00189 0.992323
1.00007 1.00192 0.992462
1.00019 1.0019 0.992321
1.0002 1.00208 0.992002
1.00013 1.0027 0.99159
0.999893 1.00315 0.991484
1.00001 1.00255 0.991908
1.00004 1.00231 0.992163
1.00009 1.00145 0.992927
1.00009 1.00119 0.993177
1.00013 1.00025 0.994039
1.00009 1.00104 0.993338
1.00012 1.00016 0.994137
1.00012 0.99904 0.995243
1.00012 1.00012 0.994077
1.00013 0.998958 0.995297
1.00004 0.997186 0.997611
1.00014 0.998914 0.995335
1.00007 0.997127 0.99741
1.00003 0.995997 0.998543
1.0001 0.997087 0.997201
1.00002 0.995992 0.999383
1.00002 0.995983 0.999384
1.00012 0.9999 0.994563
1.00015 0.998652 0.995566
1.00011 0.999827 0.994496
1.0001 0.9969 0.997397
1.00016 0.998612 0.995602
1.00016 0.998625 0.995582
1.00009 0.996921 0.997382
1.00001 0.995892 0.999428
1.00006 0.996983 0.997735
1.00001 0.99596 0.999015
1 0.996082 0.998583
0.996613 0.995523 0.976275
0.99737 0.994938 0.981839
0.999083 0.998501 0.988192
1.00354 0.998205 0.99066
1.00386 0.998336 0.988084
0.999343 0.998861 0.989219
1.00424 0.998489 0.989668
0.998059 0.998712 0.970151
0.995105 0.997453 0.976449
0.996272 0.994132 0.978711
1.00088 0.997744 0.992132
0.996509 1.00117 0.970753
0.994969 0.999693 0.975506
0.999146 0.997587 0.978142
1.00003 1.00149 0.992959
1.00005 1.00065 0.993737
1.00012 0.999795 0.994524
1.00004 1.0007 0.993676
1.00002 1.0013 0.993239
1.00004 1.0015 0.993018
1.00006 1.00116 0.99328
1.00008 1.00105 0.993335
1.00007 1.00079 0.993608
1.00005 1.00068 0.993687
1.00424 0.997422 0.988859
1.00437 0.996295 0.989367
1.00153 1.0015 0.988827
1.0002 1.00449 0.989734
1.00003 1.00434 0.990197
1.00012 1.00282 0.991522
1.00005 1.00185 0.9926
1.00004 1.00171 0.992754
1.00494 0.996967 0.987953
1.00003 1.00222 0.992201
1.00012 1.00257 0.991715
1.00303 1.00035 0.988005
1.00017 1.00445 0.989458
1.0001 1.00463 0.989799
1.00015 1.00363 0.990707
1.00346 1.00211 0.986946
1.00055 1.00396 0.98977
1.00005 1.00425 0.99015
1.00004 1.00232 0.992138
1.00015 1.00264 0.991602
1.00027 1.00309 0.990963
0.999451 0.996458 0.980539
0.996612 0.996366 0.97313
0.997592 0.999009 0.967787
1.00019 1.00287 0.991313
0.999903 1.00417 0.990824
1.00353 0.997506 0.990525
0.999707 1.00479 0.990073
0.997083 0.995784 0.97355
0.996418 0.999643 0.972701
0.997498 1.00442 0.97951
1.00208 0.999135 0.99253
0.994836 0.999889 0.976195
0.997123 0.99551 0.980588
0.998939 0.995935 0.979619
1.0004 1.00264 0.991182
0.99811 0.996585 0.981845
1.00604 0.996745 0.980866
1.00101 1.00055 0.99204
0.999446 1.00375 0.991912
1.00206 1.00323 0.991552
0.998354 1.00284 0.983262
0.995456 1.00387 0.968441
0.995844 0.999214 0.977173
1.00388 0.998307 0.976531
0.999804 1.00259 0.992663
1.00916 0.996945 0.980363
1.01679 0.996544 0.970658
0.998368 1.00434 0.993287
0.998662 1.00035 0.994903
0.995513 1.00199 0.968913
0.997449 0.999046 0.977864
1.00376 1.0002 0.976109
1.00043 1.00248 0.991191
1.00025 1.00267 0.991427
1.00025 1.00218 0.991903
1.00013 1.00086 0.993455
1.00014 1.00145 0.99282
1.00014 1.00202 0.992271
1.0001 1.00292 0.991434
1.00015 1.00146 0.992823
1.00016 1.00221 0.992062
1.00009 1.00309 0.991326
0.999997 1.00302 0.991778
1.00024 1.00267 0.99142
1.0002 1.00194 0.992277
1.00014 1.00147 0.992815
1.0001 1.00169 0.992655
1.0002 1.00184 0.992312
1.0002 1.00189 0.99233
1.00007 1.00195 0.992461
1.00022 1.00205 0.992037
1.0002 1.00237 0.99177
1.00026 1.00221 0.991837
1.00018 1.00282 0.991338
1.00014 1.0027 0.991612
0.999902 1.00321 0.991415
1.00015 1.00323 0.991074
1.00006 1.00255 0.991966
0.999857 1.00304 0.991708
1.00002 1.00253 0.991978
1.00009 1.00176 0.99252
1.00004 1.00231 0.992167
1.00009 1.00145 0.992925
1.00014 1.00042 0.993843
1.00009 1.0012 0.993172
1.00012 1.00026 0.994035
1.0001 0.999142 0.995175
1.00012 1.00016 0.994134
1.00012 0.999031 0.995243
1.00001 0.99728 0.997584
1.00014 0.998953 0.995298
1.00005 0.997192 0.997394
0.999999 0.996069 0.998535
1.00008 0.997118 0.997198
1.00002 0.99601 0.998963
1.00001 0.995995 0.999384
1.00013 1.00009 0.994241
1.00015 0.998734 0.995495
1.00012 0.999907 0.994435
1.00009 0.996938 0.997371
1.00015 0.998652 0.995567
1.00011 0.999835 0.994496
1.00002 0.99588 0.999429
1.0001 0.996898 0.997397
1.00016 0.99861 0.995601
1.00009 0.996925 0.997381
1.00001 0.995899 0.999426
0.999998 0.995953 0.999416
0.998659 0.996428 0.981958
0.996428 0.995726 0.974655
1.00766 0.995102 0.97997
0.997299 0.994982 0.981509
0.999422 0.999225 0.984705
1.00433 0.998438 0.989525
0.997548 0.997903 0.974119
0.995622 0.998499 0.973822
0.996158 0.993994 0.978196
1.00075 0.998213 0.989795
0.996744 1.00025 0.968488
0.994897 0.999591 0.973479
0.999695 0.996916 0.978375
0.999243 0.999481 0.990288
0.995745 1.00193 0.96808
0.995084 1.00022 0.976124
1.00436 1.00068 0.975174
1.00006 1.00197 0.992503
1.00003 1.00147 0.993028
1.00006 1.00064 0.993783
1 1.00125 0.993295
1.00008 1.00177 0.992595
1.00005 1.00145 0.993072
1.00006 1.00113 0.993289
1.00012 1.00115 0.993244
1.00009 1.00104 0.9934
1.00007 1.00081 0.99354
1.00506 0.996586 0.987761
1.00285 1.00046 0.987725
1.00015 1.00429 0.989914
1.00016 1.00461 0.989741
1.00018 1.0036 0.990644
1.00013 1.00259 0.991623
1.00004 1.00225 0.99217
1.00005 1.00231 0.99215
1.00353 1.00129 0.987141
1.00013 1.00267 0.991656
1.00027 1.00316 0.990947
1.00056 1.00399 0.989556
1.00015 1.00422 0.990144
1.00151 1.00294 0.988906
0.999909 1.00378 0.991129
1.0003 1.00309 0.990781
1.00018 1.00246 0.991743
1.00034 1.00291 0.990954
1.01096 0.997327 0.978695
0.999328 0.99669 0.981174
0.996694 0.995906 0.975674
1.00033 1.00292 0.991167
0.999195 1.00359 0.99195
1.00114 1.00066 0.992112
0.997967 0.996876 0.982067
0.995446 1.00252 0.967306
0.998248 1.00335 0.985408
1.00295 1.00372 0.987782
0.995365 0.999473 0.974175
1.00556 0.996834 0.981161
1.00323 0.998272 0.97694
0.999758 1.00229 0.992792
1.00908 0.997057 0.980418
1.01654 0.996518 0.97094
0.998504 1.00414 0.993052
0.998872 1.00096 0.992678
0.995548 1.00306 0.967616
1.00621 0.999141 0.974781
0.996247 0.998872 0.976774
0.999187 1.00219 0.993883
1.02429 0.991957 0.966959
1.02104 0.996054 0.96626
1.00418 1.00021 0.976047
0.996239 1.00262 0.996492
0.995584 0.999165 0.972956
0.994925 0.999715 0.978909
1.00036 1.00255 0.991554
1.00039 1.00234 0.991503
1.00019 1.00156 0.992897
1.00014 1.00146 0.992823
1.00016 1.0022 0.992062
1.00006 1.00299 0.991337
1.0002 1.00193 0.99229
1.00025 1.00264 0.991407
1.00005 1.00289 0.991609
0.999793 1.00271 0.992165
1.00033 1.00232 0.991593
1.0002 1.00188 0.992338
1.00006 1.00198 0.99246
1.00024 1.00202 0.992072
1.00027 1.00218 0.991841
1.00021 1.00232 0.991799
1.00008 1.00287 0.991532
1.00013 1.0028 0.991463
1.00006 1.00398 0.990488
1.00016 1.0027 0.991633
0.999991 1.00323 0.991389
1.00012 1.00361 0.990468
1.00015 1.00307 0.991165
1.00005 1.00263 0.991859
1.00009 1.00324 0.991095
1.00011 1.00198 0.992373
1.00006 1.00258 0.991925
0.999821 1.00292 0.991931
1.00004 1.00252 0.992048
1.00009 1.00174 0.992596
1.00014 1.0007 0.993558
1.00009 1.00145 0.992923
1.00013 1.00044 0.993838
1.00008 0.999277 0.995076
1.00012 1.00027 0.994031
1.00011 0.999134 0.995173
0.999965 0.997406 0.997537
1.00013 0.999022 0.995243
1.00002 0.997293 0.997362
0.999957 0.996171 0.998517
1.00006 0.997186 0.997182
0.999989 0.996076 0.998959
0.999996 0.996036 0.999383
1.00015 1.00027 0.993871
1.00013 0.99889 0.995207
1.00013 1.00009 0.994238
1.00008 0.997026 0.99731
1.00014 0.998746 0.995412
1.00011 0.999914 0.994306
1.00001 0.995912 0.99942
1.00009 0.996931 0.997373
1.00015 0.998651 0.995567
1.00002 0.995879 0.999429
1.0001 0.996898 0.997397
1.00001 0.995906 0.999423
1.01137 0.996101 0.977615
0.998822 0.99612 0.981014
0.996557 0.995811 0.973829
1.00018 1.00122 0.99299
1.01769 0.994656 0.971727
1.0071 0.995884 0.980231
0.99762 0.994987 0.980753
1.00065 0.998314 0.987462
0.996695 1.00109 0.970872
0.995011 0.999585 0.975866
0.999973 0.995815 0.978166
0.998801 0.999971 0.984948
0.995327 1.00232 0.969708
0.995788 1.00015 0.975375
1.00337 0.999834 0.976313
0.998162 1.00198 0.982256
0.995268 1.00117 0.966414
0.996018 1.00016 0.974206
1.00454 1.00103 0.974957
1.00016 1.00213 0.992068
1.00006 1.00199 0.992461
1.00004 1.00146 0.993097
1.00013 1.00177 0.992507
1.00008 1.00174 0.99268
1.00005 1.0014 0.993127
1.00012 1.00115 0.993267
1.00009 1.00103 0.993465
1.00358 1.0005 0.987335
1.00057 1.00407 0.989342
1.00005 1.00227 0.992162
1.00025 1.00422 0.990137
1.00028 1.0032 0.99093
1.00011 1.0027 0.99171
1.00017 1.00248 0.991755
1.00177 1.00319 0.989036
1.00032 1.00287 0.991056
1.00032 1.00327 0.990732
0.999914 1.00358 0.990959
1.00026 1.00232 0.991802
1.00052 1.00057 0.993638
0.999521 1.00353 0.992097
1.00039 1.0024 0.991268
1.00031 1.00262 0.991434
1.02363 0.993318 0.967632
1.01166 0.996873 0.977767
0.999171 0.99692 0.981814
0.999698 1.00197 0.992923
0.998638 1.00396 0.992821
1.00902 0.997138 0.980474
0.99556 1.00098 0.969243
0.998926 1.00163 0.986315
0.996431 0.998969 0.974895
1.01633 0.996436 0.971223
1.0088 0.998164 0.973452
0.999301 1.00247 0.993549
1.02442 0.991909 0.966802
1.02221 0.995493 0.965246
0.996459 1.00445 0.997497
1.00317 0.999465 0.976894
0.995221 0.999102 0.972136
0.996102 0.999537 0.97496
0.998637 1.0022 0.995696
1.02917 0.990195 0.962226
1.01795 0.995131 0.970586
0.999171 0.997864 0.978105
0.996212 0.999204 0.974554
0.996266 1.0003 1.00137
0.995089 1.00016 0.969009
1.0005 1.00257 0.991102
1.00021 1.00154 0.992742
0.998995 1.0026 0.993345
1.00021 1.00193 0.992303
1.00025 1.00262 0.991394
1.0001 1.00287 0.991439
1.00031 1.00233 0.991591
0.999869 1.00253 0.992173
0.999724 1.00375 0.991262
1.00027 1.00215 0.991845
1.00022 1.00227 0.991829
1.00016 1.0029 0.991447
0.999854 1.00431 0.990527
1.00007 1.00278 0.991587
0.999971 1.00385 0.990631
1.00009 1.00468 0.989728
1.00055 1.0033 0.990212
1.00008 1.00325 0.991362
1.00018 1.00374 0.990343
1.00025 1.00268 0.991548
0.999951 1.0028 0.991747
1.00015 1.00297 0.991264
1.00008 1.00211 0.992312
1.00007 1.00262 0.991846
1.00004 1.00325 0.991118
1.00014 1.00101 0.993271
1.00011 1.00196 0.992357
1.00006 1.00261 0.991883
1.00009 1.00171 0.992672
1.00014 1.0007 0.993554
1.00005 0.999497 0.994915
1.00013 1.00045 0.993832
1.00008 0.99928 0.995071
0.99993 0.997561 0.997045
1.00011 0.999128 0.995172
0.999979 0.997418 0.997099
0.999879 0.996294 0.999363
1.00002 0.997288 0.997149
0.999949 0.996173 0.998948
0.999966 0.996109 0.999378
1.00018 1.00037 0.993698
1.00012 0.999096 0.995003
1.00015 1.00027 0.993941
1.00006 0.997161 0.99722
1.00013 0.998912 0.995183
1.00014 1.0001 0.994235
0.999996 0.995981 0.999405
1.00008 0.997017 0.997313
1.00013 0.998759 0.995328
1.00001 0.995904 0.999423
1.00009 0.996924 0.997375
1.00002 0.99588 0.999429
1.02309 0.992753 0.968133
1.01145 0.995912 0.977762
0.998834 0.99588 0.981134
1.00017 1.00122 0.993012
1.00022 1.00127 0.992804
1.00015 1.00181 0.992521
1.02051 0.99618 0.966762
1.01707 0.995492 0.971954
1.00652 0.99673 0.980493
0.998401 1.00038 0.988631
0.995642 1.00253 0.967894
0.995061 1.00005 0.973704
1.00395 0.9985 0.976427
0.997678 1.002 0.985982
0.995271 1.00102 0.969621
0.995058 1.00016 0.978348
1.00647 0.99973 0.973773
0.997731 0.999674 0.987551
0.994922 1.00047 0.971777
0.995341 0.999873 0.978372
1.00584 0.999153 0.974883
1.00022 1.0022 0.991947
1.00015 1.00218 0.992062
1.00006 1.00204 0.99242
1.00013 1.00178 0.992501
1.00008 1.00171 0.992764
1.00013 1.00114 0.993289
1.00206 1.00339 0.989163
0.999917 1.00338 0.99079
1.00017 1.00251 0.991767
1.00033 1.00337 0.990682
1.0003 1.00288 0.991158
1.00027 1.00226 0.991794
1.0003 1.00259 0.991416
1.00059 1.00095 0.993545
1.00042 1.00238 0.991395
0.999259 1.00331 0.99302
1.00026 1.00224 0.991743
0.998409 1.00102 0.996846
0.999133 1.00047 0.995837
1.00029 1.00253 0.991358
1.02864 0.991271 0.96248
1.02451 0.992932 0.966359
1.01235 0.996378 0.976838
0.999407 1.00273 0.993214
0.996553 1.00184 0.998038
1.02454 0.991855 0.966646
0.995099 0.999848 0.981243
0.99723 0.999572 0.977888
1.02341 0.994883 0.964232
1.00379 0.998302 0.9771
0.998668 1.00197 0.995452
1.02904 0.990358 0.962175
1.01731 0.99622 0.97082
0.996024 1.00166 0.993897
0.99965 0.997341 0.978265
0.995188 0.999608 0.978306
0.995026 1.00006 0.972455
0.997833 1.00434 0.997935
1.02316 0.993723 0.967094
1.00757 0.995838 0.979221
0.996191 0.99493 0.979382
0.995038 0.999587 0.976481
0.995101 1.00007 0.971791
0.996405 1.00041 0.99113
1.00021 1.00149 0.992588
0.999097 1.00242 0.993372
0.998806 1.00473 0.992067
1.00029 1.00233 0.991589
0.999934 1.00233 0.992178
0.99961 1.00382 0.991365
0.999769 1.00463 0.990228
1.00024 1.00293 0.991363
1.00002 1.00431 0.99038
1.00013 1.00501 0.989283
0.999883 1.00372 0.990775
1.00012 1.00458 0.989732
1.00065 1.00458 0.989035
1.00083 1.00358 0.989484
1.00033 1.00261 0.991128
1.00053 1.00341 0.990109
1.00024 1.00385 0.990219
1.00021 1.00239 0.991882
1.0002 1.00255 0.991674
0.999991 1.00239 0.992109
0.999982 1.00276 0.991805
1.00016 1.00287 0.991364
1.00013 1.00126 0.993035
1.0001 1.00208 0.992321
1.00009 1.00262 0.991832
1.00002 0.999782 0.994684
1.00014 1.00099 0.993275
1.00012 1.00193 0.992342
1.00014 1.0007 0.993551
1.00005 0.999503 0.99491
0.999876 0.997753 0.996956
1.00008 0.999282 0.995065
0.999934 0.997568 0.997041
0.999837 0.996445 0.999349
0.999984 0.997419 0.9971
0.999896 0.996309 0.998927
0.999927 0.99621 0.999368
1.0002 1.0005 0.993636
1.00013 0.999257 0.994999
1.00017 1.00038 0.993751
1.00002 0.997338 0.997105
1.00013 0.999112 0.99507
1.00016 1.00028 0.994011
0.999969 0.996089 0.999382
1.00005 0.997151 0.997225
1.00013 0.998933 0.995159
0.999998 0.99597 0.99941
1.00008 0.997008 0.997317
1.00002 0.995895 0.999427
1.02882 0.990218 0.962642
1.02343 0.992559 0.967995
1.01154 0.995757 0.977908
1.00023 1.00139 0.992655
1.00023 1.00193 0.992235
1.00017 1.00124 0.993035
1.00021 1.0013 0.992785
1.00017 1.0018 0.992451
1.00019 1.00183 0.992366
1.00017 1.00214 0.992086
1.01619 0.997506 0.970588
1.0217 0.995581 0.965861
1.01646 0.996281 0.972181
1.00884 0.998572 0.972588
0.99706 1.00178 0.98269
0.995277 1.00099 0.9727
0.994692 1.00054 0.975196
0.997297 0.999184 0.985491
0.994958 0.999654 0.969592
0.99632 0.999808 0.974788
1.00363 0.9995 0.975983
0.996194 0.997834 0.992002
0.994892 0.999865 0.969174
0.997336 1.00054 0.976944
1.00083 0.99615 0.978785
1.00028 1.00221 0.991849
1.00021 1.00218 0.991938
1.00013 1.00221 0.992056
1.00014 1.0018 0.992496
1.00069 1.00189 0.993451
0.998929 1.00317 0.993946
1.00028 1.00217 0.991787
1.0003 1.00256 0.991399
1.00044 1.00239 0.991522
1.00027 1.00227 0.991722
1.0003 1.00254 0.991289
0.997984 1.0018 0.997094
0.999221 1.00031 0.996156
1.00023 1.00269 0.99143
0.996496 0.999822 1.00088
0.999702 1.00309 0.992834
1.02357 0.994702 0.966491
1.0283 0.991569 0.962518
1.02539 0.992518 0.965085
0.998784 1.0017 0.995231
0.996112 1.0004 1.00109
1.02889 0.99057 0.962123
0.995001 1.00012 0.969224
0.994837 1.00015 0.97528
1.01667 0.99727 0.971054
0.999874 0.995874 0.978335
0.997793 1.00413 0.997855
1.02348 0.993534 0.966923
1.00697 0.996716 0.979526
0.996475 1.00047 0.996946
0.996137 0.994411 0.978826
0.995768 0.999866 0.975565
0.995176 0.99999 0.971452
0.997979 1.00517 0.995763
1.01137 0.997427 0.976413
0.997161 0.995379 0.981886
0.994762 0.999561 0.976191
0.995352 1.00108 0.970725
0.996267 1.00071 0.985892
0.999307 1.00221 0.9934
0.998764 1.00483 0.992047
1.00043 1.00336 0.990898
0.999498 1.0039 0.991469
0.999537 1.00471 0.990352
1.00025 1.00474 0.989457
1.00019 1.00429 0.990233
1.00023 1.00501 0.989179
1.00076 1.00456 0.988377
1.00017 1.0045 0.989736
1.00066 1.00459 0.988915
1.00096 1.00424 0.988488
1.00122 1.00299 0.989204
1.00078 1.00291 0.990371
1.00084 1.00366 0.989359
1.00025 1.0022 0.99169
1.00034 1.00261 0.991202
1.00051 1.00353 0.990006
1.00015 1.00233 0.991996
1.00019 1.00242 0.991864
1.00013 1.00242 0.9918
1.00009 1.00154 0.992786
1.00001 1.00234 0.99215
1.00001 1.00271 0.991864
1.00001 1.00006 0.994415
1.00013 1.00124 0.993042
1.00011 1.00205 0.99233
0.999834 0.997971 0.996841
1.00002 0.999788 0.994681
1.00015 1.00097 0.99328
1.00005 0.999507 0.994904
0.99988 0.997764 0.99695
0.999776 0.996616 0.99933
0.999938 0.997575 0.997037
0.99983 0.996466 0.999344
0.999878 0.996337 0.999355
1.00024 1.0015 0.99259
1.00024 1.00063 0.993442
1.00012 0.999409 0.994862
1.0002 1.0005 0.993636
0.999989 0.997516 0.996992
1.00012 0.999264 0.995
1.00017 1.00039 0.993804
0.999934 0.996233 0.999354
1.00002 0.997325 0.997111
1.00013 0.999125 0.995136
0.999973 0.996072 0.999389
1.00005 0.99714 0.99723
1 0.995957 0.999415
1.02378 0.993371 0.966337
1.02875 0.990458 0.96249
1.02376 0.99235 0.967855
1.00023 1.0014 0.992679
1.00023 1.00193 0.992189
1.0002 1.00212 0.992004
1.00021 1.00187 0.992216
1.00021 1.00225 0.99196
1.0002 1.00132 0.992766
1.00018 1.0018 0.992381
1.00018 1.00183 0.99237
1.00019 1.00212 0.992073
1.00016 1.00225 0.992023
1.00646 0.997187 0.980141
1.01593 0.997659 0.970804
1.02283 0.995039 0.964959
1.00263 0.999395 0.976288
0.99711 0.999685 0.977386
0.996948 0.998365 0.984022
0.994957 0.999548 0.971423
0.995976 0.997453 0.986859
0.994936 0.999866 0.971418
0.995941 1.00007 0.976063
1.00002 0.996422 0.979069
0.995037 0.997412 0.990054
0.995004 0.999455 0.97225
0.994989 1.0002 0.97473
0.99643 0.994504 0.97909
1.00005 1.00208 0.992337
1.00024 1.00229 0.99183
1.00022 1.00217 0.991929
0.997612 1.00202 0.997335
0.999316 1.00007 0.996481
1.00028 1.00229 0.9917
1.00031 1.00258 0.99122
1.0002 1.00264 0.991492
0.999496 1.00316 0.992613
0.996707 0.999241 1.00092
0.999192 1.00378 0.992066
0.998214 1.00296 0.99584
1.01061 0.998736 0.977734
1.02438 0.994167 0.965343
1.02797 0.992014 0.962555
0.997702 1.00392 0.997756
0.996535 1.00016 0.98901
1.02381 0.993321 0.966751
0.995304 1.00004 0.966444
0.995085 1.00002 0.974184
1.00637 0.997654 0.979831
0.996069 0.994039 0.978272
0.998134 1.00515 0.995938
1.01147 0.997126 0.976536
0.997059 0.995335 0.981607
0.996603 1.00096 0.988635
0.994823 0.999422 0.973999
0.995349 1.00084 0.967819
0.999482 1.00377 0.992607
0.998623 0.996982 0.981629
0.99583 0.99696 0.973532
0.99588 1.0012 0.968894
0.996866 1.00194 0.987336
0.998741 1.00493 0.992027
1.00026 1.00337 0.990873
1.00183 1.00155 0.990069
0.999322 1.0048 0.990476
1.0001 1.00467 0.989458
1.00107 1.00386 0.988549
1.00032 1.005 0.989075
1.00078 1.00461 0.988371
1.00149 1.00315 0.988581
1.00068 1.00458 0.988795
1.00097 1.00413 0.988535
1.0016 1.00236 0.98912
1.00175 1.00135 0.989742
1.00101 1.00263 0.989895
1.00123 1.00288 0.989249
1.00057 1.00242 0.991124
1.00072 1.00298 0.990229
1.00085 1.00373 0.989234
1.00023 1.00203 0.992063
1.00025 1.00217 0.991775
1.00035 1.00261 0.991277
1.00009 1.00179 0.992565
1.00013 1.00232 0.992014
1.00016 1.00245 0.991846
0.999986 1.0004 0.994124
1.0001 1.00155 0.992788
1.00003 1.00228 0.992192
0.999776 0.9982 0.99717
1.00001 1.00007 0.994412
1.00014 1.00122 0.993049
0.999727 0.99684 0.998337
0.999827 0.997998 0.997054
1.00001 0.999794 0.994678
0.999884 0.997774 0.996944
0.999768 0.996646 0.999322
0.999822 0.996489 0.999339
1.00022 1.00176 0.992344
1.00025 1.00082 0.993228
1.00024 1.00153 0.992548
1.0001 0.999554 0.994744
1.00023 1.00063 0.993443
0.999953 0.997677 0.9969
1.00012 0.999412 0.994865
1.0002 1.0005 0.993636
0.999892 0.996386 0.999328
0.999986 0.997505 0.996996
1.00012 0.999273 0.995001
0.999938 0.99621 0.999363
1.00002 0.997313 0.997117
0.999976 0.996055 0.999396
1.00935 0.998623 0.978671
1.02391 0.99337 0.96619
1.02867 0.990766 0.962337
1.00018 1.00219 0.992028
1.00022 1.00142 0.992703
1.00024 1.00193 0.992144
1.00021 1.00188 0.992268
1.00021 1.00211 0.992044
1.00022 1.0022 0.991946
1.00021 1.00237 0.991789
1.00016 1.00228 0.991894
1.00017 1.00183 0.992373
1.0002 1.00209 0.992059
1.00016 1.00225 0.992019
1.00022 1.00256 0.991866
0.997661 0.99526 0.980537
1.00589 0.997427 0.980435
1.01576 0.997782 0.97102
0.998833 0.996291 0.9793
0.996274 1.00009 0.974483
0.994878 0.999922 0.969215
0.99565 0.997013 0.991887
0.994996 0.997272 0.995243
0.996371 0.994308 0.978451
0.994921 0.999721 0.9684
0.995385 0.999904 0.976665
0.996099 0.998737 0.993466
0.995293 0.998948 0.973781
0.99489 0.999094 0.976235
0.999565 1.00204 0.993248
1.00016 1.002 0.992345
1.0002 1.00237 0.99181
0.996898 0.998571 1.00095
0.999416 1.00314 0.992386
1.00014 1.0026 0.991553
0.999407 1.00378 0.992012
0.997907 1.0031 0.995949
0.998973 1.00171 0.99445
0.99901 0.996864 0.981022
1.01159 0.998516 0.976228
1.02519 0.993604 0.964195
0.998246 1.00503 0.996158
0.99664 1.00088 0.990404
1.01157 0.996977 0.976658
0.9953 1.00041 0.972783
0.994797 0.99941 0.976315
0.997382 0.995232 0.980723
0.999416 1.00388 0.992845
0.998758 0.996681 0.98066
0.995139 0.997465 0.976543
0.99669 1.00202 0.98355
0.995552 1.00123 0.970359
1.00105 1.00132 0.991725
0.996698 0.995329 0.976343
0.996873 1.00064 0.970222
0.997514 1.00188 0.982455
1.00007 1.00344 0.990848
1.00152 1.00102 0.99033
1.00188 1.001 0.989672
0.999927 1.00458 0.98946
1.00114 1.00371 0.988548
1.00254 1.00074 0.989074
1.0008 1.00461 0.988366
1.00144 1.00303 0.988653
1.00231 1.00015 0.990023
1.00097 1.00403 0.988582
1.00162 1.00214 0.989165
1.00225 0.999649 0.990494
1.00208 0.999691 0.990801
1.00153 1.00153 0.99004
1.00174 1.00125 0.989863
1.00078 1.0022 0.990603
1.00103 1.0026 0.989979
1.00123 1.00277 0.989293
1.00035 1.00203 0.991831
1.0005 1.00243 0.991116
1.00065 1.00306 0.990087
1.00014 1.00179 0.992486
1.00025 1.00203 0.992055
1.00025 1.00215 0.99186
0.999931 1.00084 0.99381
1.0001 1.00177 0.992576
1.0001 1.0023 0.992031
0.999729 0.998446 0.996539
0.999988 1.0004 0.994119
1.00012 1.00155 0.99279
0.999632 0.997053 0.999266
0.99978 0.998237 0.996658
1 1.00008 0.994409
0.99971 0.996839 0.999295
0.999831 0.998013 0.996807
0.999761 0.996676 0.999314
1.00019 1.0019 0.992329
1.00021 1.00177 0.992354
1.00021 1.00113 0.993001
1.00008 0.999736 0.994604
1.00024 1.00083 0.993229
1.00024 1.00156 0.992506
0.999917 0.997816 0.996828
1.0001 0.999546 0.994748
1.00023 1.00064 0.993444
0.999845 0.996534 0.999306
0.999949 0.997668 0.996903
1.00012 0.999412 0.994868
0.999897 0.996366 0.999335
0.999983 0.997495 0.997001
0.999942 0.996188 0.999371
0.99832 0.996919 0.982237
1.00922 0.998651 0.978826
1.02402 0.993372 0.966042
1.00018 1.0022 0.991995
1.00015 1.00223 0.992122
1.00021 1.00232 0.991847
1.0002 1.0019 0.992319
1.0002 1.00211 0.992085
1.00022 1.00215 0.991933
1.00017 1.00228 0.991899
1.00021 1.00236 0.991792
1.00009 1.00284 0.991586
1.00011 1.00243 0.991816
1.00016 1.00225 0.992015
1.00016 1.00249 0.991881
0.995137 0.997537 0.976439
0.997346 0.995489 0.980639
1.00531 0.997628 0.980728
0.996384 0.994108 0.977813
0.994782 1.00001 0.974441
0.995213 0.999929 0.975266
0.995001 0.997276 0.989844
0.995918 0.998704 0.988677
0.995002 0.998613 0.974172
0.995147 0.999314 0.973119
0.997848 0.996144 0.98878
0.995807 1.00016 0.970321
1.00019 1.00302 0.991804
0.999742 1.0018 0.993202
1.00026 1.00191 0.992353
0.997367 1.00331 0.996083
0.999608 1.00378 0.99196
0.999667 1.00185 0.994192
1.00183 0.999329 0.992568
0.997026 0.994931 0.974699
0.998922 0.997249 0.981158
1.01255 0.998179 0.974723
0.999623 1.00392 0.993037
0.996523 1.00202 0.986838
0.998782 0.996363 0.980771
0.995754 1.00136 0.968636
0.995617 0.998386 0.973935
1.00115 1.00144 0.991759
0.996618 0.995629 0.974499
0.997244 0.999728 0.968284
0.996993 1.00161 0.9865
1.00093 1.00336 0.989673
0.99755 0.999479 0.965972
0.999066 0.998704 0.989688
1.00121 1.00044 0.990589
1.0016 1.0016 0.989542
1.00337 0.998546 0.988638
1.00122 1.00355 0.988547
1.00253 1.00051 0.988997
1.00353 0.996952 0.990943
1.00138 1.00297 0.988725
1.0023 0.999914 0.99005
1.00303 0.997019 0.991601
1.00165 1.00193 0.98921
1.00225 0.999549 0.990506
1.00254 0.99796 0.991533
1.00227 0.998835 0.991422
1.00207 0.999572 0.990928
1.00186 1.00018 0.990746
1.00136 1.00145 0.990479
1.00153 1.00156 0.990055
1.00174 1.00113 0.989984
1.00063 1.00191 0.991255
1.00081 1.00221 0.990706
1.00105 1.00256 0.990063
1.00023 1.00173 0.992359
1.00037 1.00204 0.991816
1.00043 1.00244 0.991107
0.999903 1.00114 0.99356
1.00016 1.00176 0.992492
1.00027 1.00203 0.992048
0.999654 0.998755 0.996363
0.999947 1.0008 0.993813
1.00012 1.00176 0.992588
0.999592 0.997247 0.999236
0.999726 0.998476 0.996528
0.999992 1.00041 0.994114
0.999646 0.997067 0.998766
0.999783 0.99825 0.996658
0.9997 0.996889 0.999279
1.00016 1.00196 0.992303
1.00019 1.00191 0.992281
1.00017 1.00139 0.99281
1.00021 1.00178 0.992364
1.00021 1.00114 0.992997
1.00003 1.00004 0.994384
0.999875 0.997967 0.996757
1.00008 0.999725 0.994609
1.00023 1.00085 0.993229
0.999792 0.996677 0.99929
0.999913 0.997811 0.996831
1.00011 0.99954 0.994752
0.999851 0.996519 0.999313
0.999946 0.997661 0.996907
0.999902 0.996345 0.999343
0.995859 0.997013 0.97438
0.998134 0.996943 0.981758
1.00912 0.998686 0.978981
1.00019 1.00221 0.991962
1.00018 1.00237 0.991815
1.00012 1.00221 0.992157
1.00011 1.00228 0.992155
1.00011 1.0025 0.991888
1.00018 1.00229 0.991905
1.0002 1.00236 0.991795
1.00006 1.00278 0.99162
0.999936 1.00258 0.991785
1.00003 1.00278 0.991565
1.0007 1.0031 0.990578
1.00003 1.00273 0.991808
1.00012 1.00244 0.991895
0.997122 0.999827 0.967174
0.995176 0.998452 0.975509
0.997248 0.995708 0.980133
0.995131 0.998383 0.976339
0.995109 0.999755 0.968442
0.995859 0.99866 0.994107
0.998027 0.996305 0.991464
0.995905 0.998791 0.97302
1.00087 0.995941 0.988028
1.00224 1.00179 0.988602
0.999807 1.00295 0.991746
0.999888 1.00154 0.993154
1.00017 1.002 0.993923
1.00232 0.998776 0.992033
0.997737 0.998183 0.967985
0.996786 0.99576 0.973621
0.998863 0.997769 0.981293
1.00129 1.00161 0.991803
0.99644 1.00222 0.982818
0.996772 0.995568 0.973682
0.997101 0.999702 0.970761
1.00147 1.00327 0.989726
0.998339 0.998354 0.969875
0.99868 0.999463 0.984867
1.00287 1.00335 0.987039
1.00078 0.997123 0.992264
1.00131 1.00206 0.989411
1.00321 0.99919 0.988516
1.00478 0.996163 0.988776
1.00247 1.00032 0.988924
1.0033 0.997013 0.990931
1.00376 0.995318 0.991799
1.00231 0.999643 0.990078
1.003 0.997019 0.991531
1.00313 0.996432 0.991916
1.00226 0.999454 0.990516
1.00253 0.99804 0.991483
1.00258 0.997912 0.99157
1.00221 0.998694 0.991553
1.00215 0.999338 0.991149
1.00207 0.999463 0.991056
1.00186 1.0002 0.99072
1.00173 1.00049 0.990696
1.00107 1.00141 0.990906
1.00135 1.00149 0.990459
1.00153 1.00161 0.990069
1.00042 1.00167 0.992042
1.00061 1.00193 0.991324
1.00083 1.00221 0.99081
0.999897 1.0013 0.993378
1.00025 1.00172 0.99235
1.00039 1.00204 0.991801
0.999586 0.999098 0.996131
0.999927 1.00109 0.993568
1.00018 1.00173 0.992499
0.999528 0.997464 0.999202
0.999647 0.998798 0.996353
0.99996 1.00077 0.993815
0.999584 0.997271 0.999227
0.999722 0.998509 0.996518
0.999639 0.997094 0.999247
1.00013 1.00213 0.992214
1.00015 1.00196 0.992307
1.00014 1.00159 0.99262
1.00019 1.00192 0.992233
1.00017 1.00143 0.992762
1.00001 1.00039 0.994079
1.0002 1.00115 0.992993
1.00004 1.00003 0.994387
0.999817 0.998196 0.996642
0.999732 0.996835 0.999273
0.999871 0.997961 0.996762
1.00009 0.999711 0.994614
0.9998 0.996667 0.999295
0.999909 0.997806 0.996835
0.999856 0.996504 0.999319
0.997697 0.999861 0.970186
0.996058 0.996168 0.976087
0.99771 0.997038 0.982249
1.00016 1.00244 0.991782
1.00008 1.00219 0.992192
1.00012 1.00249 0.991909
1.0001 1.00227 0.992149
1.00007 1.00252 0.991973
0.999977 1.00244 0.992041
1.00004 1.0027 0.991654
1 1.00272 0.991692
0.999946 1.003 0.991538
1.00013 1.00234 0.991569
1.00101 1.00267 0.99087
1.00188 1.00235 0.988695
1.00053 1.00292 0.990681
0.99993 1.00304 0.9918
1.00037 0.997711 0.987268
0.996525 1.00052 0.969652
0.995422 0.997782 0.97374
0.995941 0.999834 0.970328
0.99825 0.996434 0.993979
1.00086 0.995903 0.99177
1.0042 0.996717 0.990487
1.00223 1.00125 0.989226
0.999627 1.00296 0.991684
1.00335 0.998412 0.991493
0.998982 1.00015 0.984986
0.998187 0.998966 0.970606
0.996762 0.995271 0.976186
1.00199 1.00336 0.989785
0.998275 0.999852 0.987992
0.997883 0.997551 0.973826
1.0031 1.00233 0.987295
1.0005 0.998037 0.989879
1.00484 0.998224 0.987954
1.00411 0.998384 0.989567
1.0031 1.00005 0.988393
1.00474 0.996164 0.988787
1.00427 0.996435 0.989828
1.0031 0.99704 0.990915
1.00366 0.995565 0.991775
1.00364 0.996464 0.990955
1.00296 0.997054 0.991462
1.00307 0.996631 0.991856
1.0031 0.997497 0.991008
1.00253 0.998127 0.991432
1.00251 0.997995 0.991602
1.0024 0.998868 0.99096
1.00215 0.99856 0.991683
1.00212 0.99923 0.991216
1.00204 0.99988 0.990813
1.00187 1.00022 0.990694
1.00173 1.00052 0.990673
1.00153 1.00073 0.990914
1.00073 1.00134 0.991597
1.00105 1.00144 0.990973
1.00133 1.00153 0.990438
0.999973 1.0014 0.993131
1.00044 1.00167 0.992036
1.0006 1.00195 0.991393
0.999515 0.999501 0.99586
0.999927 1.00127 0.993381
1.00028 1.00171 0.99234
0.999471 0.997708 0.99915
0.999583 0.999142 0.996125
0.999949 1.00104 0.993576
0.999522 0.997494 0.999187
0.999643 0.998838 0.996342
0.999576 0.997294 0.999218
1.00013 1.00228 0.992063
1.00014 1.00211 0.992242
1.0001 1.00181 0.992533
1.00014 1.00196 0.992312
1.00014 1.00162 0.992607
0.999993 1.00072 0.993786
1.00017 1.00146 0.992715
1.00001 1.00039 0.994079
0.999753 0.998481 0.996477
1.00005 1.00001 0.99439
0.999818 0.998174 0.996651
0.999668 0.997036 0.999244
0.999742 0.996822 0.999278
0.999868 0.997953 0.996768
0.999806 0.996656 0.9993
0.999549 0.999722 0.985933
0.997502 0.999037 0.968465
0.996483 0.996412 0.973606
1.00037 1.00232 0.991597
1.00011 1.0025 0.99193
1.00008 1.00226 0.992143
1.00001 1.0025 0.992032
1.00004 1.00256 0.99195
1 1.00205 0.992312
1.00007 1.0029 0.991599
0.99992 1.00324 0.99151
1.00025 1.00236 0.991675
1.00072 1.00258 0.99108
1.00178 1.00163 0.989505
1.00375 0.999655 0.987391
1.00193 1.00203 0.988625
1.00045 1.00265 0.990783
1.00451 0.99556 0.990771
1.00014 0.998153 0.985468
0.996455 1.00034 0.972667
1.00077 0.995925 0.98716
1.00427 0.996533 0.990363
1.00185 1.0005 0.989864
1.00301 0.999749 0.99055
0.999021 0.999677 0.98848
0.997839 0.998423 0.968201
1.00336 1.00117 0.987545
1.00038 0.998342 0.987481
1.00491 0.997518 0.987805
1.00406 0.998244 0.99002
1.00459 0.996661 0.988481
1.00362 0.998486 0.988308
1.00464 0.996103 0.988801
1.00423 0.996284 0.989881
1.0037 0.997729 0.989657
1.00357 0.995779 0.991752
1.00363 0.996506 0.990943
1.00345 0.997935 0.989934
1.003 0.996824 0.991795
1.00298 0.997575 0.991141
1.00286 0.998697 0.990206
1.00243 0.998072 0.991634
1.00239 0.998878 0.990963
1.00229 0.999551 0.990517
1.00209 0.999122 0.991282
1.00202 0.9998 0.99084
1.00182 1.00025 0.990772
1.00173 1.00055 0.990651
1.0015 1.00074 0.990867
1.00117 1.00092 0.991389
1.00021 1.00127 0.992819
1.00072 1.00136 0.991664
1.00102 1.00148 0.99104
0.999458 0.999971 0.995513
0.999993 1.00139 0.993134
1.00045 1.00167 0.992029
0.999393 0.997993 0.999084
0.999531 0.999515 0.995854
0.999956 1.00124 0.993385
0.999458 0.99774 0.999131
0.999581 0.999182 0.996118
0.999515 0.997522 0.999172
1.00026 1.00223 0.991735
1.00012 1.00226 0.992071
1.00013 1.00192 0.992422
1.00015 1.0021 0.992271
1.00009 1.00181 0.992556
0.999937 1.00107 0.993559
1.00013 1.00166 0.992594
0.99998 1.00076 0.993781
0.999673 0.998813 0.996298
1.00001 1.0004 0.994079
0.999758 0.998447 0.996489
0.999602 0.997259 0.999206
0.99982 0.998152 0.996661
0.999678 0.997009 0.999254
0.99975 0.996811 0.999284
1.00364 0.996795 0.991169
0.999535 0.999829 0.98246
0.997649 0.999703 0.970057
1.00042 1.00179 0.99183
1.00108 1.00171 0.990818
1.00022 1.00235 0.991666
1.00005 1.00253 0.992024
1.00002 1.0026 0.991927
1.00015 1.00204 0.992215
1.00166 1.00119 0.99015
1.00033 1.00239 0.991781
1.00031 1.00249 0.99129
1.00172 1.00157 0.989637
1.0033 0.999871 0.987852
1.00462 0.99678 0.988377
1.00379 0.999571 0.987391
1.00204 1.00174 0.988555
1.0045 0.995594 0.990993
1.00007 0.998794 0.982801
1.00449 0.996364 0.990227
1.00317 0.998097 0.990637
1.0029 0.999186 0.990835
0.999239 0.999601 0.983624
1.00494 0.996813 0.987655
1.00408 0.998141 0.990437
1.00456 0.996817 0.988461
1.00372 0.998401 0.988557
1.00367 0.998353 0.988961
1.00329 0.99815 0.98979
1.00423 0.996026 0.989934
1.00374 0.997533 0.989705
1.00356 0.998495 0.989082
1.00362 0.996589 0.990931
1.0034 0.997909 0.990012
1.00325 0.99867 0.989427
1.00287 0.997647 0.991274
1.00287 0.998705 0.990197
1.00272 0.999344 0.989864
1.00238 0.998888 0.990966
1.00229 0.999546 0.990516
1.00209 1.00001 0.990454
1.00201 0.99972 0.990867
1.0018 1.00022 0.990778
1.00143 1.00056 0.991182
1.00147 1.00075 0.990821
1.00113 1.00091 0.991371
1.00052 1.00095 0.992531
0.999488 1.00026 0.995168
1.00021 1.00127 0.992823
1.00072 1.00138 0.991732
0.999275 0.998375 0.999001
0.999502 0.99993 0.995504
1.00001 1.00137 0.993136
0.99937 0.998047 0.999061
0.999547 0.999529 0.995849
0.999446 0.997776 0.999112
1.00058 1.00205 0.991112
1.00027 1.00221 0.99167
1.0003 1.00185 0.992167
1.00012 1.00223 0.992079
1.00011 1.00192 0.992425
0.999893 1.00136 0.99338
1.00009 1.00182 0.99258
0.999913 1.00112 0.993554
0.999584 0.999193 0.996094
0.999966 1.00079 0.993777
0.999681 0.998772 0.996307
0.999529 0.997499 0.999163
0.999763 0.998412 0.996501
0.999613 0.997229 0.999218
0.999689 0.996987 0.999263
1.00392 0.996286 0.990157
1.00364 0.997032 0.991057
0.999774 0.999717 0.98528
1.00173 1.00099 0.990515
1.00026 1.00175 0.992187
1.0017 1.00095 0.989871
1.0011 1.00172 0.990766
1.00006 1.0024 0.991736
1.00311 1.00002 0.988454
1.00029 1.00201 0.99212
1.00174 1.00108 0.990083
1.00409 0.998185 0.988219
1.00168 1.00151 0.989769
1.00343 0.999925 0.987759
1.00449 0.997024 0.988375
1.00373 0.999558 0.987391
1.00447 0.995598 0.991202
1.00315 0.997938 0.990579
1.0031 0.997877 0.990557
1.00279 0.998597 0.991124
1.00452 0.996964 0.988441
1.00382 0.998371 0.988803
1.00377 0.998281 0.988894
1.00332 0.998215 0.989836
1.00331 0.998608 0.98948
1.00376 0.997417 0.989752
1.00357 0.998458 0.989114
1.00343 0.998816 0.988994
1.00334 0.997893 0.99009
1.00327 0.9987 0.989403
1.00312 0.999169 0.989244
1.00288 0.998713 0.990189
1.00273 0.999341 0.989851
1.00248 0.999777 0.989914
1.00229 0.999541 0.990515
1.00209 1.00001 0.990451
1.00173 1.00033 0.990829
1.00177 1.00019 0.990784
1.00143 1.00055 0.991187
1.00081 1.00065 0.992257
1.00108 1.0009 0.991353
1.00051 1.00097 0.992532
0.999535 1.00036 0.995633
0.999192 0.999001 0.997358
0.999533 1.00018 0.995521
1.00022 1.00128 0.992826
0.999253 0.998465 0.998969
0.999542 0.9999 0.995496
0.999351 0.998103 0.999037
1.00214 1.00014 0.990068
1.00102 1.00168 0.99062
1.00066 1.00203 0.991035
1.00053 1.0017 0.991855
1.00027 1.00218 0.991605
1.00027 1.00184 0.992181
0.99991 1.00149 0.993231
1.00009 1.00192 0.992429
0.999867 1.00139 0.993377
0.999512 0.999592 0.995844
0.99989 1.00117 0.993549
0.999587 0.999152 0.996101
0.99944 0.997777 0.999108
0.999689 0.99873 0.996316
0.999542 0.997468 0.999177
0.999625 0.997198 0.99923
1.00366 0.997688 0.989643
1.00388 0.996544 0.990266
1.0036 0.997376 0.990946
1.00287 0.999873 0.989023
1.00149 1.00101 0.990807
1.00009 1.00169 0.992542
1.00186 1.0009 0.989987
1.00112 1.00174 0.990715
1.00395 0.998836 0.987917
1.00312 1.00008 0.988324
1.0018 1.00102 0.990016
1.00412 0.998256 0.98818
1.0036 0.99994 0.987666
1.0043 0.997222 0.988372
1.0031 0.998474 0.989918
1.00313 0.997926 0.9905
1.00301 0.997619 0.990477
1.0039 0.99819 0.988829
1.00335 0.998253 0.98988
1.00332 0.998593 0.989505
1.0032 0.999046 0.989246
1.00359 0.998408 0.989147
1.00345 0.998795 0.988988
1.00327 0.999082 0.989047
1.00328 0.998733 0.98938
1.00313 0.999171 0.989232
1.00285 0.999527 0.989439
1.00274 0.99934 0.989838
1.00249 0.999774 0.989904
1.00208 1.0001 0.990363
1.00209 1 0.990448
1.00173 1.00032 0.990827
1.00109 1.00046 0.991916
1.00143 1.00055 0.991192
1.00081 1.00066 0.992253
0.999624 1.0004 0.995448
1.00051 1.00098 0.992533
0.9996 1.00033 0.995591
0.999057 0.99955 0.99714
0.999152 0.99898 0.998113
0.999586 1.00011 0.995862
0.999233 0.998547 0.998937
1.00293 0.999594 0.989192
1.00166 1.00085 0.990532
1.00201 0.999999 0.990486
1.0008 1.00159 0.991398
1.00113 1.00167 0.990607
1.00076 1.00201 0.990959
1.00049 1.00174 0.991863
1.00002 1.00149 0.993013
1.00025 1.00183 0.992194
0.999895 1.00149 0.993228
0.999471 0.999973 0.995557
0.999843 1.00141 0.993374
0.999502 0.99957 0.995849
0.999322 0.998131 0.999038
0.999591 0.999111 0.996107
0.999459 0.997737 0.999126
0.999556 0.997435 0.99919
1.00367 0.998379 0.988912
1.00369 0.997693 0.989623
1.00387 0.996819 0.990376
1.00368 0.99893 0.98826
1.00287 0.999907 0.989026
1.00127 1.00103 0.991099
1.00201 1.00083 0.990104
1.00398 0.998841 0.987937
1.00316 1.00012 0.988194
1.00414 0.998326 0.988141
1.00322 0.998863 0.989355
1.00316 0.998514 0.989776
1.0031 0.997939 0.990421
1.00316 0.99935 0.989023
1.00333 0.998586 0.98953
1.0032 0.999054 0.989228
1.00315 0.99925 0.989143
1.00347 0.998775 0.988983
1.00327 0.999087 0.989051
1.003 0.999435 0.98924
1.00314 0.999173 0.989221
1.00285 0.999533 0.989435
1.0024 0.999854 0.989984
1.00249 0.999771 0.989895
1.00208 1.0001 0.990358
1.00137 1.0003 0.991523
1.00174 1.00032 0.990825
1.00109 1.00046 0.991905
0.999732 1.00035 0.99532
1.0008 1.00067 0.99225
0.99969 1.00037 0.995412
0.998968 0.999876 0.997027
0.999665 1.00031 0.995547
0.99902 0.999578 0.997179
0.999091 0.99894 0.998893
1.0034 0.999427 0.988561
1.00253 0.999946 0.989693
1.00284 0.999678 0.989338
1.00131 1.00109 0.991073
1.00164 1.00079 0.990529
1.00189 0.999893 0.990902
1.00028 1.00141 0.992583
1.0008 1.00158 0.991394
1.00123 1.00168 0.990592
1.00045 1.00177 0.991871
1 1.0015 0.993012
0.999468 1.00031 0.995231
0.999879 1.00148 0.993225
0.999438 0.999996 0.99556
0.999172 0.998588 0.998957
0.999492 0.999546 0.995853
0.99935 0.998066 0.999061
0.999478 0.997696 0.999143
1.00369 0.998544 0.988763
1.00376 0.99836 0.988793
1.00371 0.997685 0.989603
1.00376 0.998861 0.988254
1.00287 0.999956 0.989028
1.00398 0.998846 0.987958
1.00329 0.999158 0.988937
1.00321 0.998908 0.989337
1.00323 0.998554 0.989634
1.00315 0.999328 0.989054
1.0031 0.999577 0.988942
1.00321 0.99906 0.98921
1.00315 0.999258 0.989147
1.00298 0.999507 0.98923
1.00327 0.999093 0.989055
1.00299 0.999434 0.989248
1.00256 0.999753 0.989775
1.00284 0.999537 0.989431
1.0024 0.999859 0.989979
1.00161 1.0001 0.991239
1.00209 1.0001 0.990353
1.00138 1.00029 0.99151
0.999888 1.00021 0.995211
1.0011 1.00046 0.991894
0.999796 1.00033 0.995284
0.99893 1.00005 0.996959
0.999757 1.00034 0.995375
0.998925 0.999927 0.997062
0.998983 0.999605 0.99722
1.00355 0.998736 0.988812
1.00302 0.999625 0.989002
1.00342 0.999372 0.988512
1.00195 1.00037 0.990442
1.0025 0.999993 0.989768
1.00274 0.999748 0.989487
1.00069 1.00103 0.992092
1.00129 1.00105 0.990952
1.00163 1.00071 0.990527
0.999532 1.00057 0.994849
1.00027 1.0014 0.992587
1.00081 1.00159 0.99139
0.999984 1.0015 0.993011
0.999407 1.00039 0.995239
0.999018 0.999122 0.998865
0.999403 1.00003 0.995563
0.999202 0.998498 0.998983
0.99938 0.998006 0.999083
1.00353 0.998797 0.988852
1.00371 0.998554 0.988736
1.00385 0.998342 0.988673
1.00384 0.99878 0.988248
1.00331 0.99936 0.988727
1.0033 0.999152 0.988963
1.00319 0.998951 0.98932
1.00315 0.999307 0.989084
1.00311 0.999549 0.988927
1.00298 0.999674 0.98909
1.00314 0.999268 0.989152
1.00297 0.999516 0.989265
1.00261 0.999734 0.989631
1.00298 0.999435 0.989255
1.00256 0.999751 0.989777
1.00175 0.999968 0.991094
1.0024 0.999866 0.989974
1.00162 1.00009 0.991231
1.00003 1.00006 0.99426
1.00139 1.00028 0.991497
0.999931 1.00022 0.994742
0.998943 1.00008 0.998667
0.999864 1.00031 0.995247
0.998884 1.00012 0.996992
0.998881 0.999982 0.997099
1.00346 0.998772 0.989027
1.00312 0.999268 0.98906
1.00352 0.998786 0.988847
1.00243 0.999857 0.989714
1.00299 0.999624 0.989075
1.00342 0.999328 0.988464
1.00116 1.00049 0.991454
1.00196 1.00036 0.990434
1.00245 1.00005 0.989842
0.999691 1.00059 0.994481
1.0007 1.00101 0.991985
1.00127 1.00101 0.990831
0.998923 0.999643 0.99876
0.99946 1.00064 0.994865
1.00026 1.00138 0.992593
0.999343 1.00047 0.995246
0.999041 0.999016 0.998896
0.999239 0.998403 0.999008
1.0034 0.999011 0.988877
1.00353 0.998785 0.988862
1.00373 0.998568 0.988709
1.00326 0.999545 0.988674
1.00332 0.999371 0.988689
1.00331 0.999146 0.988988
1.00311 0.999519 0.988913
1.00298 0.999656 0.989092
1.00271 0.999746 0.989589
1.00296 0.999524 0.9893
1.0026 0.999755 0.989743
1.00185 0.999908 0.990759
1.00255 0.999747 0.989779
1.00175 0.999961 0.991093
1.00011 0.999976 0.994185
1.00163 1.00009 0.991223
1.00003 1.00007 0.994254
0.998984 1.00005 0.998657
0.99996 1.00022 0.994297
0.998934 1.00013 0.997817
0.998835 1.00019 0.997028
1.00333 0.999004 0.989127
1.00314 0.999133 0.989244
1.00343 0.998745 0.989047
1.00262 0.999639 0.989709
1.00313 0.999258 0.989087
1.0035 0.998828 0.988882
1.00159 1.00008 0.991032
1.00246 0.99991 0.989854
1.00298 0.999617 0.989149
0.999877 1.00042 0.994249
1.00122 1.00047 0.991402
1.00197 1.00036 0.990425
0.998914 1 0.998674
0.99963 1.00066 0.994497
1.00071 1.00098 0.991878
0.998922 0.999529 0.998797
0.99939 1.00072 0.99488
0.999064 0.998899 0.998924
1.00326 0.999311 0.9889
1.0034 0.999025 0.988883
1.00352 0.998773 0.988872
1.00295 0.999632 0.989213
1.00323 0.999566 0.988705
1.00333 0.999382 0.98865
1.00299 0.999642 0.989094
1.00271 0.999738 0.989593
1.00202 0.999846 0.99049
1.00259 0.999779 0.989855
1.00184 0.999918 0.990866
1.0002 0.999975 0.994013
1.00176 0.999949 0.991092
1.00011 0.999978 0.994183
0.999038 1.00002 0.998643
1.00003 1.00008 0.994249
0.999001 1.00005 0.998653
0.998956 1.0002 0.99692
1.00314 0.999244 0.989268
1.00331 0.998947 0.989147
1.00273 0.999514 0.989653
1.00315 0.999132 0.989237
1.00341 0.998717 0.989068
1.00182 0.999908 0.990998
1.00265 0.999627 0.989699
1.00314 0.99925 0.989114
1.00004 1.00016 0.994145
1.00161 1.00011 0.991101
1.00248 0.999961 0.989994
0.998963 1.00015 0.998633
0.999844 1.00045 0.994261
1.00127 1.00045 0.991349
0.998893 0.999917 0.998701
0.999573 1.00071 0.994513
0.998919 0.999415 0.998832
1.0029 0.999542 0.98941
1.00324 0.999333 0.988927
1.00339 0.99904 0.988889
1.00217 0.999763 0.990257
1.00295 0.999657 0.989212
1.00321 0.999585 0.988737
1.00271 0.999731 0.989597
1.00199 0.999849 0.990531
1.00032 0.999965 0.993774
1.00183 0.999923 0.990973
1.0002 0.999979 0.994008
0.999102 1 0.998606
1.00011 0.999983 0.994181
0.99906 1.00002 0.998633
0.999025 1.00006 0.998649
1.00279 0.999534 0.98955
1.00314 0.999191 0.989249
1.00329 0.99889 0.989168
1.00194 0.999807 0.990872
1.00274 0.999514 0.989647
1.00316 0.999131 0.98923
1.00016 0.999988 0.994076
1.00182 0.999916 0.990998
1.00268 0.999615 0.989688
0.999032 1.00013 0.998616
1.00002 1.00018 0.994156
1.00164 1.00014 0.99117
0.998931 1.0001 0.998643
0.999813 1.00047 0.994275
0.998865 0.999832 0.998731
1.00215 0.999759 0.990504
1.00291 0.999549 0.989294
1.00322 0.999352 0.988953
1.00041 0.999939 0.993617
1.00217 0.999764 0.990275
1.00294 0.999682 0.989211
1.00197 0.999849 0.990572
1.00032 0.99997 0.993767
0.999198 0.999995 0.998539
1.0002 0.999983 0.994001
0.999134 1 0.998583
0.999082 1.00002 0.998621
1.00204 0.999778 0.990696
1.0028 0.99951 0.989507
1.00314 0.999139 0.989231
1.00028 0.999933 0.994859
1.00194 0.999817 0.990868
1.00275 0.999515 0.98964
0.999108 1.00006 0.998596
1.00016 0.999982 0.994082
1.00182 0.999925 0.990998
0.999005 1.00012 0.998621
1 1.00019 0.994167
0.998903 1.00006 0.998656
1.00043 0.999948 0.993583
1.00215 0.999744 0.990419
1.00292 0.99955 0.989178
0.999278 0.999989 0.998485
1.00042 0.999937 0.993612
1.00216 0.999764 0.990294
1.00033 0.999977 0.993759
0.999228 0.999998 0.998517
0.999168 1 0.998559
1.0004 0.99994 0.994663
1.00205 0.999775 0.990697
1.00281 0.999485 0.989465
0.999079 1.00002 0.998643
1.00025 0.99992 0.993975
1.00194 0.999825 0.990863
0.99908 1.00006 0.998604
1.00016 0.999975 0.994088
0.998971 1.00011 0.998626
0.99929 0.999978 0.996501
1.00043 0.999942 0.994092
1.00215 0.999735 0.990335
0.999287 0.99999 0.998475
1.00042 0.999937 0.993611
0.999256 1 0.998497
0.999147 0.999961 0.996692
1.00036 0.999943 0.994241
1.00205 0.999772 0.990698
0.999114 0.999996 0.997677
1.00025 0.999917 0.993963
0.999057 1.00006 0.998611
0.999295 0.99999 0.998469
1.00042 0.999931 0.993624
0.999298 0.999988 0.998468
0.9992 0.999986 0.997583
1.00034 0.999938 0.993778
0.999131 1.00001 0.998585
0.999271 0.999988 0.998488
0.999206 0.999996 0.998538

TENSORS stress float
0.00117528 3.09751e-05 3.58312e-05
3.09751e-05 0.000234637 -6.0273e-06
3.58312e-05 -6.0273e-06 0.000217242
0.00286776 -6.22565e-05 3.28571e-05
-6.22565e-05 0.00107959 3.37428e-06
3.28571e-05 3.37428e-06 0.00108051
0.0011775 3.78725e-05 1.51265e-05
3.78725e-05 0.000239485 -2.05689e-06
1.51265e-05 -2.05689e-06 0.000221185
0.00135097 1.13782e-05 4.95764e-05
1.13782e-05 0.000330654 -4.63576e-06
4.95764e-05 -4.63576e-06 0.000309618
0.0012202 2.3719e-05 4.10561e-05
2.3719e-05 0.000266613 -5.67513e-06
4.10561e-05 -5.67513e-06 0.000247037
0.00114023 3.43425e-05 3.12773e-05
3.43425e-05 0.000203492 -6.34003e-06
3.12773e-05 -6.34003e-06 0.000190138
0.00112479 8.45676e-06 7.65095e-06
8.45676e-06 0.000172836 -2.68123e-06
7.65095e-06 -2.68123e-06 0.00013538
0.00287002 -6.33846e-05 5.05884e-07
-6.33846e-05 0.00107769 -1.52479e-07
5.05884e-07 -1.52479e-07 0.00107921
0.00329804 -9.38952e-05 1.04104e-05
-9.38952e-05 0.00134302 1.24976e-06
1.04104e-05 1.24976e-06 0.00133154
0.00288351 -7.56621e-05 1.20626e-05
-7.56621e-05 0.00110486 1.30634e-06
1.20626e-05 1.30634e-06 0.00110138
0.00109185 -3.36176e-05 2.61035e-05
-3.36176e-05 0.000153908 3.9179e-06
2.61035e-05 3.9179e-06 0.000150303
0.00077898 -1.26311e-05 5.8665e-06
-1.26311e-05 -8.63425e-06 3.32673e-06
5.8665e-06 3.32673e-06 -4.03688e-05
0.00162696 -8.44471e-06 6.11297e-05
-8.44471e-06 0.000451025 8.18131e-07
6.11297e-05 8.18131e-07 0.000429887
0.00134862 -3.27193e-05 8.20003e-06
-3.27193e-05 0.000334541 1.37604e-06
8.20003e-06 1.37604e-06 0.000311397
0.00117724 4.71679e-05 -7.15373e-06
4.71679e-05 0.000243307 1.86157e-06
-7.15373e-06 1.86157e-06 0.000223844
0.00135198 3.25144e-05 2.2629e-05
3.25144e-05 0.000337028 -1.37657e-06
2.2629e-05 -1.37657e-06 0.000313748
0.00112695 3.91737e-05 1.27291e-05
3.91737e-05 0.000199076 -2.25588e-06
1.27291e-05 -2.25588e-06 0.000185363
0.00122881 3.51251e-05 1.76335e-05
3.51251e-05 0.000275746 -1.79475e-06
1.76335e-05 -1.79475e-06 0.000254659
0.00117995 7.64679e-06 -5.6953e-06
7.64679e-06 0.000198684 4.33084e-07
-5.6953e-06 4.33084e-07 0.000161776
0.00425695 4.5363e-05 6.02756e-05
4.5363e-05 0.00180107 -5.6457e-07
6.02756e-05 -5.6457e-07 0.00179339
0.00143499 1.09726e-05 5.2824e-05
1.09726e-05 0.000366843 -3.62319e-06
5.2824e-05 -3.62319e-06 0.000346215
0.00126896 1.52852e-05 4.55699e-05
1.52852e-05 0.000293956 -5.32293e-06
4.55699e-05 -5.32293e-06 0.00027333
0.00132244 7.18824e-06 8.86579e-06
7.18824e-06 0.000241503 -2.99993e-06
8.86579e-06 -2.99993e-06 0.000199143
0.00118342 5.51341e-06 7.96268e-06
5.51341e-06 0.000196395 -2.84841e-06
7.96268e-06 -2.84841e-06 0.000156873
0.00114312 3.54688e-05 2.84699e-05
3.54688e-05 0.0001888 -6.39902e-06
2.84699e-05 -6.39902e-06 0.000180834
0.00106337 1.54338e-05 6.88275e-06
1.54338e-05 0.000146293 -2.66832e-06
6.88275e-06 -2.66832e-06 0.000112315
0.00143827 -4.30894e-05 2.58684e-06
-4.30894e-05 0.00026236 -1.08206e-06
2.58684e-06 -1.08206e-06 0.000200961
0.00286954 -6.43121e-05 -3.04618e-05
-6.43121e-05 0.00107413 -3.38747e-06
-3.04618e-05 -3.38747e-06 0.00107631
0.00224507 -5.80674e-05 -1.62715e-05
-5.80674e-05 0.000800635 -5.09529e-07
-1.62715e-05 -5.09529e-07 0.000784892
0.00204149 -5.52712e-05 -1.27015e-05
-5.52712e-05 0.000671348 -8.23539e-07
-1.27015e-05 -8.23539e-07 0.000662907
0.00273867 -5.87964e-05 3.57275e-07
-5.87964e-05 0.000997665 -8.95461e-08
3.57275e-07 -8.95461e-08 0.00100268
0.000724623 -1.61892e-05 4.34404e-08
-1.61892e-05 -3.29352e-05 -5.82524e-08
4.34404e-08 -5.82524e-08 -6.51408e-05
0.0015134 -1.41031e-05 4.43337e-05
-1.41031e-05 0.000422353 3.08342e-06
4.43337e-05 3.08342e-06 0.000400699
0.00133872 -2.78334e-05 3.6304e-05
-2.78334e-05 0.000325079 3.33684e-06
3.6304e-05 3.33684e-06 0.00030777
0.00189226 1.49166e-05 2.27236e-05
1.49166e-05 0.00055359 2.97067e-06
2.27236e-05 2.97067e-06 0.000518087
0.00262077 -5.98157e-05 1.08032e-05
-5.98157e-05 0.000926761 1.4861e-06
1.08032e-05 1.4861e-06 0.000934485
0.00170819 -1.06537e-05 1.74733e-05
-1.06537e-05 0.000468567 2.66361e-06
1.74733e-05 2.66361e-06 0.00043904
0.000759749 -2.71838e-05 6.53108e-06
-2.71838e-05 -2.09419e-05 5.19377e-06
6.53108e-06 5.19377e-06 -4.91253e-05
0.000904111 2.56682e-05 2.95961e-06
2.56682e-05 2.97657e-05 1.09387e-06
2.95961e-06 1.09387e-06 -3.17191e-05
0.002578 -4.48278e-05 2.62944e-05
-4.48278e-05 0.000887891 3.89545e-06
2.62944e-05 3.89545e-06 0.000900151
0.00439198 -4.50809e-05 1.56592e-06
-4.50809e-05 0.00186607 -2.23262e-07
1.56592e-06 -2.23262e-07 0.00185817
0.00267717 -4.5512e-05 -2.28834e-05
-4.5512e-05 0.00100957 -1.4732e-07
-2.28834e-05 -1.4732e-07 0.000993469
0.0045875 -3.37645e-05 6.71121e-05
-3.37645e-05 0.00195756 1.44216e-07
6.71121e-05 1.44216e-07 0.00194986
0.00137636 -2.63433e-05 9.08114e-06
-2.63433e-05 0.000339808 1.01556e-06
9.08114e-06 1.01556e-06 0.000317091
0.000780867 -1.06964e-05 1.18433e-05
-1.06964e-05 -7.43577e-05 2.1795e-06
1.18433e-05 2.1795e-06 -0.000120301
0.00376806 -0.000107067 8.20724e-06
-0.000107067 0.00158211 1.05294e-06
8.20724e-06 1.05294e-06 0.00156784
0.00211264 -1.32789e-05 3.07085e-05
-1.32789e-05 0.000629425 2.89508e-06
3.07085e-05 2.89508e-06 0.000594063
0.00137326 4.88274e-05 -6.19146e-06
4.88274e-05 0.000353399 1.94005e-06
-6.19146e-06 1.94005e-06 0.000328148
0.00124587 4.97331e-05 -6.6028e-06
4.97331e-05 0.000289639 1.97085e-06
-6.6028e-06 1.97085e-06 0.000266689
0.0010989 4.49014e-05 -7.08147e-06
4.49014e-05 0.000187278 1.74578e-06
-7.08147e-06 1.74578e-06 0.000173115
0.0012373 5.30042e-06 -1.97569e-05
5.30042e-06 0.000225573 3.54786e-06
-1.97569e-05 3.54786e-06 0.000189325
0.00288596 3.94644e-05 -2.37998e-05
3.94644e-05 0.00110069 -8.44894e-07
-2.37998e-05 -8.44894e-07 0.00108509
0.00140241 2.8508e-05 2.33307e-05
2.8508e-05 0.000354954 -1.08123e-06
2.33307e-05 -1.08123e-06 0.000332579
0.00109666 3.89899e-05 1.11428e-05
3.89899e-05 0.000166469 -2.29923e-06
1.11428e-05 -2.29923e-06 0.000158499
0.00128427 3.26113e-05 2.00968e-05
3.26113e-05 0.000307141 -1.58267e-06
2.00968e-05 -1.58267e-06 0.000284509
0.00138198 -9.65013e-07 -8.66465e-06
-9.65013e-07 0.000268546 1.03774e-07
-8.66465e-06 1.03774e-07 0.000227543
0.00111738 1.543e-05 -4.72146e-06
1.543e-05 0.000172069 4.70087e-07
-4.72146e-06 4.70087e-07 0.000138499
0.00124201 2.84643e-06 -6.99974e-06
2.84643e-06 0.000223055 3.65852e-07
-6.99974e-06 3.65852e-07 0.000184366
0.00151026 -4.62265e-05 -1.46101e-06
-4.62265e-05 0.000296283 5.59533e-07
-1.46101e-06 5.59533e-07 0.000234336
0.00440785 4.81915e-05 6.0591e-05
4.81915e-05 0.00187251 4.67812e-08
6.0591e-05 4.67812e-08 0.00186447
0.00147397 1.33856e-05 5.52439e-05
1.33856e-05 0.000382944 -2.69372e-06
5.52439e-05 -2.69372e-06 0.000362428
0.00208753 2.55264e-05 9.95187e-06
2.55264e-05 0.000600541 -1.12024e-06
9.95187e-06 -1.12024e-06 0.000562538
0.00138524 7.38017e-06 1.05166e-05
7.38017e-06 0.000259534 -2.36175e-06
1.05166e-05 -2.36175e-06 0.000217944
0.00124087 4.80258e-06 8.27576e-06
4.80258e-06 0.000215571 -3.11059e-06
8.27576e-06 -3.11059e-06 0.000174381
0.00174883 -4.54693e-05 3.75219e-06
-4.54693e-05 0.000333097 -1.67102e-06
3.75219e-06 -1.67102e-06 0.000266337
0.00120458 -4.0947e-05 3.42127e-06
-4.0947e-05 0.000117435 -1.65025e-06
3.42127e-06 -1.65025e-06 5.37713e-05
0.00120855 3.49355e-05 2.75943e-05
3.49355e-05 0.000204255 -6.28148e-06
2.75943e-05 -6.28148e-06 0.000201634
0.00103591 3.9153e-05 4.80616e-06
3.9153e-05 0.000133632 -2.78341e-06
4.80616e-06 -2.78341e-06 0.000103928
0.00131569 -3.23086e-05 2.2037e-06
-3.23086e-05 0.000227777 -1.03352e-06
2.2037e-06 -1.03352e-06 0.000168156
0.00112689 -5.84649e-05 2.0769e-06
-5.84649e-05 5.51401e-05 -9.30135e-07
2.0769e-06 -9.30135e-07 -2.09284e-05
0.00328239 -7.73663e-05 -3.6381e-05
-7.73663e-05 0.00132821 -2.65486e-06
-3.6381e-05 -2.65486e-06 0.00131961
0.00277353 -5.95643e-05 -2.88816e-05
-5.95643e-05 0.00101192 -3.4782e-06
-2.88816e-05 -3.4782e-06 0.00101772
0.00296446 -6.83924e-05 -3.24032e-05
-6.83924e-05 0.00113913 -3.17832e-06
-3.24032e-05 -3.17832e-06 0.00113742
0.000678992 -2.00244e-05 -4.5907e-06
-2.00244e-05 -5.30158e-05 -3.83176e-06
-4.5907e-06 -3.83176e-06 -8.54059e-05
0.00371049 -7.41492e-05 8.63547e-07
-7.41492e-05 0.00154787 -1.75972e-07
8.63547e-07 -1.75972e-07 0.00153723
0.00317768 -7.21606e-05 9.87591e-07
-7.21606e-05 0.00126787 -1.51441e-07
9.87591e-07 -1.51441e-07 0.00126139
0.000689724 2.43942e-05 -7.86636e-08
2.43942e-05 -5.52909e-05 -1.57838e-07
-7.86636e-08 -1.57838e-07 -9.7697e-05
0.00186594 -4.56492e-05 -1.07704e-05
-4.56492e-05 0.000538523 -9.9824e-07
-1.07704e-05 -9.9824e-07 0.000542511
0.000727339 -8.79819e-07 -8.13142e-08
-8.79819e-07 -2.93704e-05 -5.92447e-08
-8.13142e-08 -5.92447e-08 -6.49077e-05
0.00115404 -3.84323e-05 5.85841e-06
-3.84323e-05 0.000182119 5.17471e-07
5.85841e-06 5.17471e-07 0.00015658
0.000884767 2.21866e-05 1.02219e-07
2.21866e-05 2.03179e-05 -2.36343e-07
1.02219e-07 -2.36343e-07 -4.12649e-05
0.00261718 -4.94096e-05 2.74167e-05
-4.94096e-05 0.000915643 3.73963e-06
2.74167e-05 3.73963e-06 0.000925998
0.000798043 -3.15521e-05 3.91719e-06
-3.15521e-05 -2.98979e-05 3.83974e-06
3.91719e-06 3.83974e-06 -4.60456e-05
0.000778775 3.27098e-05 1.01956e-05
3.27098e-05 -2.68028e-05 4.78431e-06
1.01956e-05 4.78431e-06 -7.06339e-05
0.000767312 1.52066e-05 8.51255e-06
1.52066e-05 -1.29723e-05 4.85929e-06
8.51255e-06 4.85929e-06 -5.28935e-05
0.00101401 4.39238e-05 3.58573e-06
4.39238e-05 2.32746e-05 1.64753e-06
3.58573e-06 1.64753e-06 -4.26332e-05
0.00157376 -4.8785e-05 1.29319e-05
-4.8785e-05 0.000388655 3.39489e-06
1.29319e-05 3.39489e-06 0.000369475
0.000939255 3.6369e-05 2.91042e-06
3.6369e-05 3.56932e-05 1.21273e-06
2.91042e-06 1.21273e-06 -2.57899e-05
0.000902803 1.42453e-05 2.71778e-06
1.42453e-05 3.45662e-05 1.68727e-06
2.71778e-06 1.68727e-06 -2.58827e-05
0.000933934 5.26019e-05 1.54019e-06
5.26019e-05 1.71909e-05 1.66668e-08
1.54019e-06 1.66668e-08 -5.62219e-05
0.00251058 -4.02344e-05 2.4622e-05
-4.02344e-05 0.000846653 4.00889e-06
2.4622e-05 4.00889e-06 0.000860815
0.0025868 -4.49457e-05 3.82364e-07
-4.49457e-05 0.000891441 -8.75266e-08
3.82364e-07 -8.75266e-08 0.000903898
0.00392706 -5.53204e-05 -4.9969e-05
-5.53204e-05 0.00164864 -1.60942e-06
-4.9969e-05 -1.60942e-06 0.00163976
0.00428071 -4.36606e-05 -5.80422e-05
-4.36606e-05 0.00181318 -6.1127e-07
-5.80422e-05 -6.1127e-07 0.0018053
0.00453907 -2.38645e-05 2.78288e-06
-2.38645e-05 0.00193432 -3.01302e-07
2.78288e-06 -3.01302e-07 0.00192687
0.00278241 -3.85452e-05 -2.40986e-05
-3.85452e-05 0.00105478 -9.91247e-08
-2.40986e-05 -9.91247e-08 0.00103909
0.0014751 -1.91213e-06 1.35076e-05
-1.91213e-06 0.000281757 -4.66099e-08
1.35076e-05 -4.66099e-08 0.000240479
0.00251553 -5.3579e-05 -2.12976e-05
-5.3579e-05 0.000936138 -2.11609e-07
-2.12976e-05 -2.11609e-07 0.000919055
0.00135421 7.17857e-06 1.1133e-05
7.17857e-06 0.000245637 2.0754e-08
1.1133e-05 2.0754e-08 0.000206591
0.00458383 3.41185e-05 6.18075e-05
3.41185e-05 0.0019551 7.58909e-07
6.18075e-05 7.58909e-07 0.00194734
0.000764176 -1.5415e-06 9.98062e-06
-1.5415e-06 -9.44134e-05 6.90888e-07
9.98062e-06 6.90888e-07 -0.000141602
0.00214969 -3.09729e-05 3.29272e-05
-3.09729e-05 0.000638257 2.22275e-06
3.29272e-05 2.22275e-06 0.000601767
0.00120429 4.47967e-06 5.82928e-06
4.47967e-06 1.08145e-06 1.54106e-06
5.82928e-06 1.54106e-06 -7.22203e-05
0.00201605 1.8861e-05 2.72986e-05
1.8861e-05 0.000593862 2.74341e-06
2.72986e-05 2.74341e-06 0.000557897
0.00115872 2.74807e-05 5.26373e-06
2.74807e-05 1.5263e-05 1.64914e-06
5.26373e-06 1.64914e-06 -5.56776e-05
0.00158049 1.61637e-05 -5.86998e-05
1.61637e-05 0.000429832 6.22678e-07
-5.86998e-05 6.22678e-07 0.000409003
0.00137886 3.33477e-05 -8.69865e-06
3.33477e-05 0.000346613 1.52117e-06
-8.69865e-06 1.52117e-06 0.000323255
0.00102849 4.25615e-05 -6.77614e-06
4.25615e-05 0.000133277 1.64484e-06
-6.77614e-06 1.64484e-06 0.000125317
0.0013166 5.28039e-05 -5.70317e-06
5.28039e-05 0.000329767 2.06105e-06
-5.70317e-06 2.06105e-06 0.000304727
0.00141963 -6.15912e-06 -2.69697e-05
-6.15912e-06 0.000284517 3.23997e-06
-2.69697e-05 3.23997e-06 0.000244782
0.00128894 -1.5401e-06 -2.22671e-05
-1.5401e-06 0.000243546 3.48569e-06
-2.22671e-05 3.48569e-06 0.000205877
0.00118696 1.45871e-05 -1.71198e-05
1.45871e-05 0.000205602 3.58517e-06
-1.71198e-05 3.58517e-06 0.000172487
0.00158604 -4.9192e-05 -5.57354e-06
-4.9192e-05 0.000332014 2.23091e-06
-5.57354e-06 2.23091e-06 0.000269525
0.00447966 5.59161e-05 -2.64028e-06
5.59161e-05 0.00190712 -3.08153e-07
-2.64028e-06 -3.08153e-07 0.00189879
0.0014206 2.51607e-05 2.37496e-05
2.51607e-05 0.000359127 -7.43826e-07
2.37496e-05 -7.43826e-07 0.000337466
0.00111675 1.36914e-05 -1.46336e-05
1.36914e-05 0.000102252 2.08583e-07
-1.46336e-05 2.08583e-07 5.92451e-05
0.00143138 -1.65807e-07 -8.56254e-06
-1.65807e-07 0.000280191 7.40788e-08
-8.56254e-06 7.40788e-08 0.000239763
0.00195099 4.67456e-05 1.97313e-05
4.67456e-05 0.000587786 -1.88821e-06
1.97313e-05 -1.88821e-06 0.000589455
0.00130706 3.20715e-05 -3.93682e-06
3.20715e-05 0.000268388 4.4436e-07
-3.93682e-06 4.4436e-07 0.000240786
0.00130703 -1.20975e-07 -8.12456e-06
-1.20975e-07 0.000245794 2.27104e-07
-8.12456e-06 2.27104e-07 0.000205678
0.00158714 -4.21836e-05 -2.39624e-06
-4.21836e-05 0.00025019 5.06621e-07
-2.39624e-06 5.06621e-07 0.000182577
0.00143214 -3.76125e-05 -1.19818e-06
-3.76125e-05 0.000283511 6.39571e-07
-1.19818e-06 6.39571e-07 0.000223166
0.00139496 -4.53471e-05 -6.39886e-07
-4.53471e-05 0.00021287 1.4261e-07
-6.39886e-07 1.4261e-07 0.000149699
0.00112214 -5.79907e-05 -1.93592e-09
-5.79907e-05 5.30769e-05 -3.85159e-08
-1.93592e-09 -3.85159e-08 -2.28848e-05
0.000746219 4.06608e-06 9.79751e-06
4.06608e-06 -9.7334e-05 -1.49362e-06
9.79751e-06 -1.49362e-06 -0.000144029
0.00140653 1.19921e-05 1.12741e-05
1.19921e-05 0.000263127 -1.78294e-06
1.12741e-05 -1.78294e-06 0.000222387
0.00155122 9.21628e-06 5.2893e-06
9.21628e-06 0.000183795 -9.59958e-07
5.2893e-06 -9.59958e-07 0.000114088
0.00145152 -3.05629e-05 4.99252e-06
-3.05629e-05 0.000160505 -1.41947e-06
4.99252e-06 -1.41947e-06 9.23383e-05
0.00133039 -4.36755e-05 3.92834e-06
-4.36755e-05 0.000150862 -1.98538e-06
3.92834e-06 -1.98538e-06 8.47784e-05
0.00167593 -5.45721e-05 1.76746e-06
-5.45721e-05 0.000231967 -6.33121e-07
1.76746e-06 -6.33121e-07 0.000151681
0.00275711 5.47635e-05 2.83099e-05
5.47635e-05 0.000990351 -3.54494e-06
2.83099e-05 -3.54494e-06 0.000999049
0.00114121 -5.52823e-05 1.93219e-06
-5.52823e-05 3.55744e-05 -7.74579e-07
1.93219e-06 -7.74579e-07 -4.00922e-05
0.000724569 4.23671e-05 3.63425e-06
4.23671e-05 -3.95951e-05 -3.67611e-06
3.63425e-06 -3.67611e-06 -6.64571e-05
0.00077368 -1.86116e-05 2.29152e-06
-1.86116e-05 -2.99853e-05 -1.46949e-06
2.29152e-06 -1.46949e-06 -8.99437e-05
0.00118324 -6.23781e-05 2.02849e-06
-6.23781e-05 0.000113902 -1.35277e-06
2.02849e-06 -1.35277e-06 3.68833e-05
0.00122119 -6.64596e-05 1.40333e-06
-6.64596e-05 7.15121e-05 -4.34984e-07
1.40333e-06 -4.34984e-07 -9.71983e-06
0.000728782 3.31534e-05 4.22897e-06
3.31534e-05 -5.8756e-05 -3.90322e-06
4.22897e-06 -3.90322e-06 -7.77522e-05
0.000910725 3.98878e-06 2.20353e-06
3.98878e-06 1.74699e-05 -2.56806e-06
2.20353e-06 -2.56806e-06 -3.12931e-05
0.00352566 -7.74943e-05 -4.0498e-05
-7.74943e-05 0.0014552 -2.44721e-06
-4.0498e-05 -2.44721e-06 0.00144484
0.00307534 -7.31793e-05 -3.34122e-05
-7.31793e-05 0.00121231 -2.90894e-06
-3.34122e-05 -2.90894e-06 0.00120681
0.000659642 2.02829e-05 -6.45412e-06
2.02829e-05 -6.66664e-05 -3.84487e-06
-6.45412e-06 -3.84487e-06 -0.000109337
0.00271333 -5.45593e-05 -2.81633e-05
-5.45593e-05 0.000970697 -3.58305e-06
-2.81633e-05 -3.58305e-06 0.000979287
0.000658592 -4.0838e-05 -3.559e-06
-4.0838e-05 -6.91541e-05 -3.98884e-06
-3.559e-06 -3.98884e-06 -9.74303e-05
0.000659434 -1.68888e-06 -5.97094e-06
-1.68888e-06 -5.84515e-05 -3.45517e-06
-5.97094e-06 -3.45517e-06 -9.46416e-05
0.000858747 2.20836e-05 -2.68354e-06
2.20836e-05 6.95272e-06 -1.42555e-06
-2.68354e-06 -1.42555e-06 -5.44128e-05
0.00264187 -4.95754e-05 3.36325e-07
-4.95754e-05 0.000926983 -9.76548e-08
3.36325e-07 -9.76548e-08 0.000937514
0.000781609 -3.02938e-05 1.51376e-07
-3.02938e-05 -3.91443e-05 -4.14597e-09
1.51376e-07 -4.14597e-09 -5.49353e-05
0.00128504 2.56947e-05 9.47545e-06
2.56947e-05 0.00023497 1.61588e-08
9.47545e-06 1.61588e-08 0.000195073
0.00120127 5.38595e-06 7.10515e-06
5.38595e-06 0.000213199 2.9803e-07
7.10515e-06 2.9803e-07 0.00017678
0.000994992 4.40317e-05 1.69076e-07
4.40317e-05 1.38141e-05 -4.08368e-09
1.69076e-07 -4.08368e-09 -5.19481e-05
0.000765955 -3.95206e-05 -3.06513e-08
-3.95206e-05 -2.66514e-05 1.12385e-08
-3.06513e-08 1.12385e-08 -4.9576e-05
0.000908649 3.49002e-05 -6.26199e-08
3.49002e-05 2.03946e-05 9.0797e-08
-6.26199e-08 9.0797e-08 -4.09618e-05
0.000873233 1.17716e-05 8.1958e-09
1.17716e-05 2.09151e-05 -1.89377e-07
8.1958e-09 -1.89377e-07 -3.95397e-05
0.000898883 5.167e-05 -5.15075e-08
5.167e-05 -1.28815e-06 -1.45087e-07
-5.15075e-08 -1.45087e-07 -7.48424e-05
0.000781517 -3.59819e-05 3.96959e-06
-3.59819e-05 -2.86436e-05 3.76127e-06
3.96959e-06 3.76127e-06 -4.81038e-05
0.000818001 -2.723e-05 3.65668e-06
-2.723e-05 -2.75759e-05 3.83139e-06
3.65668e-06 3.83139e-06 -4.03793e-05
0.000884166 3.97115e-07 2.80075e-06
3.97115e-07 3.47486e-06 2.05482e-06
2.80075e-06 2.05482e-06 -4.48655e-05
0.0010572 4.05957e-05 4.06527e-06
4.05957e-05 1.29174e-05 1.72706e-06
4.06527e-06 1.72706e-06 -5.50567e-05
0.000979165 4.2846e-05 3.15557e-06
4.2846e-05 3.65051e-05 1.55303e-06
3.15557e-06 1.55303e-06 -2.6912e-05
0.0011762 5.96672e-05 2.0128e-06
5.96672e-05 5.672e-05 1.0851e-06
2.0128e-06 1.0851e-06 -2.16611e-05
0.000904842 8.76217e-06 2.70612e-06
8.76217e-06 2.85518e-05 1.8778e-06
2.70612e-06 1.8778e-06 -2.77775e-05
0.000950914 5.54267e-05 1.23272e-06
5.54267e-05 6.16472e-06 3.57207e-07
1.23272e-06 3.57207e-07 -6.6269e-05
0.00104428 5.10724e-05 1.60067e-06
5.10724e-05 8.87371e-05 3.99972e-07
1.60067e-06 3.99972e-07 1.38682e-05
0.00107417 6.51938e-05 -9.71569e-08
6.51938e-05 8.0803e-05 -5.43895e-07
-9.71569e-08 -5.43895e-07 1.10306e-06
0.00243252 -3.57946e-05 2.25572e-05
-3.57946e-05 0.000800378 4.04812e-06
2.25572e-05 4.04812e-06 0.000816441
0.00251082 -4.03839e-05 4.36377e-07
-4.03839e-05 0.000845933 -7.54756e-08
4.36377e-07 -7.54756e-08 0.000860319
0.00259458 -4.51126e-05 -2.53629e-05
-4.51126e-05 0.000894447 -3.84729e-06
-2.53629e-05 -3.84729e-06 0.000907103
0.00076328 2.88777e-05 3.74339e-06
2.88777e-05 -4.89785e-05 -3.87369e-06
3.74339e-06 -3.87369e-06 -6.43271e-05
0.00269931 4.99446e-05 2.70117e-05
4.99446e-05 0.000953686 -3.69112e-06
2.70117e-05 -3.69112e-06 0.000964387
0.0037425 -6.81193e-05 -4.5e-05
-6.81193e-05 0.00156194 -2.08838e-06
-4.5e-05 -2.08838e-06 0.00155189
0.00409444 -4.84038e-05 -5.40619e-05
-4.84038e-05 0.00172634 -1.10992e-06
-5.40619e-05 -1.10992e-06 0.00171815
0.000688395 1.86877e-05 -8.42513e-06
1.86877e-05 -9.40694e-05 -3.03551e-06
-8.42513e-06 -3.03551e-06 -0.000136513
0.000728658 1.20852e-05 -9.38348e-06
1.20852e-05 -9.78823e-05 -1.91107e-06
-9.38348e-06 -1.91107e-06 -0.000142934
0.00448398 -2.63376e-05 -6.1093e-05
-2.63376e-05 0.00190798 -1.21558e-07
-6.1093e-05 -1.21558e-07 0.00190056
0.00459958 1.76337e-05 -1.04634e-06
1.76337e-05 0.00196286 3.12073e-07
-1.04634e-06 3.12073e-07 0.00195525
0.000755892 3.99018e-08 7.08514e-08
3.99018e-08 -9.80154e-05 -2.20448e-07
7.08514e-08 -2.20448e-07 -0.000145123
0.0014167 -5.64722e-06 1.2309e-05
-5.64722e-06 0.000266152 4.72771e-08
1.2309e-05 4.72771e-08 0.000226554
0.00120646 7.68908e-06 1.05064e-07
7.68908e-06 2.44035e-06 9.12523e-09
1.05064e-07 9.12523e-09 -7.08593e-05
0.00067555 2.4811e-05 -6.7049e-08
2.4811e-05 -8.76902e-05 -8.80136e-08
-6.7049e-08 -8.80136e-08 -0.000130613
0.00116213 2.8366e-05 9.85139e-08
2.8366e-05 1.77089e-05 -1.33959e-07
9.85139e-08 -1.33959e-07 -5.33058e-05
0.00074301 -2.20883e-06 1.00988e-05
-2.20883e-06 -0.000108124 -5.66075e-07
1.00988e-05 -5.66075e-07 -0.000156077
0.00124051 1.12927e-06 6.04252e-06
1.12927e-06 9.69377e-07 8.69023e-07
6.04252e-06 8.69023e-07 -7.48067e-05
0.00118498 1.62094e-05 5.5864e-06
1.62094e-05 9.87407e-06 1.5474e-06
5.5864e-06 1.5474e-06 -6.17282e-05
0.00141625 5.11115e-06 2.88144e-06
5.11115e-06 4.25107e-05 1.10485e-06
2.88144e-06 1.10485e-06 -4.22919e-05
0.00111142 3.47336e-05 4.64906e-06
3.47336e-05 1.34031e-05 1.81814e-06
4.64906e-06 1.81814e-06 -5.63593e-05
0.00135305 3.15413e-05 2.45395e-06
3.15413e-05 5.1117e-05 6.51671e-07
2.45395e-06 6.51671e-07 -3.02991e-05
0.00454463 5.06925e-05 -6.82108e-05
5.06925e-05 0.00193763 -5.07948e-07
-6.82108e-05 -5.07948e-07 0.00192962
0.00135511 2.65805e-05 -9.41779e-06
2.65805e-05 0.000328411 1.06276e-06
-9.41779e-06 1.06276e-06 0.00030616
0.000133587 3.32625e-06 -1.11534e-05
3.32625e-06 -0.000401095 2.27075e-06
-1.11534e-05 2.27075e-06 -0.00045011
0.0014706 -1.71755e-06 -2.87536e-05
-1.71755e-06 0.000297874 2.57667e-06
-2.87536e-05 2.57667e-06 0.000258202
0.00267491 6.4685e-05 -1.10831e-05
6.4685e-05 0.00096287 1.40754e-06
-1.10831e-05 1.40754e-06 0.000968048
0.00159576 3.72227e-05 -1.52314e-05
3.72227e-05 0.000412976 3.59369e-06
-1.52314e-05 3.59369e-06 0.000386904
0.00134987 -6.18504e-06 -2.45894e-05
-6.18504e-06 0.000263689 3.47379e-06
-2.45894e-05 3.47379e-06 0.000224904
0.00143249 -3.9502e-05 -8.18273e-06
-3.9502e-05 0.000170927 2.64715e-06
-8.18273e-06 2.64715e-06 0.000102422
0.00159907 -4.96825e-05 -5.00924e-06
-4.96825e-05 0.000315247 1.89949e-06
-5.00924e-06 1.89949e-06 0.000252545
0.00154309 -4.25484e-05 -5.07759e-06
-4.25484e-05 0.000336561 2.37383e-06
-5.07759e-06 2.37383e-06 0.000275479
0.00111844 -5.75943e-05 -1.7707e-06
-5.75943e-05 5.1517e-05 7.66423e-07
-1.7707e-06 7.66423e-07 -2.43414e-05
0.000760198 5.17609e-06 -1.79213e-07
5.17609e-06 -9.11814e-05 -1.93784e-07
-1.79213e-07 -1.93784e-07 -0.000137957
0.00144958 8.13812e-06 -8.93075e-06
8.13812e-06 0.000282593 5.69285e-08
-8.93075e-06 5.69285e-08 0.000242713
0.00122757 7.46701e-06 -1.53633e-06
7.46701e-06 1.95568e-05 8.95146e-08
-1.53633e-06 8.95146e-08 -5.20172e-05
0.0016298 -3.21234e-05 -1.35832e-06
-3.21234e-05 0.000250642 1.11817e-07
-1.35832e-06 1.11817e-07 0.000183054
0.00271472 5.44266e-05 -2.91458e-07
5.44266e-05 0.000970532 -9.99852e-08
-2.91458e-07 -9.99852e-08 0.00097899
0.00115818 4.70287e-05 1.16907e-06
4.70287e-05 0.00018237 8.09987e-08
1.16907e-06 8.09987e-08 0.000157512
0.00111565 -1.89523e-05 1.17564e-07
-1.89523e-05 0.000140859 -3.84667e-08
1.17564e-07 -3.84667e-08 8.17833e-05
0.00133174 -4.34679e-05 -9.95553e-07
-4.34679e-05 0.000151965 1.13968e-07
-9.95553e-07 1.13968e-07 8.60091e-05
0.00140724 -5.0393e-05 -1.0113e-06
-5.0393e-05 9.55055e-05 4.31397e-07
-1.0113e-06 4.31397e-07 1.42617e-05
0.0010182 -5.76827e-05 -2.1088e-07
-5.76827e-05 3.33235e-05 -1.40428e-07
-2.1088e-07 -1.40428e-07 -4.38144e-05
0.00132375 -5.81935e-05 7.84489e-08
-5.81935e-05 0.000125835 1.06701e-07
7.84489e-08 1.06701e-07 5.0627e-05
0.00121074 -6.59856e-05 1.20586e-07
-6.59856e-05 6.68011e-05 1.88524e-08
1.20586e-07 1.88524e-08 -1.42777e-05
0.000750827 3.4883e-05 -1.31507e-07
3.4883e-05 -4.59732e-05 -1.80986e-08
-1.31507e-07 -1.80986e-08 -6.54314e-05
0.000894003 2.38505e-06 -3.05766e-07
2.38505e-06 8.6623e-06 -1.72966e-08
-3.05766e-07 -1.72966e-08 -4.00538e-05
0.00122929 4.04973e-06 5.86107e-06
4.04973e-06 6.27725e-07 -9.73817e-07
5.86107e-06 -9.73817e-07 -7.39014e-05
0.00148505 -6.16294e-06 5.13178e-06
-6.16294e-06 0.00016455 -1.11863e-06
5.13178e-06 -1.11863e-06 9.67701e-05
0.00175485 4.37488e-06 2.31952e-06
4.37488e-06 0.000221162 -2.29787e-07
2.31952e-06 -2.29787e-07 0.000139779
0.00118135 -3.41385e-05 3.46715e-06
-3.41385e-05 -4.56195e-05 -8.18919e-07
3.46715e-06 -8.18919e-07 -0.000127938
0.00132562 -5.59686e-05 1.65146e-06
-5.59686e-05 9.87825e-05 -9.68284e-07
1.65146e-06 -9.68284e-07 2.18098e-05
0.00164209 -5.44721e-05 8.17354e-07
-5.44721e-05 0.000176907 -2.99935e-07
8.17354e-07 -2.99935e-07 9.36929e-05
0.000685154 3.78815e-05 4.01673e-06
3.78815e-05 -7.00811e-05 -3.79537e-06
4.01673e-06 -3.79537e-06 -9.28813e-05
0.00126498 -6.23952e-05 9.65411e-07
-6.23952e-05 6.11891e-05 -4.54948e-07
9.65411e-07 -4.54948e-07 -1.83422e-05
0.000822948 -6.10483e-06 2.37006e-06
-6.10483e-06 -5.1034e-06 -1.40734e-06
2.37006e-06 -1.40734e-06 -6.36044e-05
0.000748307 -4.79355e-05 1.7498e-06
-4.79355e-05 -7.3268e-05 -1.54573e-06
1.7498e-06 -1.54573e-06 -0.000148158
0.00155664 -8.05842e-05 9.91459e-07
-8.05842e-05 0.000276376 -7.95252e-07
9.91459e-07 -7.95252e-07 0.000192034
0.0013861 -7.26179e-05 6.00993e-07
-7.26179e-05 0.000132314 5.13774e-07
6.00993e-07 5.13774e-07 5.13087e-05
0.000907409 -5.3904e-06 2.98005e-06
-5.3904e-06 2.16078e-05 -2.1511e-06
2.98005e-06 -2.1511e-06 -3.19617e-05
0.000899743 1.2985e-05 1.46605e-06
1.2985e-05 8.45054e-06 -2.42803e-06
1.46605e-06 -2.42803e-06 -3.42932e-05
0.00097565 -2.71437e-05 1.23971e-06
-2.71437e-05 4.71999e-05 -1.09092e-06
1.23971e-06 -1.09092e-06 -2.23668e-05
0.000669208 2.82634e-05 -7.28607e-06
2.82634e-05 -7.58093e-05 -3.8047e-06
-7.28607e-06 -3.8047e-06 -0.000119436
0.00266383 -4.97789e-05 -2.70691e-05
-4.97789e-05 0.000936953 -3.73293e-06
-2.70691e-05 -3.73293e-06 0.000947661
0.000768345 -2.91297e-05 -4.02294e-06
-2.91297e-05 -4.67879e-05 -3.84535e-06
-4.02294e-06 -3.84535e-06 -6.22377e-05
0.000646591 8.3761e-06 -5.95777e-06
8.3761e-06 -6.44671e-05 -3.56707e-06
-5.95777e-06 -3.56707e-06 -0.000104306
0.000981142 4.43421e-05 -3.44763e-06
4.43421e-05 6.98357e-06 -1.7958e-06
-3.44763e-06 -1.7958e-06 -5.86545e-05
0.000683225 -3.74829e-05 -4.15547e-06
-3.74829e-05 -6.86293e-05 -3.8539e-06
-4.15547e-06 -3.8539e-06 -9.13876e-05
0.000837587 6.22733e-06 -2.30452e-06
6.22733e-06 4.60106e-06 -1.91241e-06
-2.30452e-06 -1.91241e-06 -5.61145e-05
0.000882174 3.30893e-05 -2.77893e-06
3.30893e-05 7.13651e-06 -9.52875e-07
-2.77893e-06 -9.52875e-07 -5.40928e-05
0.000862454 5.07122e-05 -1.75692e-06
5.07122e-05 -2.0485e-05 -3.20701e-07
-1.75692e-06 -3.20701e-07 -9.41761e-05
0.000758123 -3.48024e-05 1.00382e-07
-3.48024e-05 -4.16186e-05 -1.48019e-08
1.00382e-07 -1.48019e-08 -6.0724e-05
0.000801407 -2.63413e-05 1.34409e-07
-2.63413e-05 -3.63793e-05 2.79472e-08
1.34409e-07 2.79472e-08 -4.89095e-05
0.00089069 -2.61066e-06 1.18274e-07
-2.61066e-06 7.02509e-06 -3.06609e-09
1.18274e-07 -3.06609e-09 -4.12458e-05
0.001059 4.12878e-05 2.18097e-07
4.12878e-05 1.41163e-05 1.34476e-11
2.18097e-07 1.34476e-11 -5.38085e-05
0.000942305 4.16417e-05 7.51403e-08
4.16417e-05 1.82871e-05 9.22545e-08
7.51403e-08 9.22545e-08 -4.49172e-05
0.00116775 5.98426e-05 1.30609e-07
5.98426e-05 5.29876e-05 4.61395e-08
1.30609e-07 4.61395e-08 -2.5441e-05
0.000885554 6.73571e-06 -2.2941e-07
6.73571e-06 2.11786e-05 1.86608e-08
-2.2941e-07 1.86608e-08 -3.54025e-05
0.00103799 5.80877e-05 -4.5052e-08
5.80877e-05 5.04832e-05 -6.95129e-08
-4.5052e-08 -6.95129e-08 -2.16781e-05
0.00102116 5.05673e-05 1.32464e-07
5.05673e-05 7.73818e-05 -2.10263e-07
1.32464e-07 -2.10263e-07 2.48977e-06
0.000984696 6.29519e-05 -5.54683e-07
6.29519e-05 3.5614e-05 2.30118e-07
-5.54683e-07 2.30118e-07 -4.44674e-05
0.000833908 -2.36947e-05 3.23639e-06
-2.36947e-05 -2.57726e-05 3.70969e-06
3.23639e-06 3.70969e-06 -3.54016e-05
0.000890744 5.28084e-06 2.92757e-06
5.28084e-06 1.16428e-05 1.75035e-06
2.92757e-06 1.75035e-06 -4.04836e-05
0.000881647 -6.36624e-06 2.24122e-06
-6.36624e-06 -8.14034e-07 2.31544e-06
2.24122e-06 2.31544e-06 -4.44471e-05
0.00100138 1.90657e-05 1.39972e-06
1.90657e-05 5.94793e-05 6.62945e-07
1.39972e-06 6.62945e-07 -7.86029e-06
0.00123376 5.16519e-05 2.52891e-06
5.16519e-05 4.79293e-05 9.97136e-07
2.52891e-06 9.97136e-07 -3.19745e-05
0.00112404 6.18337e-05 1.60685e-06
6.18337e-05 6.92001e-05 1.1333e-06
1.60685e-06 1.1333e-06 -5.88711e-06
0.00125266 6.58587e-05 1.00963e-06
6.58587e-05 6.61966e-05 1.11392e-06
1.00963e-06 1.11392e-06 -1.81717e-05
0.00105533 3.87155e-05 1.48443e-06
3.87155e-05 9.51514e-05 8.04628e-07
1.48443e-06 8.04628e-07 2.3034e-05
0.00113021 6.67937e-05 2.44331e-07
6.67937e-05 8.16588e-05 2.19413e-07
2.44331e-07 2.19413e-07 4.05636e-06
0.00105468 6.41784e-05 7.96972e-07
6.41784e-05 9.45603e-05 -4.24879e-07
7.96972e-07 -4.24879e-07 9.43835e-06
0.000894803 6.19705e-05 3.25205e-07
6.19705e-05 -2.09734e-05 -4.0366e-07
3.25205e-07 -4.0366e-07 -0.000104341
0.000910092 -7.25281e-06 9.07071e-07
-7.25281e-06 1.95241e-06 1.90003e-06
9.07071e-07 1.90003e-06 -2.7827e-05
0.000841621 -1.79713e-05 2.30336e-06
-1.79713e-05 -3.16604e-05 3.46901e-06
2.30336e-06 3.46901e-06 -3.63793e-05
0.00236337 -3.15692e-05 2.02644e-05
-3.15692e-05 0.000759025 4.04988e-06
2.02644e-05 4.04988e-06 0.000776846
0.00243278 -3.59908e-05 5.39363e-07
-3.59908e-05 0.000799739 -6.57689e-08
5.39363e-07 -6.57689e-08 0.000816008
0.00251279 -4.05461e-05 -2.33615e-05
-4.05461e-05 0.000846097 -3.90297e-06
-2.33615e-05 -3.90297e-06 0.000860702
0.0007862 2.5924e-05 3.20166e-06
2.5924e-05 -4.33683e-05 -3.64451e-06
3.20166e-06 -3.64451e-06 -5.50399e-05
0.00259191 4.53223e-05 2.46927e-05
4.53223e-05 0.0008932 -3.74564e-06
2.46927e-05 -3.74564e-06 0.000905905
0.000777492 3.02715e-05 -2.51145e-07
3.02715e-05 -4.06597e-05 2.66698e-09
-2.51145e-07 2.66698e-09 -5.64267e-05
0.00268001 4.97013e-05 -3.18826e-07
4.97013e-05 0.000944831 -9.44276e-08
-3.18826e-07 -9.44276e-08 0.000955356
0.000668084 2.77808e-05 -7.9356e-06
2.77808e-05 -9.08999e-05 -3.51078e-06
-7.9356e-06 -3.51078e-06 -0.000133935
0.000714817 1.85917e-05 -8.90504e-06
1.85917e-05 -9.24203e-05 -2.47698e-06
-8.90504e-06 -2.47698e-06 -0.000135652
0.00115151 2.78907e-05 -5.15902e-06
2.78907e-05 1.32657e-05 -1.86676e-06
-5.15902e-06 -1.86676e-06 -5.78055e-05
0.00120801 8.95868e-06 -5.66508e-06
8.95868e-06 3.54071e-06 -1.45029e-06
-5.66508e-06 -1.45029e-06 -6.97583e-05
0.000741672 4.04668e-06 -9.95413e-06
4.04668e-06 -0.000104362 -1.17183e-06
-9.95413e-06 -1.17183e-06 -0.000151477
0.00461476 2.13211e-05 -6.51336e-05
2.13211e-05 0.00197137 4.37667e-07
-6.51336e-05 4.37667e-07 0.00196298
0.000759175 -2.85761e-08 1.75535e-08
-2.85761e-08 -0.00010039 -3.29901e-07
1.75535e-08 -3.29901e-07 -0.000148379
0.00124337 4.52467e-06 1.87873e-08
4.52467e-06 2.34232e-06 -2.38436e-07
1.87873e-08 -2.38436e-07 -7.33572e-05
0.00117951 1.55461e-05 8.71148e-09
1.55461e-05 7.86638e-06 -3.80104e-08
8.71148e-09 -3.80104e-08 -6.38076e-05
0.00144246 4.34268e-06 8.23781e-08
4.34268e-06 5.53955e-05 4.20769e-08
8.23781e-08 4.20769e-08 -2.94057e-05
0.00111668 3.58591e-05 2.02716e-07
3.58591e-05 1.68661e-05 -3.21311e-08
2.02716e-07 -3.21311e-08 -5.29509e-05
0.00136579 3.3631e-05 3.11305e-08
3.3631e-05 5.73211e-05 -4.40986e-08
3.11305e-08 -4.40986e-08 -2.41674e-05
0.00124953 7.3221e-07 6.06674e-06
7.3221e-07 3.4532e-07 -4.65013e-07
6.06674e-06 -4.65013e-07 -7.58262e-05
0.00146303 6.34433e-06 3.07017e-06
6.34433e-06 4.68772e-05 8.88375e-07
3.07017e-06 8.88375e-07 -4.10885e-05
0.00139821 1.86451e-05 2.7423e-06
1.86451e-05 5.17947e-05 8.32338e-07
2.7423e-06 8.32338e-07 -3.0668e-05
0.00154445 -4.90429e-07 1.36025e-06
-4.90429e-07 7.5856e-05 8.00149e-07
1.36025e-06 8.00149e-07 -1.06078e-05
0.00129735 4.3438e-05 2.17233e-06
4.3438e-05 4.95454e-05 6.19108e-07
2.17233e-06 6.19108e-07 -3.12425e-05
0.00144951 3.53492e-05 9.26328e-07
3.53492e-05 6.29049e-05 3.90835e-07
9.26328e-07 3.90835e-07 -2.04757e-05
0.000774392 9.07048e-06 -9.82248e-06
9.07048e-06 -8.46543e-05 1.06112e-06
-9.82248e-06 1.06112e-06 -0.000131699
0.00150569 1.02127e-05 -3.00207e-05
1.02127e-05 0.000309245 1.80994e-06
-3.00207e-05 1.80994e-06 0.000269866
0.000889044 6.99647e-06 -6.41031e-06
6.99647e-06 -0.000152284 1.18186e-06
-6.41031e-06 1.18186e-06 -0.000225752
0.00181086 -3.31461e-05 -8.05851e-06
-3.31461e-05 0.00034217 1.91252e-06
-8.05851e-06 1.91252e-06 0.00027519
0.00267444 5.40632e-05 -2.80633e-05
5.40632e-05 0.000951721 3.56745e-06
-2.80633e-05 3.56745e-06 0.000959944
0.00159716 3.97407e-05 -1.41289e-05
3.97407e-05 0.000405848 2.98007e-06
-1.41289e-05 2.98007e-06 0.000383843
0.00144467 -2.4788e-05 -3.62813e-06
-2.4788e-05 0.000304742 1.72321e-06
-3.62813e-06 1.72321e-06 0.000246849
0.00134729 -4.35773e-05 -5.82157e-06
-4.35773e-05 0.000160387 2.21424e-06
-5.82157e-06 2.21424e-06 9.45005e-05
0.00113989 -4.62177e-05 -3.55116e-06
-4.62177e-05 -4.02505e-05 1.392e-06
-3.55116e-06 1.392e-06 -0.000122458
0.00150026 -6.10853e-05 -2.10741e-06
-6.10853e-05 0.000213086 9.48663e-07
-2.10741e-06 9.48663e-07 0.00013834
0.000839739 -5.25261e-05 -1.77596e-06
-5.25261e-05 -5.37933e-05 1.07779e-06
-1.77596e-06 1.07779e-06 -0.000131032
0.00119795 -6.54411e-05 -9.0613e-07
-6.54411e-05 6.0938e-05 4.13078e-07
-9.0613e-07 4.13078e-07 -1.99843e-05
0.000774438 3.62382e-05 -3.71981e-06
3.62382e-05 -3.25256e-05 3.78181e-06
-3.71981e-06 3.78181e-06 -5.24051e-05
0.00087851 1.04303e-06 -2.73344e-06
1.04303e-06 4.98647e-07 2.1534e-06
-2.73344e-06 2.1534e-06 -4.81796e-05
0.00108413 7.63985e-06 -1.7594e-07
7.63985e-06 -7.23101e-05 6.48049e-10
-1.7594e-07 6.48049e-10 -0.000147652
0.00150847 -9.14785e-06 -1.4539e-06
-9.14785e-06 0.000176138 1.76382e-07
-1.4539e-06 1.76382e-07 0.000108289
0.0016498 6.47944e-06 -1.13589e-06
6.47944e-06 0.000167162 2.33072e-07
-1.13589e-06 2.33072e-07 8.52774e-05
0.00144729 -3.69656e-05 5.32586e-07
-3.69656e-05 8.98967e-05 -3.58403e-07
5.32586e-07 -3.58403e-07 8.68176e-06
0.000729962 3.91944e-05 -1.66564e-08
3.91944e-05 -4.65712e-05 4.32133e-09
-1.66564e-08 4.32133e-09 -6.9705e-05
0.000869885 -1.1108e-05 1.51305e-07
-1.1108e-05 1.6604e-05 -7.78417e-08
1.51305e-07 -7.78417e-08 -4.16567e-05
0.000844429 -5.06348e-05 5.32587e-07
-5.06348e-05 -2.39971e-05 -3.4817e-07
5.32587e-07 -3.4817e-07 -9.82036e-05
0.00145922 -5.78919e-05 -5.13511e-07
-5.78919e-05 0.000164055 1.06863e-07
-5.13511e-07 1.06863e-07 8.70266e-05
0.00147171 -5.07613e-05 -3.11079e-07
-5.07613e-05 9.05084e-05 4.88141e-07
-3.11079e-07 4.88141e-07 7.40405e-06
0.00130104 -7.34685e-05 -6.60484e-07
-7.34685e-05 0.000149661 1.70318e-07
-6.60484e-07 1.70318e-07 6.45505e-05
0.00126974 -6.22683e-05 8.21186e-08
-6.22683e-05 6.32876e-05 1.90989e-07
8.21186e-08 1.90989e-07 -1.61808e-05
0.00126236 -6.936e-05 3.73523e-07
-6.936e-05 7.11564e-05 3.99472e-07
3.73523e-07 3.99472e-07 -9.82937e-06
0.000896981 -5.63363e-06 -9.6341e-09
-5.63363e-06 1.48761e-05 -7.43992e-08
-9.6341e-09 -7.43992e-08 -3.83718e-05
0.00094839 -2.51831e-05 -1.41678e-07
-2.51831e-05 3.21438e-05 -2.1527e-07
-1.41678e-07 -2.1527e-07 -3.72435e-05
0.000887917 1.15704e-05 -1.61867e-07
1.15704e-05 2.66764e-06 1.09636e-07
-1.61867e-07 1.09636e-07 -4.01672e-05
0.00176639 1.29366e-05 2.43449e-06
1.29366e-05 0.000210428 -3.12416e-07
2.43449e-06 -3.12416e-07 0.000126089
0.00155107 -1.24842e-05 3.06379e-06
-1.24842e-05 0.000127999 -2.89845e-07
3.06379e-06 -2.89845e-07 4.73568e-05
0.00169482 9.03807e-06 1.94821e-06
9.03807e-06 0.000156617 1.60793e-07
1.94821e-06 1.60793e-07 6.95951e-05
0.00148056 -3.13464e-05 1.66044e-06
-3.13464e-05 6.62663e-05 -7.25182e-07
1.66044e-06 -7.25182e-07 -1.78268e-05
0.00113991 -5.64622e-05 1.07836e-06
-5.64622e-05 -3.09638e-05 -1.02916e-06
1.07836e-06 -1.02916e-06 -0.000111277
0.0016037 -5.00736e-05 -3.45476e-07
-5.00736e-05 0.000133071 1.56809e-07
-3.45476e-07 1.56809e-07 5.39889e-05
0.000867332 -5.86316e-06 2.83252e-06
-5.86316e-06 1.05018e-05 -1.67425e-06
2.83252e-06 -1.67425e-06 -4.59799e-05
0.00128529 -6.48296e-05 8.97213e-08
-6.48296e-05 5.05688e-05 -2.91986e-07
8.97213e-08 -2.91986e-07 -2.75326e-05
0.000978337 -4.96114e-05 1.18545e-06
-4.96114e-05 5.17531e-05 -3.52391e-07
1.18545e-06 -3.52391e-07 -1.92139e-05
0.000830004 -6.09188e-05 1.49836e-06
-6.09188e-05 -4.38653e-05 -1.98474e-06
1.49836e-06 -1.98474e-06 -0.000128432
0.00140806 -8.01684e-05 1.75375e-06
-8.01684e-05 0.000183832 -1.11826e-07
1.75375e-06 -1.11826e-07 9.40082e-05
0.00164551 -7.99559e-05 -4.67389e-07
-7.99559e-05 0.000249253 1.47498e-06
-4.67389e-07 1.47498e-06 0.000171936
0.000898764 1.75906e-05 1.11603e-06
1.75906e-05 4.48004e-06 -2.11104e-06
1.11603e-06 -2.11104e-06 -3.27612e-05
0.000989285 -3.84553e-05 1.60165e-06
-3.84553e-05 5.32334e-05 -4.25709e-07
1.60165e-06 -4.25709e-07 -1.62064e-05
0.000832341 -1.61342e-05 1.40288e-06
-1.61342e-05 -2.58212e-05 -1.99046e-06
1.40288e-06 -1.99046e-06 -9.35747e-05
0.00113875 -6.28032e-05 3.62163e-07
-6.28032e-05 0.000134345 3.78363e-07
3.62163e-07 3.78363e-07 5.56269e-05
0.00106206 4.21774e-05 -4.21729e-06
4.21774e-05 1.6079e-05 -1.90763e-06
-4.21729e-06 -1.90763e-06 -5.18279e-05
0.000785422 -2.55694e-05 -3.52749e-06
-2.55694e-05 -4.48701e-05 -3.76699e-06
-3.52749e-06 -3.76699e-06 -5.7134e-05
0.000735892 -3.33561e-05 -4.3436e-06
-3.33561e-05 -5.41442e-05 -3.84213e-06
-4.3436e-06 -3.84213e-06 -7.28614e-05
0.000899457 -8.84695e-06 -2.24504e-06
-8.84695e-06 1.1651e-05 -2.33146e-06
-2.24504e-06 -2.33146e-06 -3.65033e-05
0.00090933 4.05429e-05 -2.73593e-06
4.05429e-05 1.99511e-06 -1.38073e-06
-2.73593e-06 -1.38073e-06 -6.10037e-05
0.00114874 5.97005e-05 -1.9744e-06
5.97005e-05 4.41128e-05 -1.06339e-06
-1.9744e-06 -1.06339e-06 -3.43552e-05
0.000868574 4.26846e-06 -2.75723e-06
4.26846e-06 1.50138e-05 -1.82268e-06
-2.75723e-06 -1.82268e-06 -4.18336e-05
0.00100195 5.00366e-05 -1.52301e-06
5.00366e-05 6.80362e-05 -8.9688e-07
-1.52301e-06 -8.9688e-07 -6.89397e-06
0.00113249 6.09407e-05 -1.31909e-06
6.09407e-05 9.83418e-05 -4.45469e-07
-1.31909e-06 -4.45469e-07 2.646e-05
0.000893521 6.06558e-05 -1.64858e-06
6.06558e-05 -1.03579e-05 2.67742e-07
-1.64858e-06 2.67742e-07 -9.08259e-05
0.000816087 -2.31606e-05 1.35801e-07
-2.31606e-05 -3.48274e-05 3.72146e-08
1.35801e-07 3.72146e-08 -4.42732e-05
0.000896044 3.41393e-06 -9.03742e-09
3.41393e-06 1.57519e-05 -3.87722e-08
-9.03742e-09 -3.87722e-08 -3.66369e-05
0.000888349 -1.04744e-05 5.14254e-08
-1.04744e-05 2.29526e-06 6.87957e-08
5.14254e-08 6.87957e-08 -4.11831e-05
0.000988195 1.83978e-05 1.70986e-07
1.83978e-05 5.33121e-05 -1.84095e-07
1.70986e-07 -1.84095e-07 -1.41667e-05
0.00123962 5.21958e-05 4.80866e-07
5.21958e-05 5.09313e-05 2.76207e-07
4.80866e-07 2.76207e-07 -2.90921e-05
0.00109363 6.14154e-05 5.49998e-08
6.14154e-05 5.51311e-05 2.54337e-08
5.49998e-08 2.54337e-08 -1.99253e-05
0.00124549 6.5743e-05 7.38075e-09
6.5743e-05 6.28885e-05 2.26936e-07
7.38075e-09 2.26936e-07 -2.14625e-05
0.00101643 4.04899e-05 -6.70598e-09
4.04899e-05 7.67791e-05 9.73741e-08
-6.70598e-09 9.73741e-08 4.76851e-06
0.00124679 7.00247e-05 -3.34948e-07
7.00247e-05 0.000140625 -4.94109e-07
-3.34948e-07 -4.94109e-07 6.33104e-05
0.00107117 6.50183e-05 2.00148e-07
6.50183e-05 0.00010233 -4.30327e-07
2.00148e-07 -4.30327e-07 1.69085e-05
0.000957387 6.36904e-05 -1.30987e-06
6.36904e-05 1.30439e-05 4.40445e-08
-1.30987e-06 4.40445e-08 -6.90539e-05
0.000845834 -2.07719e-05 2.75111e-06
-2.07719e-05 -2.49957e-05 3.58019e-06
2.75111e-06 3.58019e-06 -3.18725e-05
0.000884958 -1.1632e-05 1.67587e-06
-1.1632e-05 -2.35503e-06 2.30718e-06
1.67587e-06 2.30718e-06 -4.13287e-05
0.00103425 2.78612e-05 1.51804e-06
2.78612e-05 7.71737e-05 4.76357e-07
1.51804e-06 4.76357e-07 8.27811e-06
0.000982555 1.1276e-05 1.03005e-06
1.1276e-05 4.91393e-05 1.16574e-06
1.03005e-06 1.16574e-06 -1.50219e-05
0.000994049 4.8343e-05 9.39684e-07
4.8343e-05 6.06537e-05 -1.51928e-07
9.39684e-07 -1.51928e-07 -1.75391e-05
0.00130722 5.41312e-05 1.51392e-06
5.41312e-05 5.21498e-05 7.9505e-07
1.51392e-06 7.9505e-07 -3.24304e-05
0.00116432 6.84288e-05 6.14289e-07
6.84288e-05 6.87371e-05 1.14539e-06
6.14289e-07 1.14539e-06 -1.226e-05
0.00130963 7.02423e-05 3.65915e-08
7.02423e-05 8.16709e-05 1.03952e-06
3.65915e-08 1.03952e-06 -5.08436e-06
0.00108681 6.18603e-05 1.60796e-06
6.18603e-05 0.000115968 1.42465e-06
1.60796e-06 1.42465e-06 3.22277e-05
0.00116301 7.09745e-05 1.31336e-06
7.09745e-05 8.83588e-05 3.25013e-07
1.31336e-06 3.25013e-07 7.02705e-06
0.000711597 5.75513e-05 1.20376e-06
5.75513e-05 -8.87649e-05 -6.9866e-07
1.20376e-06 -6.9866e-07 -0.000182508
0.000903361 -1.01756e-05 1.04818e-06
-1.01756e-05 5.38286e-07 2.04194e-06
1.04818e-06 2.04194e-06 -3.15341e-05
0.000967405 1.05574e-05 3.52153e-07
1.05574e-05 3.86275e-05 1.10363e-06
3.52153e-07 1.10363e-06 -9.54659e-06
0.000916338 -3.3126e-06 7.6611e-07
-3.3126e-06 3.66047e-06 1.83373e-06
7.6611e-07 1.83373e-06 -2.42667e-05
0.000913966 -5.11243e-06 1.20427e-07
-5.11243e-06 4.25551e-06 1.3283e-08
1.20427e-07 1.3283e-08 -2.55751e-05
0.00143191 -1.94389e-05 2.29673e-06
-1.94389e-05 0.000267976 2.07854e-06
2.29673e-06 2.07854e-06 0.000268234
0.00114012 -1.98665e-05 7.13772e-07
-1.98665e-05 0.00012196 -1.41866e-09
7.13772e-07 -1.41866e-09 0.000118901
0.00111713 -1.9161e-05 1.68924e-05
-1.9161e-05 0.000112094 6.68005e-06
1.68924e-05 6.68005e-06 0.000125379
0.00236202 -3.17537e-05 6.46983e-07
-3.17537e-05 0.00075762 -5.79914e-08
6.46983e-07 -5.79914e-08 0.000775625
0.00243072 -3.61603e-05 -2.1117e-05
-3.61603e-05 0.000797929 -3.92236e-06
-2.1117e-05 -3.92236e-06 0.000814413
0.000802864 2.37685e-05 2.66575e-06
2.37685e-05 -4.03854e-05 -3.43862e-06
2.66575e-06 -3.43862e-06 -4.8857e-05
0.00247435 4.08433e-05 2.22662e-05
4.08433e-05 0.000827404 -3.74657e-06
2.22662e-05 -3.74657e-06 0.000842179
0.000801645 2.6656e-05 -1.46138e-07
2.6656e-05 -3.5219e-05 5.33178e-08
-1.46138e-07 5.33178e-08 -4.71816e-05
0.00259682 4.50457e-05 -4.18377e-07
4.50457e-05 0.000896287 -8.57534e-08
-4.18377e-07 -8.57534e-08 0.000908767
0.000794615 3.1766e-05 -3.631e-06
3.1766e-05 -3.08999e-05 3.88519e-06
-3.631e-06 3.88519e-06 -4.70966e-05
0.00266264 4.96216e-05 -2.74471e-05
4.96216e-05 0.000936971 3.71223e-06
-2.74471e-05 3.71223e-06 0.000947296
0.00112518 3.70204e-05 -4.7918e-06
3.70204e-05 2.1936e-05 -1.97752e-06
-4.7918e-06 -1.97752e-06 -4.79367e-05
0.00118006 1.79263e-05 -5.38606e-06
1.79263e-05 8.64974e-06 -1.51333e-06
-5.38606e-06 -1.51333e-06 -6.30865e-05
0.00137181 3.16221e-05 -2.44455e-06
3.16221e-05 6.04159e-05 -7.54807e-07
-2.44455e-06 -7.54807e-07 -2.10741e-05
0.00146924 3.89825e-06 -2.94416e-06
3.89825e-06 6.85257e-05 -1.00235e-06
-2.94416e-06 -1.00235e-06 -1.6269e-05
0.0012423 7.01889e-06 -6.03022e-06
7.01889e-06 1.83871e-06 -1.30825e-06
-6.03022e-06 -1.30825e-06 -7.38267e-05
0.000773619 8.42842e-07 -1.01563e-05
8.42842e-07 -9.3416e-05 -1.04305e-07
-1.01563e-05 -1.04305e-07 -0.000141432
0.00125056 2.60169e-06 -2.87449e-08
2.60169e-06 4.87067e-07 -3.82411e-07
-2.87449e-08 -3.82411e-07 -7.57402e-05
0.00147895 7.78591e-06 7.52039e-09
7.78591e-06 5.47413e-05 -1.44204e-07
7.52039e-09 -1.44204e-07 -3.31804e-05
0.00140615 1.51079e-05 1.00236e-07
1.51079e-05 5.59936e-05 1.40082e-08
1.00236e-07 1.40082e-08 -2.64099e-05
0.00154262 -1.26269e-06 -2.63417e-08
-1.26269e-06 7.29975e-05 1.15668e-07
-2.63417e-08 1.15668e-07 -1.36943e-05
0.00130659 4.36845e-05 -3.64989e-08
4.36845e-05 5.4022e-05 -3.07338e-08
-3.64989e-08 -3.07338e-08 -2.68377e-05
0.00146369 3.48859e-05 -1.16772e-08
3.48859e-05 7.01752e-05 9.06111e-08
-1.16772e-08 9.06111e-08 -1.32454e-05
0.00148314 7.20102e-06 3.50472e-06
7.20102e-06 5.17668e-05 -5.24086e-07
3.50472e-06 -5.24086e-07 -3.69314e-05
0.00151405 2.9894e-06 1.32609e-06
2.9894e-06 4.58623e-05 1.34247e-06
1.32609e-06 1.34247e-06 -4.44107e-05
0.00148201 1.79842e-05 1.2705e-06
1.79842e-05 5.67689e-05 4.88497e-07
1.2705e-06 4.88497e-07 -2.76338e-05
0.00169031 -7.60191e-06 1.38151e-06
-7.60191e-06 0.000128482 5.81301e-07
1.38151e-06 5.81301e-07 4.35888e-05
0.00138927 4.3029e-05 6.47809e-07
4.3029e-05 6.13109e-05 4.50319e-08
6.47809e-07 4.50319e-08 -2.23327e-05
0.00150999 2.57755e-05 -1.55562e-06
2.57755e-05 6.90751e-05 6.37176e-07
-1.55562e-06 6.37176e-07 -7.73035e-06
0.000943109 9.09681e-06 -5.90792e-06
9.09681e-06 -0.000143089 8.6329e-07
-5.90792e-06 8.6329e-07 -0.000219267
0.00152383 -1.41276e-05 -8.13865e-06
-1.41276e-05 0.000183338 1.39081e-06
-8.13865e-06 1.39081e-06 0.000115529
0.0015451 1.23215e-05 -4.49241e-06
1.23215e-05 0.000113566 6.84067e-07
-4.49241e-06 6.84067e-07 3.1144e-05
0.00171448 -3.98793e-05 -2.92679e-06
-3.98793e-05 0.000226074 2.74822e-07
-2.92679e-06 2.74822e-07 0.000145953
0.00077409 4.05239e-05 -3.57632e-06
4.05239e-05 -2.34235e-05 3.60883e-06
-3.57632e-06 3.60883e-06 -4.6882e-05
0.000915316 -1.35816e-05 -2.64202e-06
-1.35816e-05 3.78384e-05 1.50343e-06
-2.64202e-06 1.50343e-06 -2.03735e-05
0.000958679 -5.39589e-05 -8.95105e-07
-5.39589e-05 3.40617e-05 7.28199e-07
-8.95105e-07 7.28199e-07 -3.94818e-05
0.00159714 -5.98476e-05 -2.79091e-06
-5.98476e-05 0.000231503 1.20593e-06
-2.79091e-06 1.20593e-06 0.000154412
0.00130154 -4.70533e-05 -1.59696e-06
-4.70533e-05 4.19279e-06 1.12323e-06
-1.59696e-06 1.12323e-06 -7.88007e-05
0.00127265 -6.21059e-05 -8.42569e-07
-6.21059e-05 6.44913e-05 8.53131e-07
-8.42569e-07 8.53131e-07 -1.49146e-05
0.00104705 -6.64258e-05 -1.66316e-06
-6.64258e-05 2.37166e-05 1.18273e-06
-1.66316e-06 1.18273e-06 -6.21647e-05
0.00112979 -6.58817e-05 6.37644e-08
-6.58817e-05 5.67662e-06 -9.35529e-08
6.37644e-08 -9.35529e-08 -7.52796e-05
0.000890063 -6.14581e-06 -2.95886e-06
-6.14581e-06 9.95465e-06 1.77745e-06
-2.95886e-06 1.77745e-06 -4.29688e-05
0.000920807 -2.2715e-05 -1.62487e-06
-2.2715e-05 1.67569e-05 6.83954e-07
-1.62487e-06 6.83954e-07 -5.23817e-05
0.00087619 1.04652e-05 -1.86206e-06
1.04652e-05 -3.06757e-06 2.38875e-06
-1.86206e-06 2.38875e-06 -4.59984e-05
0.00162242 1.33131e-05 -1.17475e-06
1.33131e-05 0.000136197 3.9563e-07
-1.17475e-06 3.9563e-07 5.06595e-05
0.00154668 -1.78239e-05 -4.90221e-07
-1.78239e-05 0.000124792 3.92258e-08
-4.90221e-07 3.92258e-08 4.42997e-05
0.00157062 1.14446e-05 -5.06206e-07
1.14446e-05 9.34545e-05 2.56993e-07
-5.06206e-07 2.56993e-07 5.86899e-06
0.00158061 -3.01096e-05 3.34369e-08
-3.01096e-05 0.000116125 -3.64824e-07
3.34369e-08 -3.64824e-07 3.22591e-05
0.000886851 -7.73974e-06 1.37588e-07
-7.73974e-06 1.82292e-05 -1.06739e-07
1.37588e-07 -1.06739e-07 -3.79208e-05
0.00102686 -5.13877e-05 3.57444e-09
-5.13877e-05 7.44594e-05 1.31467e-07
3.57444e-09 1.31467e-07 3.4191e-06
0.000923055 -6.31143e-05 3.54539e-07
-6.31143e-05 5.05836e-06 -4.88068e-07
3.54539e-07 -4.88068e-07 -7.87582e-05
0.00133949 -5.98381e-05 -1.96503e-08
-5.98381e-05 6.95371e-05 -2.99321e-07
-1.96503e-08 -2.99321e-07 -1.07047e-05
0.00148986 -4.84198e-05 3.60457e-07
-4.84198e-05 7.51722e-05 8.95891e-07
3.60457e-07 8.95891e-07 -2.8353e-06
0.00121766 -7.52722e-05 4.16259e-08
-7.52722e-05 9.13829e-05 1.13515e-07
4.16259e-08 1.13515e-07 4.29697e-07
0.00129636 -6.43096e-05 2.89281e-08
-6.43096e-05 5.56768e-05 3.25025e-07
2.89281e-08 3.25025e-07 -2.22745e-05
0.00147732 -7.56051e-05 6.3313e-07
-7.56051e-05 0.000165441 4.38178e-07
6.3313e-07 4.38178e-07 8.90277e-05
0.00101263 -3.67596e-05 1.15874e-08
-3.67596e-05 6.43261e-05 -1.134e-07
1.15874e-08 -1.134e-07 -4.89158e-06
0.00107759 -5.98486e-05 -3.23835e-07
-5.98486e-05 0.000102049 2.60154e-07
-3.23835e-07 2.60154e-07 2.30722e-05
0.000887268 1.65471e-05 -1.20399e-07
1.65471e-05 -8.70114e-07 8.9905e-08
-1.20399e-07 8.9905e-08 -3.82432e-05
0.000862736 -1.18465e-05 1.88303e-07
-1.18465e-05 -1.15593e-05 -5.4776e-07
1.88303e-07 -5.4776e-07 -7.82809e-05
0.00158357 1.28198e-05 2.42468e-06
1.28198e-05 8.77652e-05 -2.75063e-07
2.42468e-06 -2.75063e-07 -2.8165e-06
0.00166171 -1.02843e-05 2.0319e-06
-1.02843e-05 0.000142483 2.06951e-07
2.0319e-06 2.06951e-07 5.73645e-05
0.00162283 1.39929e-05 1.60004e-06
1.39929e-05 0.00010289 3.84731e-07
1.60004e-06 3.84731e-07 1.34998e-05
0.00149266 -2.47954e-05 4.32645e-07
-2.47954e-05 4.85252e-05 -1.3863e-06
4.32645e-07 -1.3863e-06 -3.34263e-05
0.00126731 -5.87683e-05 -3.83453e-07
-5.87683e-05 8.30997e-06 -4.18115e-07
-3.83453e-07 -4.18115e-07 -6.8446e-05
0.0016787 -4.77617e-05 1.51487e-06
-4.77617e-05 0.000144997 -3.57155e-07
1.51487e-06 -3.57155e-07 7.27306e-05
0.000986608 -4.61987e-05 1.38001e-06
-4.61987e-05 5.57074e-05 -1.54415e-07
1.38001e-06 -1.54415e-07 -1.39075e-05
0.00128778 -6.47347e-05 -1.1643e-06
-6.47347e-05 3.78904e-05 3.03987e-07
-1.1643e-06 3.03987e-07 -3.23252e-05
0.000809482 -5.72774e-05 5.03081e-07
-5.72774e-05 -3.51807e-05 -1.02089e-06
5.03081e-07 -1.02089e-06 -0.000114958
0.00110502 -7.26427e-05 1.73383e-06
-7.26427e-05 8.4222e-05 -1.86384e-06
1.73383e-06 -1.86384e-06 -9.10645e-06
0.00128039 -8.05839e-05 2.07496e-06
-8.05839e-05 0.000107715 1.32973e-06
2.07496e-06 1.32973e-06 1.34299e-05
0.0017239 -8.20024e-05 7.4416e-07
-8.20024e-05 0.000274807 6.8774e-07
7.4416e-07 6.8774e-07 0.000198934
0.00089462 1.5357e-05 1.15239e-06
1.5357e-05 9.20465e-08 -1.90852e-06
1.15239e-06 -1.90852e-06 -3.36129e-05
0.00079396 -5.2114e-06 8.42983e-07
-5.2114e-06 -4.80487e-05 -1.986e-06
8.42983e-07 -1.986e-06 -0.000109543
0.00102328 -5.96792e-05 7.04464e-07
-5.96792e-05 7.14167e-05 4.73215e-07
7.04464e-07 4.73215e-07 -5.48255e-06
0.00102419 -5.50391e-05 1.04969e-06
-5.50391e-05 8.03291e-05 -3.86918e-07
1.04969e-06 -3.86918e-07 4.41891e-07
0.00114053 -6.47095e-05 3.34273e-07
-6.47095e-05 0.000131907 9.8174e-07
3.34273e-07 9.8174e-07 5.06565e-05
0.000798834 -2.26676e-05 -2.9952e-06
-2.26676e-05 -4.36046e-05 -3.66674e-06
-2.9952e-06 -3.66674e-06 -5.28692e-05
0.00125018 5.28397e-05 -1.70101e-06
5.28397e-05 5.62525e-05 -4.91625e-07
-1.70101e-06 -4.91625e-07 -2.38969e-05
0.000890539 -1.35235e-05 -1.74069e-06
-1.35235e-05 3.22792e-06 -2.37144e-06
-1.74069e-06 -2.37144e-06 -4.01706e-05
0.000903059 3.13584e-06 -2.82569e-06
3.13584e-06 2.08132e-05 -2.01574e-06
-2.82569e-06 -2.01574e-06 -3.17969e-05
0.000970318 1.77516e-05 -1.12137e-06
1.77516e-05 4.46986e-05 -9.73169e-07
-1.12137e-06 -9.73169e-07 -2.28997e-05
0.00106154 6.09661e-05 -1.61119e-06
6.09661e-05 4.02235e-05 -1.13536e-06
-1.61119e-06 -1.13536e-06 -3.47993e-05
0.001238 6.5609e-05 -9.07006e-07
6.5609e-05 5.94532e-05 -6.41536e-07
-9.07006e-07 -6.41536e-07 -2.48843e-05
0.000981199 4.36951e-05 -1.37901e-06
4.36951e-05 6.06435e-05 -4.87655e-07
-1.37901e-06 -4.87655e-07 -1.1487e-05
0.00109427 6.60557e-05 -1.30024e-06
6.60557e-05 0.000113378 -8.88025e-07
-1.30024e-06 -8.88025e-07 2.76445e-05
0.00136152 7.32066e-05 -1.28457e-06
7.32066e-05 0.000198644 -9.35184e-07
-1.28457e-06 -9.35184e-07 0.000121624
0.00102623 6.55563e-05 -2.66995e-06
6.55563e-05 4.99978e-05 9.46244e-07
-2.66995e-06 9.46244e-07 -3.08177e-05
0.000828154 -2.03979e-05 1.18567e-07
-2.03979e-05 -3.39257e-05 3.64771e-08
1.18567e-07 3.64771e-08 -4.06655e-05
0.000890361 -1.26122e-05 3.44475e-08
-1.26122e-05 7.00599e-08 5.80891e-08
3.44475e-08 5.80891e-08 -3.87805e-05
0.0010054 2.8658e-05 5.50321e-08
2.8658e-05 6.34688e-05 -5.14818e-08
5.50321e-08 -5.14818e-08 -5.5173e-06
0.000974938 1.10945e-05 1.08238e-07
1.10945e-05 4.58336e-05 -4.45556e-08
1.08238e-07 -4.45556e-08 -1.8445e-05
0.000971857 4.82121e-05 1.22338e-07
4.82121e-05 4.96357e-05 -2.22726e-07
1.22338e-07 -2.22726e-07 -2.87259e-05
0.00132268 5.48858e-05 6.07831e-07
5.48858e-05 5.93789e-05 4.98676e-07
6.07831e-07 4.98676e-07 -2.52994e-05
0.001159 6.86475e-05 1.12332e-07
6.86475e-05 6.65638e-05 -2.12009e-08
1.12332e-07 -2.12009e-08 -1.44705e-05
0.00127196 7.03765e-05 7.14243e-07
7.03765e-05 6.27751e-05 4.24236e-07
7.14243e-07 4.24236e-07 -2.43396e-05
0.00105015 6.12129e-05 5.15443e-07
6.12129e-05 9.88954e-05 5.31408e-07
5.15443e-07 5.31408e-07 1.51973e-05
0.0012409 7.26655e-05 1.41912e-07
7.26655e-05 0.000127791 -4.35209e-07
1.41912e-07 -4.35209e-07 4.67315e-05
0.00094142 6.45638e-05 -9.18605e-07
6.45638e-05 2.37658e-05 -5.12392e-07
-9.18605e-07 -5.12392e-07 -6.93513e-05
0.000893718 -1.15349e-05 1.32484e-06
-1.15349e-05 -1.20161e-06 2.21109e-06
1.32484e-06 2.21109e-06 -3.63008e-05
0.000963255 6.88572e-06 8.28462e-07
6.88572e-06 3.68129e-05 1.31506e-06
8.28462e-07 1.31506e-06 -2.25791e-05
0.00105495 5.77475e-05 6.23837e-07
5.77475e-05 9.12867e-05 -1.3453e-07
6.23837e-07 -1.3453e-07 1.14416e-05
0.00103237 3.8302e-05 6.49814e-07
3.8302e-05 8.03786e-05 3.21605e-07
6.49814e-07 3.21605e-07 4.46713e-06
0.00103557 5.56036e-05 1.95525e-09
5.56036e-05 8.54834e-05 -7.77151e-07
1.95525e-09 -7.77151e-07 1.94444e-06
0.00132451 5.42105e-05 -1.30311e-06
5.42105e-05 4.32817e-05 -3.36213e-07
-1.30311e-06 -3.36213e-07 -4.15727e-05
0.00118864 7.42836e-05 1.09306e-06
7.42836e-05 6.81699e-05 9.95749e-07
1.09306e-06 9.95749e-07 -1.60882e-05
0.00107933 7.29164e-05 -6.43441e-07
7.29164e-05 -3.1731e-05 -1.91553e-07
-6.43441e-07 -1.91553e-07 -0.000116479
0.00101866 6.51387e-05 6.75386e-07
6.51387e-05 8.53093e-05 1.77913e-06
6.75386e-07 1.77913e-06 -8.45402e-06
0.00118942 7.59262e-05 2.57012e-06
7.59262e-05 0.000113554 -4.3311e-08
2.57012e-06 -4.3311e-08 1.73445e-05
0.000906163 -8.94944e-06 9.98018e-08
-8.94944e-06 2.17147e-06 1.89352e-08
9.98018e-08 1.89352e-08 -2.98822e-05
0.000804773 -1.31969e-06 6.09279e-07
-1.31969e-06 -4.65868e-05 1.74302e-06
6.09279e-07 1.74302e-06 -9.86491e-05
0.000889586 3.16135e-06 -3.57684e-07
3.16135e-06 -1.73804e-06 2.36695e-08
-3.57684e-07 2.36695e-08 -5.05249e-05
0.00116776 1.76388e-05 3.83766e-07
1.76388e-05 0.000146895 2.81844e-07
3.83766e-07 2.81844e-07 8.66084e-05
0.000942416 6.97491e-06 8.18844e-07
6.97491e-06 2.73779e-05 1.06164e-06
8.18844e-07 1.06164e-06 -1.97187e-05
0.000929878 1.27062e-06 6.23027e-07
1.27062e-06 9.23128e-06 1.76919e-06
6.23027e-07 1.76919e-06 -1.73341e-05
0.000923159 -3.79502e-06 1.23339e-07
-3.79502e-06 7.48909e-06 1.4874e-08
1.23339e-07 1.4874e-08 -2.05277e-05
0.00142025 -1.60706e-05 1.76791e-06
-1.60706e-05 0.00025785 2.02425e-06
1.76791e-06 2.02425e-06 0.000259884
0.000920979 -3.54106e-06 -1.03351e-06
-3.54106e-06 8.16155e-06 -1.88299e-06
-1.03351e-06 -1.88299e-06 -2.17324e-05
0.00144943 -1.83183e-05 -2.90497e-06
-1.83183e-05 0.000276612 -1.23553e-06
-2.90497e-06 -1.23553e-06 0.000277078
0.00111704 -1.65721e-05 1.43877e-05
-1.65721e-05 0.000106468 6.50033e-06
1.43877e-05 6.50033e-06 0.000121454
0.00144337 -2.03035e-05 -7.75361e-06
-2.03035e-05 0.000278 -3.3054e-06
-7.75361e-06 -3.3054e-06 0.000276714
0.00169167 -2.35449e-05 1.24614e-05
-2.35449e-05 0.00040778 2.3135e-06
1.24614e-05 2.3135e-06 0.00042422
0.00236484 -3.19212e-05 -1.87954e-05
-3.19212e-05 0.000758371 -3.93105e-06
-1.87954e-05 -3.93105e-06 0.000776542
0.000812905 2.18066e-05 2.24615e-06
2.18066e-05 -4.02651e-05 -3.2908e-06
2.24615e-06 -3.2908e-06 -4.62575e-05
0.000818415 2.40705e-05 -1.55538e-07
2.40705e-05 -3.26128e-05 4.19562e-08
-1.55538e-07 4.19562e-08 -4.12429e-05
0.00238222 3.66697e-05 1.97785e-05
3.66697e-05 0.000774202 -3.74299e-06
1.97785e-05 -3.74299e-06 0.000790883
0.00248705 4.06373e-05 -4.71216e-07
4.06373e-05 0.00083445 -6.97252e-08
-4.71216e-07 -6.97252e-08 0.000848969
0.000817251 2.7562e-05 -3.31263e-06
2.7562e-05 -2.69951e-05 3.79974e-06
-3.31263e-06 3.79974e-06 -3.92573e-05
0.00260088 4.49098e-05 -2.61972e-05
4.49098e-05 0.00089899 3.85821e-06
-2.61972e-05 3.85821e-06 0.000911227
0.00131777 4.40869e-05 -2.29727e-06
4.40869e-05 5.94735e-05 -7.09918e-07
-2.29727e-06 -7.09918e-07 -2.14685e-05
0.00141751 1.52793e-05 -2.67868e-06
1.52793e-05 6.17375e-05 -7.9356e-07
-2.67868e-06 -7.9356e-07 -2.06817e-05
0.00147787 3.5536e-05 -8.86587e-07
3.5536e-05 7.74126e-05 -2.26255e-07
-8.86587e-07 -2.26255e-07 -6.06657e-06
0.00153618 -2.1251e-06 -1.37421e-06
-2.1251e-06 6.7947e-05 -7.00384e-07
-1.37421e-06 -7.00384e-07 -1.89821e-05
0.00149864 1.11476e-05 -3.0654e-06
1.11476e-05 6.44508e-05 -1.14993e-06
-3.0654e-06 -1.14993e-06 -2.34583e-05
0.0012584 7.22766e-06 -6.04361e-06
7.22766e-06 3.85955e-06 -2.95084e-07
-6.04361e-06 -2.95084e-07 -7.23605e-05
0.00149581 1.16865e-05 4.95381e-08
1.16865e-05 5.78453e-05 -5.26625e-07
4.95381e-08 -5.26625e-07 -3.08816e-05
0.0015234 -4.83915e-06 1.22848e-07
-4.83915e-06 4.90598e-05 2.67655e-07
1.22848e-07 2.67655e-07 -4.18941e-05
0.00150677 1.70145e-05 5.51799e-08
1.70145e-05 6.91942e-05 -4.33211e-08
5.51799e-08 -4.33211e-08 -1.51405e-05
0.00166851 -8.52974e-06 6.3472e-08
-8.52974e-06 0.000116289 -2.54534e-07
6.3472e-08 -2.54534e-07 3.1538e-05
0.00139721 4.40265e-05 -3.43924e-08
4.40265e-05 6.50909e-05 -2.68933e-08
-3.43924e-08 -2.68933e-08 -1.87603e-05
0.00151637 2.59743e-05 -1.43497e-07
2.59743e-05 7.04124e-05 8.66464e-07
-1.43497e-07 8.66464e-07 -6.07081e-06
0.00155553 1.11533e-06 2.34684e-06
1.11533e-06 6.0746e-05 -2.13999e-07
2.34684e-06 -2.13999e-07 -3.20767e-05
0.00161048 2.21052e-06 1.07655e-06
2.21052e-06 8.20197e-05 7.94352e-07
1.07655e-06 7.94352e-07 -8.9836e-06
0.00140916 8.63939e-06 2.54385e-07
8.63939e-06 -6.75991e-06 1.68247e-06
2.54385e-07 1.68247e-06 -8.67247e-05
0.00182072 -1.45277e-05 1.09143e-06
-1.45277e-05 0.000184039 4.68432e-07
1.09143e-06 4.68432e-07 9.95802e-05
0.00134933 3.88293e-05 -1.22626e-06
3.88293e-05 1.66076e-05 -8.55326e-07
-1.22626e-06 -8.55326e-07 -6.33653e-05
0.00177688 1.94983e-05 -1.31313e-07
1.94983e-05 0.000176563 2.7492e-07
-1.31313e-07 2.7492e-07 0.000106211
0.00146963 1.28876e-05 -4.41505e-06
1.28876e-05 5.75339e-05 9.92791e-07
-4.41505e-06 9.92791e-07 -2.91834e-05
0.00153835 -1.98272e-05 -4.05174e-06
-1.98272e-05 0.000119863 3.84429e-07
-4.05174e-06 3.84429e-07 3.94871e-05
0.0014535 1.17081e-05 -2.75786e-06
1.17081e-05 3.37198e-05 1.95572e-07
-2.75786e-06 1.95572e-07 -5.44257e-05
0.00167394 -2.93158e-05 -1.99052e-06
-2.93158e-05 0.000162612 3.80961e-09
-1.99052e-06 3.80961e-09 7.8989e-05
0.000902101 -9.60909e-06 -2.80946e-06
-9.60909e-06 2.38854e-05 1.48812e-06
-2.80946e-06 1.48812e-06 -3.19394e-05
0.00107225 -5.31789e-05 -1.41414e-06
-5.31789e-05 9.57005e-05 7.09855e-07
-1.41414e-06 7.09855e-07 2.45704e-05
0.00100332 -6.48446e-05 -6.41091e-07
-6.48446e-05 4.78925e-05 8.89026e-07
-6.41091e-07 8.89026e-07 -3.51726e-05
0.00154084 -6.319e-05 -1.03476e-06
-6.319e-05 0.000170904 5.35266e-07
-1.03476e-06 5.35266e-07 9.0736e-05
0.00137318 -4.67234e-05 -2.11002e-07
-4.67234e-05 1.5851e-05 1.0405e-06
-2.11002e-07 1.0405e-06 -6.10737e-05
0.00130795 -6.38443e-05 2.62778e-07
-6.38443e-05 6.10719e-05 8.68359e-07
2.62778e-07 8.68359e-07 -1.67359e-05
0.00103323 -7.0529e-05 -1.53257e-06
-7.0529e-05 1.79195e-06 7.47918e-07
-1.53257e-06 7.47918e-07 -9.0291e-05
0.00130892 -7.12391e-05 9.22532e-07
-7.12391e-05 8.13893e-05 -1.857e-06
9.22532e-07 -1.857e-06 5.89839e-06
0.00103364 -3.63915e-05 -1.55146e-06
-3.63915e-05 7.42823e-05 2.82042e-07
-1.55146e-06 2.82042e-07 5.26081e-06
0.00102114 -5.76743e-05 -1.41607e-06
-5.76743e-05 7.21315e-05 -3.89024e-08
-1.41607e-06 -3.89024e-08 -7.16946e-06
0.000873806 1.60966e-05 -1.38064e-06
1.60966e-05 -7.14899e-06 2.23653e-06
-1.38064e-06 2.23653e-06 -4.47018e-05
0.00089561 -7.9987e-06 -6.33918e-07
-7.9987e-06 4.21742e-06 9.26296e-07
-6.33918e-07 9.26296e-07 -6.164e-05
0.00157963 1.32106e-05 -1.10882e-07
1.32106e-05 8.59855e-05 1.88895e-07
-1.10882e-07 1.88895e-07 -4.57983e-06
0.00166754 -7.87117e-06 -3.49188e-07
-7.87117e-06 0.000145691 1.22501e-07
-3.49188e-07 1.22501e-07 6.07937e-05
0.00157558 1.37845e-05 -7.30462e-07
1.37845e-05 8.08152e-05 3.02182e-07
-7.30462e-07 3.02182e-07 -8.52571e-06
0.0015305 -2.55679e-05 -2.02058e-07
-2.55679e-05 6.73777e-05 -3.43043e-07
-2.02058e-07 -3.43043e-07 -1.44081e-05
0.00102142 -4.6502e-05 2.98333e-08
-4.6502e-05 7.1919e-05 -1.15224e-08
2.98333e-08 -1.15224e-08 2.38394e-06
0.000875324 -5.85189e-05 3.33603e-07
-5.85189e-05 -1.69123e-06 -2.14269e-07
3.33603e-07 -2.14269e-07 -8.06626e-05
0.00111363 -7.26781e-05 5.09366e-08
-7.26781e-05 8.97566e-05 -1.60556e-07
5.09366e-08 -1.60556e-07 -3.81182e-06
0.00139445 -6.05611e-05 -6.13371e-07
-6.05611e-05 7.19232e-05 -2.27923e-07
-6.13371e-07 -2.27923e-07 -5.59096e-06
0.00150876 -4.67468e-05 2.81635e-07
-4.67468e-05 6.79868e-05 8.2767e-07
2.81635e-07 8.2767e-07 -2.03076e-06
0.00128562 -8.02176e-05 -8.24491e-08
-8.02176e-05 0.000111942 5.51349e-07
-8.24491e-08 5.51349e-07 1.68053e-05
0.00130433 -6.44742e-05 2.35987e-09
-6.44742e-05 4.71484e-05 6.22067e-07
2.35987e-09 6.22067e-07 -2.2994e-05
0.00143626 -7.52116e-05 7.56661e-07
-7.52116e-05 0.000131398 -1.78358e-06
7.56661e-07 -1.78358e-06 5.80738e-05
0.00105373 -6.05157e-05 1.09455e-07
-6.05157e-05 8.61601e-05 -1.71765e-09
1.09455e-07 -1.71765e-09 9.28111e-06
0.00110186 -6.3383e-05 -2.02867e-09
-6.3383e-05 0.000111452 1.04585e-07
-2.02867e-09 1.04585e-07 3.03377e-05
0.0010363 -5.0752e-05 -2.76479e-07
-5.0752e-05 8.63059e-05 1.51199e-07
-2.76479e-07 1.51199e-07 6.44513e-06
0.00076047 1.98176e-05 -2.43893e-07
1.98176e-05 -6.81544e-05 3.01676e-08
-2.43893e-07 3.01676e-08 -0.000102962
0.000839082 1.16145e-06 1.85547e-07
1.16145e-06 -2.69719e-05 -4.38139e-07
1.85547e-07 -4.38139e-07 -8.72765e-05
0.00164804 1.88925e-05 1.85735e-06
1.88925e-05 0.000103906 9.49319e-08
1.85735e-06 9.49319e-08 1.13064e-05
0.0015927 7.4143e-06 2.20853e-06
7.4143e-06 7.82096e-05 1.56784e-07
2.20853e-06 1.56784e-07 -1.03656e-05
0.00156903 -2.8944e-05 1.92181e-06
-2.8944e-05 6.55153e-05 -2.20619e-06
1.92181e-06 -2.20619e-06 -1.15161e-05
0.00132655 -5.3623e-05 7.0332e-07
-5.3623e-05 3.69436e-06 -1.40208e-06
7.0332e-07 -1.40208e-06 -6.38018e-05
0.00101281 -6.06612e-05 3.43495e-07
-6.06612e-05 6.84504e-05 3.11116e-07
3.43495e-07 3.11116e-07 -7.87865e-06
0.00168262 -7.37136e-05 3.73726e-07
-7.37136e-05 0.000208685 5.15808e-07
3.73726e-07 5.15808e-07 0.00014679
0.000605909 -5.33754e-05 4.46769e-07
-5.33754e-05 -0.000133221 -2.02377e-06
4.46769e-07 -2.02377e-06 -0.000219562
0.00117741 -7.91435e-05 2.98521e-06
-7.91435e-05 0.00010723 -1.91826e-06
2.98521e-06 -1.91826e-06 2.39455e-06
0.00142655 -8.58974e-05 2.54455e-06
-8.58974e-05 0.000157691 1.53474e-06
2.54455e-06 1.53474e-06 6.02669e-05
0.000672187 1.50191e-05 9.59988e-07
1.50191e-05 -0.000115842 -2.41423e-06
9.59988e-07 -2.41423e-06 -0.000148863
0.00104263 -1.53483e-06 1.01311e-06
-1.53483e-06 7.69294e-05 -1.16862e-06
1.01311e-06 -1.16862e-06 2.25313e-05
0.001019 -3.79521e-05 5.64231e-07
-3.79521e-05 7.54915e-05 -6.83169e-07
5.64231e-07 -6.83169e-07 2.14849e-06
0.00105433 -6.20789e-05 1.8524e-07
-6.20789e-05 8.51489e-05 7.66079e-07
1.8524e-07 7.66079e-07 6.68491e-06
0.00112836 -6.42706e-05 7.46747e-07
-6.42706e-05 0.000134712 7.6096e-07
7.46747e-07 7.6096e-07 4.70779e-05
0.0010418 -6.22029e-05 2.04223e-07
-6.22029e-05 7.6359e-05 5.91392e-07
2.04223e-07 5.91392e-07 -6.13144e-06
0.000811772 -2.00579e-05 -2.51596e-06
-2.00579e-05 -4.21864e-05 -3.55534e-06
-2.51596e-06 -3.55534e-06 -4.87932e-05
0.000898376 -1.32354e-05 -1.52914e-06
-1.32354e-05 3.88328e-06 -2.27682e-06
-1.52914e-06 -2.27682e-06 -3.49034e-05
0.00133978 5.57414e-05 -5.22164e-07
5.57414e-05 6.73522e-05 1.55483e-07
-5.22164e-07 1.55483e-07 -1.74216e-05
0.000970191 1.0276e-05 -8.8422e-07
1.0276e-05 4.39339e-05 -1.30878e-06
-8.8422e-07 -1.30878e-06 -2.0439e-05
0.000971225 2.82649e-05 -1.3772e-06
2.82649e-05 4.67352e-05 -4.24047e-07
-1.3772e-06 -4.24047e-07 -2.21009e-05
0.000950487 4.8653e-05 -5.64797e-07
4.8653e-05 3.91133e-05 -1.06968e-07
-5.64797e-07 -1.06968e-07 -3.94734e-05
0.00115239 6.87936e-05 -7.40975e-07
6.87936e-05 6.37678e-05 -1.28133e-06
-7.40975e-07 -1.28133e-06 -1.73e-05
0.00123206 7.03783e-05 5.68356e-08
7.03783e-05 4.27837e-05 -4.42393e-07
5.68356e-08 -4.42393e-07 -4.46775e-05
0.00100419 6.02413e-05 -3.441e-07
6.02413e-05 7.7029e-05 -2.43982e-07
-3.441e-07 -2.43982e-07 -6.5816e-06
0.00115959 7.11738e-05 -1.49843e-06
7.11738e-05 0.000130548 -8.57019e-08
-1.49843e-06 -8.57019e-08 3.80775e-05
0.0013139 7.4237e-05 -1.93721e-06
7.4237e-05 0.000164957 -7.55549e-07
-1.93721e-06 -7.55549e-07 8.41576e-05
0.000898916 -1.15444e-05 1.22338e-07
-1.15444e-05 1.26316e-06 3.89845e-08
1.22338e-07 3.89845e-08 -3.37576e-05
0.000968026 5.77436e-06 3.02331e-08
5.77436e-06 3.93424e-05 1.60007e-08
3.02331e-08 1.60007e-08 -2.00554e-05
0.00105169 5.78343e-05 -2.27213e-07
5.78343e-05 9.07025e-05 -1.8944e-07
-2.27213e-07 -1.8944e-07 1.12877e-05
0.00102811 4.13801e-05 2.95107e-08
4.13801e-05 7.88852e-05 -4.61334e-08
2.95107e-08 -4.61334e-08 2.54168e-06
0.000989515 5.47551e-05 -2.72233e-07
5.47551e-05 6.31719e-05 -1.22709e-07
-2.72233e-07 -1.22709e-07 -2.08648e-05
0.00134726 5.63351e-05 -4.61329e-07
5.63351e-05 5.5689e-05 3.17063e-08
-4.61329e-07 3.17063e-08 -2.97326e-05
0.00120122 7.43079e-05 6.02603e-07
7.43079e-05 7.31706e-05 -9.95856e-08
6.02603e-07 -9.95856e-08 -1.11863e-05
0.00119619 7.44751e-05 2.98887e-07
7.44751e-05 2.3138e-05 5.16847e-07
2.98887e-07 5.16847e-07 -6.08477e-05
0.000892956 6.13982e-05 4.00196e-07
6.13982e-05 2.26846e-05 8.18813e-07
4.00196e-07 8.18813e-07 -7.15045e-05
0.00120129 7.64046e-05 -1.14185e-07
7.64046e-05 0.000120227 -3.35359e-07
-1.14185e-07 -3.35359e-07 2.2292e-05
0.00095555 5.08265e-06 7.40086e-07
5.08265e-06 3.13384e-05 1.34229e-06
7.40086e-07 1.34229e-06 -2.34341e-05
0.000923541 2.98438e-05 9.17239e-07
2.98438e-05 2.121e-05 1.00964e-06
9.17239e-07 1.00964e-06 -5.2167e-05
0.00113607 6.71641e-05 -5.63855e-08
6.71641e-05 0.000138075 -1.22587e-07
-5.63855e-08 -1.22587e-07 5.04345e-05
0.000949661 5.07776e-05 2.84117e-07
5.07776e-05 4.18059e-05 -2.74313e-07
2.84117e-07 -2.74313e-07 -4.28652e-05
0.00100308 5.73508e-05 -1.89116e-07
5.73508e-05 6.54487e-05 -7.44007e-07
-1.89116e-07 -7.44007e-07 -2.1699e-05
0.00135394 5.65074e-05 -8.09695e-07
5.65074e-05 1.88911e-05 -4.46916e-07
-8.09695e-07 -4.46916e-07 -4.9484e-05
0.00142391 8.65807e-05 1.3133e-06
8.65807e-05 0.000181653 -1.8631e-07
1.3133e-06 -1.8631e-07 8.7074e-05
0.000548799 6.40747e-05 7.90447e-07
6.40747e-05 -0.000318171 -4.32802e-07
7.90447e-07 -4.32802e-07 -0.000401008
0.00146376 8.09337e-05 2.55808e-06
8.09337e-05 0.000294549 2.82964e-06
2.55808e-06 2.82964e-06 0.000193398
0.000350816 5.61095e-05 5.33075e-07
5.61095e-05 -0.000305839 2.54735e-07
5.33075e-07 2.54735e-07 -0.000415532
0.000909374 -6.7405e-06 -1.20597e-06
-6.7405e-06 3.99926e-06 -1.95838e-06
-1.20597e-06 -1.95838e-06 -2.80325e-05
0.000871647 3.81362e-06 3.69178e-07
3.81362e-06 -1.16229e-05 5.86371e-07
3.69178e-07 5.86371e-07 -6.35544e-05
0.000889146 1.18021e-05 4.94225e-07
1.18021e-05 1.57649e-06 1.22086e-06
4.94225e-07 1.22086e-06 -6.34298e-05
0.000813613 -4.87292e-06 -4.8949e-07
-4.87292e-06 -4.11899e-05 -1.06822e-06
-4.8949e-07 -1.06822e-06 -9.05805e-05
0.000952236 1.13673e-05 1.53371e-07
1.13673e-05 3.25153e-05 -7.23123e-09
1.53371e-07 -7.23123e-09 -1.46454e-05
0.00103034 5.44314e-06 -4.28079e-08
5.44314e-06 7.50543e-05 -4.88148e-07
-4.28079e-08 -4.88148e-07 1.43741e-05
0.00112548 2.07547e-05 2.52995e-07
2.07547e-05 0.000128074 2.2686e-07
2.52995e-07 2.2686e-07 5.79339e-05
0.000870764 -8.60012e-06 9.60863e-08
-8.60012e-06 -4.88002e-06 1.02502e-06
9.60863e-08 1.02502e-06 -6.54543e-05
0.00094766 -1.5582e-05 8.56029e-08
-1.5582e-05 2.99427e-05 9.68354e-07
8.56029e-08 9.68354e-07 -1.55902e-05
0.000933782 5.55991e-06 6.55495e-07
5.55991e-06 1.05656e-05 1.66358e-06
6.55495e-07 1.66358e-06 -1.53847e-05
0.000927922 -3.49823e-06 -1.22485e-07
-3.49823e-06 8.4784e-06 3.00165e-08
-1.22485e-07 3.00165e-08 -1.81176e-05
0.00140887 -1.22678e-05 1.31798e-06
-1.22678e-05 0.000248253 1.95509e-06
1.31798e-06 1.95509e-06 0.000251741
0.00092752 -3.99333e-06 -5.42443e-07
-3.99333e-06 1.00427e-05 -1.86086e-06
-5.42443e-07 -1.86086e-06 -1.8037e-05
0.00143566 -1.51122e-05 -2.36373e-06
-1.51122e-05 0.000265609 -1.21167e-06
-2.36373e-06 -1.21167e-06 0.000267791
0.00110732 -1.3884e-05 1.16052e-05
-1.3884e-05 9.7033e-05 6.36333e-06
1.16052e-05 6.36333e-06 0.000113448
0.00146667 -1.75093e-05 -6.89328e-06
-1.75093e-05 0.000285126 -4.51425e-06
-6.89328e-06 -4.51425e-06 0.000285762
0.0010567 -1.75754e-05 4.71722e-06
-1.75754e-05 7.57175e-05 2.4696e-06
4.71722e-06 2.4696e-06 9.0693e-05
0.00225222 -3.07422e-05 -5.64997e-06
-3.07422e-05 0.000696341 -1.64777e-06
-5.64997e-06 -1.64777e-06 0.00071573
0.000822392 1.96303e-05 1.84518e-06
1.96303e-05 -4.02345e-05 -3.24861e-06
1.84518e-06 -3.24861e-06 -4.42127e-05
0.000829258 2.19256e-05 -1.12411e-07
2.19256e-05 -3.22282e-05 3.37524e-08
-1.12411e-07 3.37524e-08 -3.83028e-05
0.00231757 3.24799e-05 1.74782e-05
3.24799e-05 0.000735098 -3.76474e-06
1.74782e-05 -3.76474e-06 0.000753442
0.000833198 2.44018e-05 -2.97558e-06
2.44018e-05 -2.52425e-05 3.53419e-06
-2.97558e-06 3.53419e-06 -3.40273e-05
0.00238928 3.64255e-05 -6.27488e-07
3.64255e-05 0.000778457 -6.25191e-08
-6.27488e-07 -6.25191e-08 0.00079493
0.00249754 4.0365e-05 -2.40907e-05
4.0365e-05 0.000840394 3.91219e-06
-2.40907e-05 3.91219e-06 0.000854666
0.0014046 4.49576e-05 -1.15882e-06
4.49576e-05 6.86082e-05 -2.20183e-07
-1.15882e-06 -2.20183e-07 -1.54497e-05
0.0015369 1.51496e-05 -9.34691e-07
1.51496e-05 8.42873e-05 -5.31424e-07
-9.34691e-07 -5.31424e-07 3.84647e-08
0.00152639 2.61969e-05 1.48686e-06
2.61969e-05 7.35264e-05 2.88316e-07
1.48686e-06 2.88316e-07 -2.63357e-06
0.00164741 -9.563e-06 -9.94694e-07
-9.563e-06 0.000104558 -9.21493e-07
-9.94694e-07 -9.21493e-07 1.99318e-05
0.00154364 -9.51285e-06 -1.44663e-06
-9.51285e-06 5.74868e-05 -8.59513e-07
-1.44663e-06 -8.59513e-07 -3.41416e-05
0.00150626 1.51244e-05 -3.21707e-06
1.51244e-05 6.28479e-05 -4.90696e-07
-3.21707e-06 -4.90696e-07 -2.58868e-05
0.00157658 4.83647e-06 1.49968e-07
4.83647e-06 7.02799e-05 -3.56123e-07
1.49968e-07 -3.56123e-07 -2.27839e-05
0.00161111 -1.9467e-06 1.58304e-07
-1.9467e-06 8.37791e-05 -2.695e-07
1.58304e-07 -2.695e-07 -7.04675e-06
0.00147275 7.05561e-06 -1.16776e-07
7.05561e-06 2.29841e-05 1.96617e-07
-1.16776e-07 1.96617e-07 -5.76051e-05
0.00167926 -1.4278e-05 -1.64009e-07
-1.4278e-05 0.000113035 -5.29795e-07
-1.64009e-07 -5.29795e-07 2.84033e-05
0.00140741 4.01562e-05 -3.1904e-07
4.01562e-05 4.69613e-05 -7.65918e-08
-3.1904e-07 -7.65918e-08 -3.3363e-05
0.00159812 1.9441e-05 1.61029e-06
1.9441e-05 8.90927e-05 -5.098e-07
1.61029e-06 -5.098e-07 2.12865e-05
0.00161667 1.21109e-05 1.20535e-06
1.21109e-05 7.89044e-05 4.25274e-07
1.20535e-06 4.25274e-07 -1.54532e-05
0.0016303 -9.31859e-06 1.10827e-06
-9.31859e-06 9.07996e-05 7.74347e-07
1.10827e-06 7.74347e-07 1.7569e-06
0.00159825 -1.08544e-06 5.23346e-07
-1.08544e-06 6.84646e-05 1.65884e-06
5.23346e-07 1.65884e-06 -8.62292e-06
0.00159389 3.55356e-05 -9.46682e-07
3.55356e-05 9.9343e-05 -3.60122e-07
-9.46682e-07 -3.60122e-07 3.35498e-05
0.001574 1.35537e-05 -2.14317e-06
1.35537e-05 8.33912e-05 6.63251e-07
-2.14317e-06 6.63251e-07 -7.15797e-06
0.00168109 -7.17968e-06 -3.05473e-06
-7.17968e-06 0.0001526 1.89558e-07
-3.05473e-06 1.89558e-07 6.79237e-05
0.00151148 1.34725e-05 -3.02867e-06
1.34725e-05 5.05671e-05 1.94456e-07
-3.02867e-06 1.94456e-07 -3.87398e-05
0.00157581 -2.59351e-05 -1.25399e-06
-2.59351e-05 8.9895e-05 4.583e-07
-1.25399e-06 4.583e-07 8.2709e-06
0.00105576 -4.52055e-05 -1.3828e-06
-4.52055e-05 8.78265e-05 2.07777e-07
-1.3828e-06 2.07777e-07 1.84343e-05
0.000960968 -6.04214e-05 -2.98288e-09
-6.04214e-05 4.13673e-05 3.5108e-07
-2.98288e-09 3.5108e-07 -3.68115e-05
0.00111982 -7.26376e-05 -1.2413e-06
-7.26376e-05 9.42244e-05 1.98473e-06
-1.2413e-06 1.98473e-06 4.05303e-07
0.00152245 -6.23295e-05 -5.30915e-07
-6.23295e-05 0.000135941 4.22208e-07
-5.30915e-07 4.22208e-07 5.76737e-05
0.00135469 -4.59387e-05 -4.75047e-07
-4.59387e-05 -1.26307e-06 2.19529e-06
-4.75047e-07 2.19529e-06 -6.90452e-05
0.00131092 -6.40521e-05 1.06094e-06
-6.40521e-05 5.16086e-05 9.71984e-07
1.06094e-06 9.71984e-07 -1.84625e-05
0.00129186 -7.98676e-05 -1.95269e-06
-7.98676e-05 0.000116628 4.25652e-08
-1.95269e-06 4.25652e-08 2.0645e-05
0.00117516 -6.89584e-05 -1.45872e-06
-6.89584e-05 1.35904e-06 -5.00072e-06
-1.45872e-06 -5.00072e-06 -6.94965e-05
0.00108394 -6.14472e-05 -6.49498e-07
-6.14472e-05 0.00010078 -3.41856e-07
-6.49498e-07 -3.41856e-07 2.39132e-05
0.00105946 -6.19278e-05 -1.03637e-06
-6.19278e-05 8.91023e-05 -9.21926e-07
-1.03637e-06 -9.21926e-07 8.13719e-06
0.00104822 -4.49608e-05 -8.5115e-07
-4.49608e-05 9.19685e-05 8.65628e-07
-8.5115e-07 8.65628e-07 1.23131e-05
0.000629457 1.98953e-05 -9.32648e-07
1.98953e-05 -0.000135053 1.99714e-06
-9.32648e-07 1.99714e-06 -0.000170818
0.000888497 8.18412e-06 -2.13534e-07
8.18412e-06 -3.90211e-06 8.7006e-07
-2.13534e-07 8.7006e-07 -6.29376e-05
0.00157886 1.76395e-05 -1.27898e-07
1.76395e-05 7.15672e-05 1.193e-07
-1.27898e-07 1.193e-07 -2.05517e-05
0.00163473 6.48903e-06 -1.89518e-07
6.48903e-06 0.000100655 1.18297e-07
-1.89518e-07 1.18297e-07 1.23374e-05
0.00162679 -2.93773e-05 -9.6984e-07
-2.93773e-05 9.82394e-05 1.8148e-07
-9.6984e-07 1.8148e-07 2.17727e-05
0.00105936 -6.16456e-05 3.85479e-08
-6.16456e-05 9.03425e-05 1.23493e-07
3.85479e-08 1.23493e-07 1.40042e-05
0.000892502 -6.17592e-05 6.45912e-07
-6.17592e-05 8.03684e-06 -5.38135e-07
6.45912e-07 -5.38135e-07 -7.74565e-05
0.00114929 -7.79707e-05 -1.25976e-07
-7.79707e-05 9.61243e-05 -2.83199e-07
-1.25976e-07 -2.83199e-07 -9.21935e-06
0.00140027 -5.4261e-05 3.60028e-07
-5.4261e-05 3.89435e-05 -4.29129e-07
3.60028e-07 -4.29129e-07 -2.96838e-05
0.00137271 -8.25015e-05 -2.03773e-07
-8.25015e-05 0.000132925 -4.33203e-07
-2.03773e-07 -4.33203e-07 3.8439e-05
0.00139024 -7.05636e-05 -5.79413e-07
-7.05636e-05 6.63267e-05 -7.22971e-07
-5.79413e-07 -7.22971e-07 3.89816e-06
0.000664096 1.90151e-05 1.02616e-10
1.90151e-05 -0.000119996 -6.05683e-07
1.02616e-10 -6.05683e-07 -0.000152736
0.00106825 -6.2477e-05 4.40357e-08
-6.2477e-05 9.2153e-05 1.1304e-07
4.40357e-08 1.1304e-07 1.35377e-05
0.00101598 -6.1195e-05 -7.7982e-07
-6.1195e-05 6.37752e-05 -5.10096e-08
-7.7982e-07 -5.10096e-08 -1.78034e-05
0.00111883 -6.08085e-05 -3.97117e-07
-6.08085e-05 0.000129473 5.44509e-07
-3.97117e-07 5.44509e-07 4.18596e-05
0.00108944 -3.78532e-05 -2.14614e-08
-3.78532e-05 0.000110571 1.66149e-08
-2.14614e-08 1.66149e-08 3.76212e-05
0.000936277 1.00692e-06 4.18848e-08
1.00692e-06 2.14897e-05 1.75074e-07
4.18848e-08 1.75074e-07 -3.31565e-05
0.00171421 2.11272e-05 2.09058e-06
2.11272e-05 0.000133459 3.76647e-07
2.09058e-06 3.76647e-07 4.1318e-05
0.00164778 6.75838e-06 2.307e-06
6.75838e-06 8.68068e-05 -1.83618e-07
2.307e-06 -1.83618e-07 -1.49373e-06
0.0014085 -3.51751e-05 2.48348e-06
-3.51751e-05 -1.51186e-05 -3.14243e-06
2.48348e-06 -3.14243e-06 -8.61542e-05
0.00159186 -6.43481e-05 1.21699e-06
-6.43481e-05 9.13677e-05 -1.40989e-06
1.21699e-06 -1.40989e-06 3.80298e-05
0.00103429 -6.29821e-05 9.82872e-08
-6.29821e-05 7.88525e-05 6.53048e-08
9.82872e-08 6.53048e-08 -1.13218e-06
0.00144521 -8.25622e-05 3.31466e-06
-8.25622e-05 0.000111943 2.52813e-06
3.31466e-06 2.52813e-06 2.94953e-05
0.000848808 -6.43527e-05 1.3114e-07
-6.43527e-05 -1.61634e-05 -2.82148e-06
1.3114e-07 -2.82148e-06 -0.000115241
0.00141144 -8.86845e-05 2.35134e-06
-8.86845e-05 0.000213683 -5.18588e-07
2.35134e-06 -5.18588e-07 9.92755e-05
0.000672827 1.46664e-05 7.42976e-07
1.46664e-05 -0.000117302 -2.37076e-06
7.42976e-07 -2.37076e-06 -0.00014791
0.00106395 -3.59533e-07 9.12246e-07
-3.59533e-07 8.69906e-05 -1.11205e-06
9.12246e-07 -1.11205e-06 3.73077e-05
0.00115844 -3.22544e-05 9.04418e-08
-3.22544e-05 0.000142548 2.12525e-07
9.04418e-08 2.12525e-07 7.46812e-05
0.00103998 -4.50755e-05 5.93439e-07
-4.50755e-05 9.04224e-05 -9.44751e-07
5.93439e-07 -9.44751e-07 4.27346e-06
0.00105244 -6.29984e-05 1.63241e-07
-6.29984e-05 8.28348e-05 3.68083e-07
1.63241e-07 3.68083e-07 1.38912e-06
0.00103875 -6.26528e-05 6.50397e-07
-6.26528e-05 8.04109e-05 1.25394e-06
6.50397e-07 1.25394e-06 -7.66143e-06
0.000901475 -1.14519e-05 -1.31563e-06
-1.14519e-05 2.32857e-06 -2.11754e-06
-1.31563e-06 -2.11754e-06 -3.25937e-05
0.000972371 5.07634e-06 -7.88166e-07
5.07634e-06 4.17277e-05 -1.41444e-06
-7.88166e-07 -1.41444e-06 -1.7706e-05
0.00137237 5.85678e-05 -2.13068e-08
5.85678e-05 6.92847e-05 3.07969e-07
-2.13068e-08 3.07969e-07 -1.67172e-05
0.00102478 4.29024e-05 -7.58514e-07
4.29024e-05 7.76464e-05 -4.9955e-07
-7.58514e-07 -4.9955e-07 1.0225e-06
0.00105164 5.80776e-05 -5.0523e-07
5.80776e-05 9.18544e-05 -1.62082e-08
-5.0523e-07 -1.62082e-08 1.28413e-05
0.0009483 5.61775e-05 -6.27624e-07
5.61775e-05 4.37651e-05 1.62136e-07
-6.27624e-07 1.62136e-07 -4.10514e-05
0.00121627 7.4415e-05 -9.35689e-07
7.4415e-05 7.93627e-05 -1.36089e-06
-9.35689e-07 -1.36089e-06 -5.09614e-06
0.00132021 7.62548e-05 2.57973e-07
7.62548e-05 8.13071e-05 3.15191e-07
2.57973e-07 3.15191e-07 -1.90611e-06
0.000771287 5.78266e-05 -2.79767e-07
5.78266e-05 -3.7801e-05 -2.38313e-07
-2.79767e-07 -2.38313e-07 -0.000132445
0.00122913 7.74134e-05 -1.68227e-06
7.74134e-05 0.000134796 -3.63003e-07
-1.68227e-06 -3.63003e-07 3.51067e-05
0.000961779 3.95367e-06 1.61281e-08
3.95367e-06 3.43683e-05 4.96986e-08
1.61281e-08 4.96986e-08 -2.03959e-05
0.000968822 3.4484e-05 3.94953e-07
3.4484e-05 4.52469e-05 3.83309e-07
3.94953e-07 3.83309e-07 -2.83923e-05
0.00113478 6.70526e-05 -1.36551e-07
6.70526e-05 0.000138625 -5.71478e-07
-1.36551e-07 -5.71478e-07 5.16671e-05
0.00100472 5.26096e-05 -2.02123e-07
5.26096e-05 7.08662e-05 -3.55927e-08
-2.02123e-07 -3.55927e-08 -1.37375e-05
0.00099728 5.78731e-05 -8.91515e-07
5.78731e-05 6.58545e-05 -3.90602e-07
-8.91515e-07 -3.90602e-07 -2.108e-05
0.00163236 5.9381e-05 -9.03468e-07
5.9381e-05 0.000154061 -4.25065e-07
-9.03468e-07 -4.25065e-07 8.5657e-05
0.00144606 8.6906e-05 9.06836e-07
8.6906e-05 0.000188788 4.92186e-08
9.06836e-07 4.92186e-08 9.5132e-05
0.0009278 7.21515e-05 -5.41663e-07
7.21515e-05 -0.000123202 7.41821e-07
-5.41663e-07 7.41821e-07 -0.000203742
0.00122984 7.40029e-05 1.06741e-06
7.40029e-05 0.000179808 1.11633e-06
1.06741e-06 1.11633e-06 7.8029e-05
0.000784262 6.88048e-05 -1.35281e-06
6.88048e-05 -9.0898e-05 -4.56993e-07
-1.35281e-06 -4.56993e-07 -0.000203008
0.000933245 2.43516e-05 8.41991e-07
2.43516e-05 2.41434e-05 1.25077e-06
8.41991e-07 1.25077e-06 -4.47166e-05
0.000927438 5.00895e-05 5.924e-07
5.00895e-05 2.88201e-05 5.419e-08
5.924e-07 5.419e-08 -5.62759e-05
0.00113891 6.80793e-05 2.9468e-07
6.80793e-05 0.000139682 3.3652e-07
2.9468e-07 3.3652e-07 4.52383e-05
0.000807696 5.33609e-05 7.15447e-07
5.33609e-05 -2.93499e-05 -2.33483e-07
7.15447e-07 -2.33483e-07 -0.000120633
0.00218494 4.65468e-05 4.19109e-07
4.65468e-05 0.000329875 1.09627e-06
4.19109e-07 1.09627e-06 0.000270575
0.00112405 7.03734e-05 2.39823e-06
7.03734e-05 -0.000115555 -4.21111e-07
2.39823e-06 -4.21111e-07 -0.000178926
0.00127462 8.81327e-05 1.6796e-06
8.81327e-05 9.81362e-05 -1.09145e-06
1.6796e-06 -1.09145e-06 -8.71416e-06
0.000712027 6.26989e-05 8.79163e-07
6.26989e-05 -8.17262e-05 2.00733e-06
8.79163e-07 2.00733e-06 -0.000202843
0.000943602 9.55776e-06 -1.76843e-07
9.55776e-06 2.59294e-05 -6.97012e-07
-1.76843e-07 -6.97012e-07 -2.58959e-05
0.000966282 1.92856e-05 1.46721e-07
1.92856e-05 4.17445e-05 4.42277e-07
1.46721e-07 4.42277e-07 -2.32217e-05
0.00104663 2.72146e-05 3.48402e-07
2.72146e-05 8.61628e-05 6.13149e-07
3.48402e-07 6.13149e-07 1.18634e-05
0.000958121 1.05654e-05 -6.02451e-07
1.05654e-05 3.52465e-05 -1.04886e-06
-6.02451e-07 -1.04886e-06 -1.17413e-05
0.000891879 1.10715e-06 -1.54852e-07
1.10715e-06 3.4304e-06 -1.2642e-06
-1.54852e-07 -1.2642e-06 -5.81599e-05
0.000952595 -4.32724e-06 4.41429e-07
-4.32724e-06 3.24905e-05 1.65348e-08
4.41429e-07 1.65348e-08 -1.31439e-05
0.00105098 2.38671e-05 -5.98805e-08
2.38671e-05 8.98909e-05 -4.12167e-07
-5.98805e-08 -4.12167e-07 1.82727e-05
0.000915037 1.76389e-06 1.92504e-07
1.76389e-06 1.87847e-05 3.90531e-07
1.92504e-07 3.90531e-07 -4.19035e-05
0.00110614 2.78853e-05 3.75592e-07
2.78853e-05 0.000118615 3.27104e-07
3.75592e-07 3.27104e-07 4.00516e-05
0.000882068 -8.89649e-06 -9.10927e-08
-8.89649e-06 4.07039e-06 9.55765e-07
-9.10927e-08 9.55765e-07 -6.61638e-05
0.000870296 2.60745e-05 4.09391e-07
2.60745e-05 -2.0312e-06 9.85362e-07
4.09391e-07 9.85362e-07 -6.27625e-05
0.000968718 -1.99462e-05 -4.11462e-07
-1.99462e-05 4.01805e-05 9.25309e-07
-4.11462e-07 9.25309e-07 -4.5453e-06
0.000919462 7.6963e-06 5.11148e-07
7.6963e-06 3.83405e-06 1.58367e-06
5.11148e-07 1.58367e-06 -2.20432e-05
0.000925049 -2.22053e-06 -2.6168e-07
-2.22053e-06 6.17076e-06 3.01603e-08
-2.6168e-07 3.01603e-08 -1.97305e-05
0.00140237 -8.11005e-06 1.01762e-06
-8.11005e-06 0.00024239 1.87129e-06
1.01762e-06 1.87129e-06 0.000246495
0.000923976 -9.1746e-06 -9.31114e-08
-9.1746e-06 6.65822e-06 -1.74942e-06
-9.31114e-08 -1.74942e-06 -1.99472e-05
0.00142609 -1.14686e-05 -1.84305e-06
-1.14686e-05 0.000257207 -1.18929e-06
-1.84305e-06 -1.18929e-06 0.000260699
0.00109704 -1.08799e-05 8.81707e-06
-1.08799e-05 8.78743e-05 6.22672e-06
8.81707e-06 6.22672e-06 0.000105395
0.00145205 -1.44823e-05 -5.1241e-06
-1.44823e-05 0.000273878 -4.40647e-06
-5.1241e-06 -4.40647e-06 0.000276168
0.00105014 -1.46301e-05 3.45385e-06
-1.46301e-05 6.76962e-05 2.4281e-06
3.45385e-06 2.4281e-06 8.41699e-05
0.000996238 -1.79609e-05 -2.36239e-06
-1.79609e-05 4.48781e-05 -1.62489e-06
-2.36239e-06 -1.62489e-06 5.99209e-05
0.000831209 1.71234e-05 1.4732e-06
1.71234e-05 -4.04735e-05 -3.21909e-06
1.4732e-06 -3.21909e-06 -4.25284e-05
0.000838376 1.9682e-05 -1.20685e-07
1.9682e-05 -3.23452e-05 1.9079e-08
-1.20685e-07 1.9079e-08 -3.63802e-05
0.00226534 2.81421e-05 1.51341e-05
2.81421e-05 0.000702648 -3.78979e-06
1.51341e-05 -3.78979e-06 0.000722488
0.000845997 2.20599e-05 -2.50983e-06
2.20599e-05 -2.40223e-05 3.33165e-06
-2.50983e-06 3.33165e-06 -3.01769e-05
0.00232045 3.23501e-05 -6.99e-07
3.23501e-05 0.000737239 -5.45404e-08
-6.99e-07 -5.45404e-08 0.000755413
0.00239672 3.61527e-05 -2.16066e-05
3.61527e-05 0.000782912 3.87746e-06
-2.16066e-05 3.87746e-06 0.000799176
0.00146328 4.15508e-05 8.83655e-07
4.15508e-05 7.62253e-05 7.55095e-07
8.83655e-07 7.55095e-07 -4.45216e-06
0.00153574 5.38152e-06 -5.0507e-07
5.38152e-06 5.23881e-05 -6.90496e-07
-5.0507e-07 -6.90496e-07 -2.88167e-05
0.00141941 1.93507e-05 2.61134e-06
1.93507e-05 1.57862e-06 -2.0775e-06
2.61134e-06 -2.0775e-06 -6.3672e-05
0.00153037 -1.39046e-05 -1.29896e-06
-1.39046e-05 3.82149e-05 -1.47248e-06
-1.29896e-06 -1.47248e-06 -4.65648e-05
0.00162107 -4.71083e-06 -7.98832e-07
-4.71083e-06 9.00081e-05 -1.34518e-06
-7.98832e-07 -1.34518e-06 -6.71505e-07
0.00158559 3.98421e-06 -1.77995e-06
3.98421e-06 7.40182e-05 -5.45739e-07
-1.77995e-06 -5.45739e-07 -1.92937e-05
0.00163283 1.42958e-05 8.90582e-08
1.42958e-05 8.97968e-05 -3.95678e-08
8.90582e-08 -3.95678e-08 -3.88299e-06
0.00159582 -1.33514e-05 -8.81286e-08
-1.33514e-05 7.43653e-05 -1.51739e-07
-8.81286e-08 -1.51739e-07 -1.46752e-05
0.00158293 -5.61114e-07 6.97018e-07
-5.61114e-07 6.20682e-05 -1.61314e-07
6.97018e-07 -1.61314e-07 -1.46936e-05
0.001487 3.22351e-05 7.81502e-09
3.22351e-05 4.2825e-05 -5.64095e-07
7.81502e-09 -5.64095e-07 -2.27061e-05
0.00163496 7.97926e-06 9.76702e-07
7.97926e-06 9.31995e-05 6.74608e-07
9.76702e-07 6.74608e-07 8.39064e-07
0.001787 -2.13748e-05 1.23485e-06
-2.13748e-05 0.000160572 1.00838e-06
1.23485e-06 1.00838e-06 7.75495e-05
0.00157965 1.5534e-05 4.83993e-07
1.5534e-05 4.99335e-05 2.3915e-06
4.83993e-07 2.3915e-06 -1.95321e-05
0.00152248 1.65752e-05 -2.4372e-06
1.65752e-05 4.53951e-05 2.72973e-07
-2.4372e-06 2.72973e-07 -4.6229e-05
0.00167082 5.64687e-06 -2.28278e-06
5.64687e-06 0.000120231 4.85688e-07
-2.28278e-06 4.85688e-07 3.21701e-05
0.00167666 -2.98622e-05 -1.83454e-06
-2.98622e-05 0.000127038 1.69814e-06
-1.83454e-06 1.69814e-06 5.11473e-05
0.00109956 -6.23331e-05 -5.24793e-07
-6.23331e-05 0.000109102 9.40844e-08
-5.24793e-07 9.40844e-08 3.27755e-05
0.00118939 -7.04641e-05 -1.71957e-07
-7.04641e-05 0.000154269 8.06088e-07
-1.71957e-07 8.06088e-07 6.96179e-05
0.0011193 -7.67373e-05 -1.9483e-06
-7.67373e-05 8.42593e-05 2.56311e-06
-1.9483e-06 2.56311e-06 -2.16073e-05
0.00146333 -5.4808e-05 -7.96486e-07
-5.4808e-05 6.8988e-05 1.01728e-06
-7.96486e-07 1.01728e-06 -7.62939e-07
0.00111159 -6.75012e-05 -2.16659e-06
-6.75012e-05 -6.94029e-05 -8.76978e-07
-2.16659e-06 -8.76978e-07 -0.000132373
0.00132128 -7.93606e-05 -3.13473e-06
-7.93606e-05 0.000109328 -2.6376e-06
-3.13473e-06 -2.6376e-06 1.77823e-05
0.00108399 -6.29311e-05 -3.83639e-07
-6.29311e-05 0.00010007 -3.72581e-07
-3.83639e-07 -3.72581e-07 2.12983e-05
0.000981552 -5.99123e-05 -1.96451e-06
-5.99123e-05 4.70932e-05 -7.53922e-07
-1.96451e-06 -7.53922e-07 -3.35774e-05
0.00110584 -5.81356e-05 -7.51041e-07
-5.81356e-05 0.000122529 1.60188e-07
-7.51041e-07 1.60188e-07 3.49013e-05
0.00065169 2.09154e-05 -7.61278e-07
2.09154e-05 -0.000126181 1.16065e-06
-7.61278e-07 1.16065e-06 -0.000158686
0.00114403 -3.62486e-05 -5.10199e-07
-3.62486e-05 0.000137398 8.57986e-07
-5.10199e-07 8.57986e-07 6.50782e-05
0.000821432 6.42266e-06 5.45083e-08
6.42266e-06 -3.78428e-05 1.51698e-06
5.45083e-08 1.51698e-06 -9.29193e-05
0.00164587 2.09114e-05 9.54111e-09
2.09114e-05 9.94486e-05 -9.80615e-08
9.54111e-09 -9.80615e-08 7.12554e-06
0.00164158 5.0803e-06 4.87841e-07
5.0803e-06 8.23618e-05 -1.87845e-08
4.87841e-07 -1.87845e-08 -5.88574e-06
0.00148421 -3.55165e-05 -1.1271e-07
-3.55165e-05 2.00023e-05 -3.84232e-07
-1.1271e-07 -3.84232e-07 -5.24118e-05
0.00107569 -6.42354e-05 3.27249e-08
-6.42354e-05 9.82487e-05 3.53989e-07
3.27249e-08 3.53989e-07 1.80723e-05
0.000891467 -6.53354e-05 -9.95699e-08
-6.53354e-05 7.33772e-06 1.46515e-07
-9.95699e-08 1.46515e-07 -8.99052e-05
0.00143234 -8.86914e-05 -1.3481e-06
-8.86914e-05 0.000223205 1.46481e-06
-1.3481e-06 1.46481e-06 0.000109397
0.00160923 -6.60689e-05 -2.7107e-07
-6.60689e-05 0.000105525 5.71729e-07
-2.7107e-07 5.71729e-07 5.19875e-05
0.00133175 -7.97845e-05 2.95155e-07
-7.97845e-05 5.21623e-05 -9.27136e-07
2.95155e-07 -9.27136e-07 -2.97076e-05
0.000790225 1.4967e-05 1.01356e-07
1.4967e-05 -5.75019e-05 -5.76848e-07
1.01356e-07 -5.76848e-07 -8.71562e-05
0.00104587 8.95761e-06 -2.58108e-07
8.95761e-06 7.81345e-05 8.81693e-08
-2.58108e-07 8.81693e-08 2.86064e-05
0.000953541 -6.00914e-05 -6.40168e-07
-6.00914e-05 3.45179e-05 2.29563e-07
-6.40168e-07 2.29563e-07 -4.6907e-05
0.00106487 -6.32915e-05 4.93883e-07
-6.32915e-05 9.30434e-05 1.61774e-07
4.93883e-07 1.61774e-07 5.47325e-06
0.00102961 -4.31638e-05 -9.43941e-08
-4.31638e-05 8.51392e-05 -2.83191e-07
-9.43941e-08 -2.83191e-07 -4.57562e-07
0.00108407 -3.35626e-05 -6.01272e-07
-3.35626e-05 0.000105048 9.70441e-07
-6.01272e-07 9.70441e-07 3.63247e-05
0.00165063 2.552e-05 1.53752e-06
2.552e-05 9.6673e-05 1.10343e-06
1.53752e-06 1.10343e-06 5.94564e-06
0.00166499 -2.94132e-06 2.39756e-06
-2.94132e-06 8.27568e-05 -3.90921e-07
2.39756e-06 -3.90921e-07 -1.9897e-06
0.00151844 -4.81108e-05 1.97416e-06
-4.81108e-05 4.20623e-06 -3.99934e-06
1.97416e-06 -3.99934e-06 -4.67815e-05
0.00219548 -9.00314e-05 2.29197e-06
-9.00314e-05 0.000388407 -5.07446e-07
2.29197e-06 -5.07446e-07 0.000333573
0.000888909 -6.06368e-05 -4.82875e-07
-6.06368e-05 1.49427e-05 -3.35198e-07
-4.82875e-07 -3.35198e-07 -7.19079e-05
0.00139211 -9.09644e-05 2.49043e-06
-9.09644e-05 0.000173588 2.6119e-06
2.49043e-06 2.6119e-06 5.21751e-05
0.00143581 -8.5031e-05 1.39497e-06
-8.5031e-05 0.000270316 -3.78475e-06
1.39497e-06 -3.78475e-06 0.000161187
0.000916046 1.19506e-05 5.99001e-07
1.19506e-05 4.16699e-06 -1.75635e-06
5.99001e-07 -1.75635e-06 -2.26371e-05
0.000949678 -2.73444e-05 8.13514e-07
-2.73444e-05 3.15206e-05 -1.0919e-06
8.13514e-07 -1.0919e-06 -1.21068e-05
0.000793689 1.30508e-05 1.53343e-07
1.30508e-05 -4.93766e-05 -1.72642e-06
1.53343e-07 -1.72642e-06 -9.81521e-05
0.00105041 -2.50218e-05 4.28998e-07
-2.50218e-05 8.68666e-05 -4.356e-07
4.28998e-07 -4.356e-07 2.23366e-05
0.000972792 -2.413e-05 6.29922e-08
-2.413e-05 5.34313e-05 -8.35777e-07
6.29922e-08 -8.35777e-07 -2.57988e-05
0.0010271 -6.30612e-05 1.95191e-06
-6.30612e-05 8.91566e-05 9.03376e-07
1.95191e-06 9.03376e-07 -6.69241e-06
0.000813677 -5.71976e-05 4.85151e-09
-5.71976e-05 -4.25918e-05 6.16459e-07
4.85151e-09 6.16459e-07 -0.000123951
0.00169841 -8.50615e-05 2.87038e-07
-8.50615e-05 0.000423474 1.31929e-06
2.87038e-07 1.31929e-06 0.000330234
0.000967204 2.39844e-06 -5.2849e-07
2.39844e-06 3.69729e-05 -1.36868e-06
-5.2849e-07 -1.36868e-06 -1.77566e-05
0.00101391 3.91399e-05 -4.10387e-07
3.91399e-05 6.91317e-05 -3.20073e-07
-4.10387e-07 -3.20073e-07 -4.73974e-06
0.00189821 6.20409e-05 3.65183e-07
6.20409e-05 0.000282935 8.28151e-08
3.65183e-07 8.28151e-08 0.000214534
0.00106831 5.38648e-05 -6.98488e-07
5.38648e-05 0.000103839 4.60445e-08
-6.98488e-07 4.60445e-08 1.94319e-05
0.00113625 6.70429e-05 -6.33061e-07
6.70429e-05 0.000140337 -1.15994e-06
-6.33061e-07 -1.15994e-06 5.40827e-05
0.000970288 5.84414e-05 -1.0098e-06
5.84414e-05 5.58684e-05 1.27777e-07
-1.0098e-06 1.27777e-07 -3.08984e-05
0.0014564 8.68889e-05 -4.33033e-07
8.68889e-05 0.000189986 -1.76561e-07
-4.33033e-07 -1.76561e-07 9.72875e-05
0.00131844 8.04851e-05 -2.8776e-07
8.04851e-05 7.70662e-05 2.35801e-06
-2.8776e-07 2.35801e-06 -1.12803e-06
0.000984242 6.66385e-05 1.24241e-07
6.66385e-05 5.93614e-05 -1.54047e-07
1.24241e-07 -1.54047e-07 -4.30294e-05
0.00117175 8.01838e-05 -3.61502e-06
8.01838e-05 0.000101018 -8.16993e-07
-3.61502e-06 -8.16993e-07 -1.34127e-05
0.000913942 2.70196e-05 3.33973e-07
2.70196e-05 1.50213e-05 4.4038e-07
3.33973e-07 4.4038e-07 -5.46903e-05
0.000976477 5.40841e-05 -3.22712e-07
5.40841e-05 5.44146e-05 -5.3269e-07
-3.22712e-07 -5.3269e-07 -3.0435e-05
0.00112066 6.74417e-05 -2.46078e-07
6.74417e-05 0.0001316 -8.12628e-07
-2.46078e-07 -8.12628e-07 3.79247e-05
0.00100411 5.915e-05 -1.27172e-07
5.915e-05 6.8619e-05 -2.76767e-07
-1.27172e-07 -2.76767e-07 -2.23882e-05
0.001918 4.20481e-05 -8.21583e-07
4.20481e-05 0.000197097 -5.78635e-07
-8.21583e-07 -5.78635e-07 0.000138155
0.00126321 7.21574e-05 6.16011e-07
7.21574e-05 -3.62176e-05 -1.61181e-07
6.16011e-07 -1.61181e-07 -0.000101729
0.00152574 9.4462e-05 -8.33592e-07
9.4462e-05 0.000219545 -1.33616e-08
-8.33592e-07 -1.33616e-08 0.000114525
0.000820427 6.73176e-05 4.62181e-07
6.73176e-05 -3.4788e-05 5.80986e-07
4.62181e-07 5.80986e-07 -0.000154943
0.00105611 4.1183e-05 2.15173e-07
4.1183e-05 9.33787e-05 1.19624e-07
2.15173e-07 1.19624e-07 1.42422e-05
0.00170162 1.21677e-05 2.06223e-06
1.21677e-05 7.40802e-05 3.67637e-06
2.06223e-06 3.67637e-06 3.75719e-06
0.00116684 6.52446e-05 5.81019e-07
6.52446e-05 0.000154952 5.02277e-07
5.81019e-07 5.02277e-07 6.19408e-05
0.0011045 6.79612e-05 4.97772e-07
6.79612e-05 0.000121296 8.62779e-07
4.97772e-07 8.62779e-07 1.90385e-05
0.00197639 7.33102e-05 3.40187e-06
7.33102e-05 0.000176758 1.16603e-06
3.40187e-06 1.16603e-06 0.000125171
0.00133851 9.22008e-05 4.35423e-06
9.22008e-05 4.43978e-05 -1.16153e-06
4.35423e-06 -1.16153e-06 -5.44403e-05
0.00162951 9.60905e-05 9.04808e-07
9.60905e-05 0.000343044 2.11244e-06
9.04808e-07 2.11244e-06 0.000213976
0.00103901 2.61083e-05 -7.25253e-07
2.61083e-05 7.96486e-05 -3.85724e-07
-7.25253e-07 -3.85724e-07 1.47431e-05
0.00104476 2.67175e-05 -4.45469e-10
2.67175e-05 8.55293e-05 -3.51682e-08
-4.45469e-10 -3.51682e-08 1.12715e-05
0.00105836 3.39295e-05 5.12725e-07
3.39295e-05 9.59077e-05 3.45004e-07
5.12725e-07 3.45004e-07 1.34589e-05
0.000954766 8.67125e-06 3.20697e-08
8.67125e-06 3.41159e-05 -9.46891e-07
3.20697e-08 -9.46891e-07 -1.1913e-05
0.000965603 9.13151e-06 8.91201e-08
9.13151e-06 4.52189e-05 -2.20264e-07
8.91201e-08 -2.20264e-07 -1.53133e-05
0.000970416 2.14347e-05 -3.47723e-07
2.14347e-05 4.8087e-05 -1.15407e-06
-3.47723e-07 -1.15407e-06 -2.46235e-05
0.000953224 -1.90105e-05 1.35774e-07
-1.90105e-05 3.24856e-05 3.55818e-08
1.35774e-07 3.55818e-08 -1.23993e-05
0.000862993 1.87809e-06 -2.82374e-07
1.87809e-06 -6.74934e-06 3.94532e-07
-2.82374e-07 3.94532e-07 -6.69081e-05
0.00105348 2.28104e-05 1.09874e-07
2.28104e-05 9.07193e-05 -4.71543e-07
1.09874e-07 -4.71543e-07 1.13796e-05
0.00100123 1.22045e-05 1.11685e-07
1.22045e-05 6.65056e-05 4.42028e-07
1.11685e-07 4.42028e-07 -3.71761e-06
0.00110689 4.15514e-05 2.00925e-07
4.15514e-05 0.000115942 -8.35247e-08
2.00925e-07 -8.35247e-08 3.10271e-05
0.000962514 2.30513e-06 7.28009e-08
2.30513e-06 4.27522e-05 7.45723e-07
7.28009e-08 7.45723e-07 -3.52693e-05
0.00104758 1.8083e-05 1.36587e-07
1.8083e-05 8.8979e-05 1.47052e-07
1.36587e-07 1.47052e-07 2.09738e-05
0.000968081 1.97743e-05 5.51356e-07
1.97743e-05 4.9895e-05 6.60303e-07
5.51356e-07 6.60303e-07 -9.32976e-06
0.000965357 -6.45335e-06 -3.32935e-07
-6.45335e-06 3.72828e-05 8.23199e-07
-3.32935e-07 8.23199e-07 -6.62272e-06
0.00091226 1.04128e-05 3.23295e-07
1.04128e-05 1.01121e-06 1.55263e-06
3.23295e-07 1.55263e-06 -2.4966e-05
0.000918148 -1.90108e-07 -2.10186e-07
-1.90108e-07 3.11999e-06 1.89994e-08
-2.10186e-07 1.89994e-08 -2.27264e-05
0.00140533 -4.04771e-06 6.69573e-07
-4.04771e-06 0.000242702 1.82427e-06
6.69573e-07 1.82427e-06 0.000246796
0.000918518 -9.8105e-06 -3.98954e-09
-9.8105e-06 2.88263e-06 -1.59759e-06
-3.98954e-09 -1.59759e-06 -2.29688e-05
0.00142609 -7.4562e-06 -1.31592e-06
-7.4562e-06 0.000254865 -1.19177e-06
-1.31592e-06 -1.19177e-06 0.000258815
0.00109737 -7.62232e-06 6.28234e-06
-7.62232e-06 8.53131e-05 6.22412e-06
6.28234e-06 6.22412e-06 0.000103197
0.00144527 -1.09708e-05 -3.61791e-06
-1.09708e-05 0.000267153 -4.26588e-06
-3.61791e-06 -4.26588e-06 0.000270618
0.00104811 -1.13664e-05 2.30167e-06
-1.13664e-05 6.25316e-05 2.3878e-06
2.30167e-06 2.3878e-06 8.01981e-05
0.000992671 -1.47301e-05 -1.76866e-06
-1.47301e-05 3.81925e-05 -1.56977e-06
-1.76866e-06 -1.56977e-06 5.4796e-05
0.000919103 9.18228e-06 3.96366e-07
9.18228e-06 3.37243e-06 -1.73419e-06
3.96366e-07 -1.73419e-06 -2.14345e-05
0.000841039 1.42234e-05 1.12486e-06
1.42234e-05 -4.00712e-05 -3.16214e-06
1.12486e-06 -3.16214e-06 -4.02802e-05
0.000848246 1.72224e-05 -1.07714e-07
1.72224e-05 -3.19042e-05 2.36619e-08
-1.07714e-07 2.36619e-08 -3.40441e-05
0.00221741 2.35963e-05 1.27939e-05
2.35963e-05 0.000672883 -3.80457e-06
1.27939e-05 -3.80457e-06 0.000694124
0.000855049 1.97531e-05 -2.12416e-06
1.97531e-05 -2.40664e-05 3.22304e-06
-2.12416e-06 3.22304e-06 -2.81673e-05
0.00226982 2.81235e-05 -8.09668e-07
2.81235e-05 0.000705627 -4.82352e-08
-8.09668e-07 -4.82352e-08 0.000725293
0.002322 3.21224e-05 -1.90499e-05
3.21224e-05 0.000738703 3.85722e-06
-1.90499e-05 3.85722e-06 0.00075672
0.0013815 2.89534e-05 7.82941e-07
2.89534e-05 -1.29427e-05 -5.26896e-07
7.82941e-07 -5.26896e-07 -7.82239e-05
0.00156335 -5.33585e-08 -4.14411e-07
-5.33585e-08 5.35926e-05 -1.79325e-06
-4.14411e-07 -1.79325e-06 -2.28397e-05
0.00157185 -1.34288e-05 -1.01565e-06
-1.34288e-05 6.2882e-05 -1.17015e-06
-1.01565e-06 -1.17015e-06 -2.60573e-05
0.00163436 1.64641e-05 -1.22832e-06
1.64641e-05 9.35646e-05 -7.2782e-07
-1.22832e-06 -7.2782e-07 6.05525e-07
0.00163483 8.50774e-06 2.9357e-08
8.50774e-06 9.37638e-05 1.32447e-07
2.9357e-08 1.32447e-07 1.5873e-06
0.00171962 -2.0022e-05 -2.02897e-08
-2.0022e-05 0.00012668 -7.11266e-08
-2.02897e-08 -7.11266e-08 4.29394e-05
0.00154648 1.57551e-05 -3.67324e-07
1.57551e-05 3.68772e-05 3.88985e-07
-3.67324e-07 3.88985e-07 -3.15246e-05
0.00165396 9.16926e-07 1.66443e-06
9.16926e-07 0.000105409 5.88207e-07
1.66443e-06 5.88207e-07 1.73458e-05
0.00182682 -1.25063e-05 1.56285e-06
-1.25063e-05 0.000167114 1.66523e-06
1.56285e-06 1.66523e-06 8.83593e-05
0.00122315 -1.21789e-05 2.15525e-06
-1.21789e-05 -0.000150507 1.20933e-06
2.15525e-06 1.20933e-06 -0.000225638
0.00158577 2.08055e-05 -1.47003e-06
2.08055e-05 6.94292e-05 -2.49813e-07
-1.47003e-06 -2.49813e-07 -2.30711e-05
0.00165099 3.19841e-06 -2.18172e-06
3.19841e-06 8.57711e-05 4.99194e-07
-2.18172e-06 4.99194e-07 -2.44929e-06
0.00157649 -3.60337e-05 -2.49108e-06
-3.60337e-05 6.30293e-05 1.27183e-06
-2.49108e-06 1.27183e-06 -1.07527e-05
0.00111021 -6.5281e-05 -3.7766e-07
-6.5281e-05 0.000114282 7.70083e-07
-3.7766e-07 7.70083e-07 3.39207e-05
0.000930379 -6.62006e-05 -1.63482e-07
-6.62006e-05 2.87169e-05 2.66468e-06
-1.63482e-07 2.66468e-06 -6.66569e-05
0.00141662 -8.75998e-05 -2.65574e-06
-8.75998e-05 0.000214186 3.50447e-06
-2.65574e-06 3.50447e-06 0.000101082
0.00158456 -6.72665e-05 1.76358e-06
-6.72665e-05 9.94751e-05 2.29678e-06
1.76358e-06 2.29678e-06 4.57533e-05
0.00121917 -7.70164e-05 -4.34856e-06
-7.70164e-05 -7.07844e-06 -2.84397e-06
-4.34856e-06 -2.84397e-06 -8.83816e-05
0.000858257 -5.72684e-05 -1.02978e-06
-5.72684e-05 -1.19232e-05 9.07027e-08
-1.02978e-06 9.07027e-08 -9.3342e-05
0.00108426 -6.37396e-05 -3.01144e-07
-6.37396e-05 0.000102306 -1.42972e-06
-3.01144e-07 -1.42972e-06 1.52533e-05
0.00103226 -3.23439e-05 -9.06621e-08
-3.23439e-05 8.52971e-05 1.52991e-07
-9.06621e-08 1.52991e-07 9.63944e-07
0.00090797 1.48659e-05 -7.29004e-07
1.48659e-05 2.32204e-06 1.2182e-06
-7.29004e-07 1.2182e-06 -2.63515e-05
0.00103362 2.19954e-05 -2.65873e-07
2.19954e-05 7.23561e-05 1.26196e-06
-2.65873e-07 1.26196e-06 2.28307e-05
0.00102457 -2.72059e-05 -1.0271e-06
-2.72059e-05 7.44062e-05 1.83066e-06
-1.0271e-06 1.83066e-06 5.17403e-06
0.00164043 2.55006e-05 1.47281e-07
2.55006e-05 9.26519e-05 2.82668e-07
1.47281e-07 2.82668e-07 2.54117e-06
0.000916361 1.15109e-05 -2.5221e-08
1.15109e-05 4.0654e-06 1.10462e-08
-2.5221e-08 1.10462e-08 -2.27263e-05
0.0008539 -1.62633e-06 -4.81737e-07
-1.62633e-06 -1.79119e-05 2.26534e-08
-4.81737e-07 2.26534e-08 -6.1447e-05
0.00173751 -3.47659e-06 1.68949e-07
-3.47659e-06 0.000116496 -1.23461e-07
1.68949e-07 -1.23461e-07 3.1898e-05
0.00139969 -4.86611e-05 -6.90564e-07
-4.86611e-05 -4.8724e-05 -3.82833e-07
-6.90564e-07 -3.82833e-07 -0.000103763
0.000888234 -6.02721e-05 -1.89e-08
-6.02721e-05 1.52388e-05 9.33891e-07
-1.89e-08 9.33891e-07 -7.05188e-05
0.00136671 -8.33586e-05 -5.46298e-07
-8.33586e-05 0.000235613 3.28519e-07
-5.46298e-07 3.28519e-07 0.000123694
0.00120607 -8.38145e-05 9.43661e-07
-8.38145e-05 7.70345e-05 1.30603e-06
9.43661e-07 1.30603e-06 -4.06387e-05
0.00178248 -8.48861e-05 3.23127e-07
-8.48861e-05 0.000187825 -1.00039e-06
3.23127e-07 -1.00039e-06 0.000132994
0.000996213 -5.38109e-07 6.96269e-07
-5.38109e-07 5.48761e-05 -4.88212e-07
6.96269e-07 -4.88212e-07 7.38017e-06
0.00102991 -1.42811e-05 -5.16073e-07
-1.42811e-05 7.73776e-05 4.97838e-07
-5.16073e-07 4.97838e-07 1.23754e-05
0.000995503 -6.23883e-05 3.88385e-07
-6.23883e-05 4.70849e-05 4.27697e-07
3.88385e-07 4.27697e-07 -3.51412e-05
0.00126996 -7.20153e-05 -7.32596e-07
-7.20153e-05 0.00020704 -4.87227e-07
-7.32596e-07 -4.87227e-07 0.000117748
0.000939487 -4.88482e-05 2.74449e-07
-4.88482e-05 4.56787e-05 3.38103e-07
2.74449e-07 3.38103e-07 -5.06008e-05
0.00100684 -2.00087e-05 2.06636e-07
-2.00087e-05 6.9225e-05 -2.80029e-07
2.06636e-07 -2.80029e-07 -9.70884e-06
0.00165255 2.84435e-05 2.07554e-06
2.84435e-05 9.45809e-05 7.24922e-07
2.07554e-06 7.24922e-07 1.05391e-05
0.00191906 -1.50782e-05 2.60868e-06
-1.50782e-05 0.000198356 -2.17965e-07
2.60868e-06 -2.17965e-07 0.000122537
0.00191939 -7.8545e-05 -5.51579e-07
-7.8545e-05 0.00015411 -4.41022e-06
-5.51579e-07 -4.41022e-06 0.000125948
0.00134024 -9.2407e-05 3.55893e-06
-9.2407e-05 4.88484e-05 2.14122e-06
3.55893e-06 2.14122e-06 -4.34209e-05
0.00113306 -6.75478e-05 -8.17819e-07
-6.75478e-05 0.000134431 -1.27448e-06
-8.17819e-07 -1.27448e-06 4.35108e-05
0.00159565 -9.96786e-05 9.51193e-07
-9.96786e-05 0.000339556 -3.32816e-06
9.51193e-07 -3.32816e-06 0.000202817
0.000764784 1.93201e-05 -5.04958e-07
1.93201e-05 -6.37543e-05 -1.42381e-06
-5.04958e-07 -1.42381e-06 -0.00010585
0.00093554 -1.00621e-05 7.84867e-07
-1.00621e-05 2.37641e-05 -1.17787e-06
7.84867e-07 -1.17787e-06 -2.106e-05
0.00117633 -2.14609e-05 2.51014e-07
-2.14609e-05 0.000157424 -6.31451e-07
2.51014e-07 -6.31451e-07 0.000101049
0.000864972 1.39079e-05 -5.55707e-07
1.39079e-05 -3.28754e-06 -1.10776e-06
-5.55707e-07 -1.10776e-06 -6.81132e-05
0.00113853 -2.17371e-05 -4.15742e-08
-2.17371e-05 0.000135874 -5.3606e-07
-4.15742e-08 -5.3606e-07 6.12608e-05
0.000849855 -2.6248e-05 3.72732e-08
-2.6248e-05 -1.22189e-06 -2.33298e-07
3.72732e-08 -2.33298e-07 -9.053e-05
0.00119514 -5.32257e-05 2.93046e-06
-5.32257e-05 0.000185498 -2.28098e-07
2.93046e-06 -2.28098e-07 8.15756e-05
0.000954562 -6.74979e-05 -9.11556e-07
-6.74979e-05 5.20637e-05 8.33116e-07
-9.11556e-07 8.33116e-07 -3.66073e-05
0.000895729 3.0462e-05 -2.79378e-07
3.0462e-05 6.59719e-06 -4.07152e-07
-2.79378e-07 -4.07152e-07 -6.40297e-05
0.00102317 5.71e-05 -1.36829e-06
5.71e-05 7.87835e-05 -8.78444e-07
-1.36829e-06 -8.78444e-07 -5.75137e-06
0.00164926 3.74849e-05 -2.09636e-06
3.74849e-05 6.41407e-05 -2.75376e-06
-2.09636e-06 -2.75376e-06 5.45793e-06
0.0014463 7.44814e-05 -1.06832e-06
7.44814e-05 6.50407e-05 1.17502e-06
-1.06832e-06 1.17502e-06 -2.71991e-06
0.00121155 6.48127e-05 -1.05835e-06
6.48127e-05 0.000171879 -2.5269e-08
-1.05835e-06 -2.5269e-08 8.1197e-05
0.00111929 6.72567e-05 -1.04818e-06
6.72567e-05 0.000131983 -1.80359e-06
-1.04818e-06 -1.80359e-06 3.90411e-05
0.00182352 0.000102084 -1.69148e-06
0.000102084 0.000364663 2.25956e-07
-1.69148e-06 2.25956e-07 0.000261328
0.000965512 7.28496e-05 -7.03789e-07
7.28496e-05 3.09961e-05 -1.4844e-06
-7.03789e-07 -1.4844e-06 -8.87161e-05
0.00103183 4.51208e-05 -2.58074e-07
4.51208e-05 8.23808e-05 -4.42345e-07
-2.58074e-07 -4.42345e-07 2.77691e-06
0.0015167 1.06953e-05 8.89707e-07
1.06953e-05 -1.90916e-05 6.33204e-07
8.89707e-07 6.33204e-07 -8.93117e-05
0.0010628 6.21801e-05 2.95412e-07
6.21801e-05 0.000103011 4.99163e-07
2.95412e-07 4.99163e-07 1.0411e-05
0.000948139 6.29347e-05 2.40861e-07
6.29347e-05 4.05497e-05 -2.94912e-07
2.40861e-07 -2.94912e-07 -6.30286e-05
0.00161236 6.62338e-05 7.15994e-07
6.62338e-05 1.2298e-06 -3.28568e-07
7.15994e-07 -3.28568e-07 -5.20167e-05
0.00161957 0.000100821 9.18451e-07
0.000100821 0.000175816 -5.384e-07
9.18451e-07 -5.384e-07 7.78435e-05
0.00158318 9.50993e-05 9.12216e-08
9.50993e-05 0.000324386 4.6813e-07
9.12216e-08 4.6813e-07 0.000195337
0.00110164 5.0867e-05 1.99777e-07
5.0867e-05 0.000123517 2.93604e-07
1.99777e-07 2.93604e-07 3.45543e-05
0.00195874 4.44086e-05 3.47461e-06
4.44086e-05 9.69003e-05 2.0518e-06
3.47461e-06 2.0518e-06 3.95732e-05
0.00140923 7.33161e-05 -2.54664e-07
7.33161e-05 0.000265077 -3.01442e-07
-2.54664e-07 -3.01442e-07 0.000167946
0.00165095 8.96053e-05 -1.53292e-06
8.96053e-05 0.000383904 1.71043e-06
-1.53292e-06 1.71043e-06 0.000265188
0.00135405 0.000101727 5.69934e-06
0.000101727 -0.000109387 -8.99712e-07
5.69934e-06 -8.99712e-07 -0.000181596
0.00104728 8.68778e-05 7.04326e-08
8.68778e-05 8.24528e-06 2.36602e-06
7.04326e-08 2.36602e-06 -0.000122398
0.00205323 2.87301e-05 1.23907e-05
2.87301e-05 0.000277912 -2.73087e-06
1.23907e-05 -2.73087e-06 0.000258357
0.00104656 2.71853e-05 -3.6945e-07
2.71853e-05 8.67478e-05 -6.52905e-07
-3.6945e-07 -6.52905e-07 1.24736e-05
0.0010393 3.45826e-05 -3.69772e-09
3.45826e-05 8.73142e-05 -1.04094e-07
-3.69772e-09 -1.04094e-07 4.73508e-06
0.00114187 4.79693e-05 2.67039e-07
4.79693e-05 0.000134678 -1.55512e-07
2.67039e-07 -1.55512e-07 4.68541e-05
0.000942837 -1.42385e-05 4.03502e-07
-1.42385e-05 2.72987e-05 -8.35426e-07
4.03502e-07 -8.35426e-07 -1.76773e-05
0.000859341 -1.78317e-05 -2.14752e-08
-1.78317e-05 -8.93469e-06 -2.06555e-07
-2.14752e-08 -2.06555e-07 -6.8978e-05
0.001121 3.31644e-05 -5.04333e-07
3.31644e-05 0.000129502 -9.572e-08
-5.04333e-07 -9.572e-08 5.91618e-05
0.000998789 1.93281e-05 -2.97151e-07
1.93281e-05 6.20006e-05 -1.13541e-06
-2.97151e-07 -1.13541e-06 -1.81885e-05
0.000955039 -1.58123e-05 -2.94795e-07
-1.58123e-05 3.32741e-05 2.27077e-08
-2.94795e-07 2.27077e-08 -1.14801e-05
0.000910737 5.35463e-06 1.8931e-07
5.35463e-06 1.833e-05 5.5898e-08
1.8931e-07 5.5898e-08 -4.02131e-05
0.00105304 3.64238e-05 -3.06654e-07
3.64238e-05 8.78892e-05 -6.94792e-07
-3.06654e-07 -6.94792e-07 3.01895e-06
0.00104226 5.90126e-06 -2.15605e-07
5.90126e-06 8.62246e-05 -1.17713e-07
-2.15605e-07 -1.17713e-07 1.81847e-05
0.00103343 6.28851e-06 1.93621e-07
6.28851e-06 8.03096e-05 -4.76853e-09
1.93621e-07 -4.76853e-09 2.86099e-06
0.00107356 3.10554e-05 -1.602e-07
3.10554e-05 9.14165e-05 6.14659e-07
-1.602e-07 6.14659e-07 6.35606e-06
0.00108017 2.69091e-05 1.89103e-07
2.69091e-05 0.000107576 -6.92208e-08
1.89103e-07 -6.92208e-08 3.30188e-05
0.00109574 2.45115e-05 1.57224e-07
2.45115e-05 0.000112758 -4.91761e-08
1.57224e-07 -4.91761e-08 4.60857e-05
0.00081882 8.63266e-06 -3.60966e-07
8.63266e-06 -2.88654e-05 6.23318e-07
-3.60966e-07 6.23318e-07 -8.79157e-05
0.000790657 1.26481e-05 4.74513e-07
1.26481e-05 -5.13616e-05 1.22472e-06
4.74513e-07 1.22472e-06 -9.69456e-05
0.00114008 -1.48349e-06 2.43847e-07
-1.48349e-06 0.000138071 1.03002e-07
2.43847e-07 1.03002e-07 7.94465e-05
0.000788087 6.71721e-07 -3.33787e-07
6.71721e-07 -5.22659e-05 1.16502e-06
-3.33787e-07 1.16502e-06 -9.75678e-05
0.00091573 1.18275e-05 2.30045e-07
1.18275e-05 3.14121e-06 1.56093e-06
2.30045e-07 1.56093e-06 -2.29168e-05
0.000913038 1.68641e-06 -2.7742e-07
1.68641e-06 1.40899e-06 6.94163e-09
-2.7742e-07 6.94163e-09 -2.45448e-05
0.000865142 3.1812e-07 1.44808e-07
3.1812e-07 -3.59973e-05 2.9807e-06
1.44808e-07 2.9807e-06 -3.48231e-05
0.000917153 -8.31142e-06 2.32768e-07
-8.31142e-06 2.58737e-06 -1.57173e-06
2.32768e-07 -1.57173e-06 -2.3234e-05
0.00114749 -3.3218e-06 -7.73577e-07
-3.3218e-06 0.000109954 -1.22071e-06
-7.73577e-07 -1.22071e-06 0.00011251
0.00218244 -5.23414e-06 3.65037e-06
-5.23414e-06 0.000642848 3.91313e-06
3.65037e-06 3.91313e-06 0.000666556
0.0014475 -7.07554e-06 -2.22502e-06
-7.07554e-06 0.000266137 -4.1946e-06
-2.22502e-06 -4.1946e-06 0.000269928
0.00105399 -7.83866e-06 1.22337e-06
-7.83866e-06 6.25482e-05 2.38599e-06
1.22337e-06 2.38599e-06 8.06746e-05
0.00099722 -1.12587e-05 -1.24621e-06
-1.12587e-05 3.62206e-05 -1.51341e-06
-1.24621e-06 -1.51341e-06 5.40854e-05
0.00092682 6.13486e-06 3.18125e-07
6.13486e-06 5.41338e-06 -1.68261e-06
3.18125e-07 -1.68261e-06 -1.77927e-05
0.000920837 8.80573e-06 -2.90826e-08
8.80573e-06 3.97865e-06 5.11041e-09
-2.90826e-08 5.11041e-09 -2.08036e-05
0.00085046 1.10301e-05 7.30944e-07
1.10301e-05 -3.91705e-05 -3.11613e-06
7.30944e-07 -3.11613e-06 -3.77544e-05
0.00113591 1.55508e-05 -4.43131e-07
1.55508e-05 0.000111749 2.77776e-08
-4.43131e-07 2.77776e-08 0.000112823
0.00217632 1.89183e-05 1.03976e-05
1.89183e-05 0.000647273 -3.82581e-06
1.03976e-05 -3.82581e-06 0.000669739
0.00086501 1.7321e-05 -1.70182e-06
1.7321e-05 -2.34609e-05 3.19492e-06
-1.70182e-06 3.19492e-06 -2.56849e-05
0.00222042 2.36837e-05 -8.8865e-07
2.36837e-05 0.00067509 -4.06366e-08
-8.8865e-07 -4.06366e-08 0.000696153
0.00227149 2.8032e-05 -1.65789e-05
2.8032e-05 0.000707144 3.85273e-06
-1.65789e-05 3.85273e-06 0.000726656
0.00149813 1.59663e-05 -1.04846e-06
1.59663e-05 1.63061e-05 -1.49033e-06
-1.04846e-06 -1.49033e-06 -5.10182e-05
0.0016597 -1.81069e-05 -8.30765e-07
-1.81069e-05 9.65619e-05 -1.00213e-06
-8.30765e-07 -1.00213e-06 1.20942e-05
0.00163049 4.93694e-06 -1.2189e-06
4.93694e-06 9.25113e-05 -6.28399e-07
-1.2189e-06 -6.28399e-07 4.13663e-07
0.0016439 2.25512e-06 -1.13336e-07
2.25512e-06 9.99324e-05 -2.4918e-07
-1.13336e-07 -2.4918e-07 1.1926e-05
0.00165752 -1.21469e-05 -1.97342e-07
-1.21469e-05 8.96126e-05 4.20621e-07
-1.97342e-07 4.20621e-07 1.13017e-05
0.00146581 -1.59013e-05 8.74538e-07
-1.59013e-05 -2.40432e-05 2.85127e-07
8.74538e-07 2.85127e-07 -0.000101629
0.0016343 4.65809e-06 2.05803e-06
4.65809e-06 9.13884e-05 2.04888e-07
2.05803e-06 2.04888e-07 1.2114e-05
0.00161819 -3.78845e-05 -2.45547e-06
-3.78845e-05 -4.22632e-05 -6.80905e-06
-2.45547e-06 -6.80905e-06 -6.56237e-05
0.00197945 -4.11115e-06 3.35227e-06
-4.11115e-06 0.000178846 1.31843e-06
3.35227e-06 1.31843e-06 0.000111561
0.000954942 -6.51594e-07 4.00452e-07
-6.51594e-07 3.18381e-05 -9.2076e-07
4.00452e-07 -9.2076e-07 -7.69678e-06
0.00161903 2.53511e-05 -1.94797e-06
2.53511e-05 8.30963e-05 -6.55715e-07
-1.94797e-06 -6.55715e-07 -6.38732e-06
0.00179416 -4.20429e-06 -2.39293e-06
-4.20429e-06 0.000142336 6.00796e-07
-2.39293e-06 6.00796e-07 5.79102e-05
0.00129751 -4.92787e-05 -5.8953e-07
-4.92787e-05 -9.47065e-05 2.79085e-06
-5.8953e-07 2.79085e-06 -0.00015326
0.000890296 -6.00123e-05 3.81438e-07
-6.00123e-05 1.69811e-05 1.28895e-06
3.81438e-07 1.28895e-06 -6.76983e-05
0.00133694 -8.28747e-05 -1.16969e-06
-8.28747e-05 0.000220938 4.41696e-06
-1.16969e-06 4.41696e-06 0.000106398
0.000954574 -7.52215e-05 -1.50684e-06
-7.52215e-05 -5.3174e-05 5.74805e-07
-1.50684e-06 5.74805e-07 -0.000167651
0.00145096 -8.07836e-05 -2.43046e-06
-8.07836e-05 2.76281e-05 -2.51418e-06
-2.43046e-06 -2.51418e-06 -2.74536e-05
0.00115535 -6.69398e-05 9.9814e-07
-6.69398e-05 0.000125242 -8.05445e-07
9.9814e-07 -8.05445e-07 4.2279e-05
0.000893308 -6.05708e-05 -3.9371e-06
-6.05708e-05 1.68231e-05 -3.7656e-06
-3.9371e-06 -3.7656e-06 -6.86845e-05
0.000856238 -4.58541e-05 2.05368e-08
-4.58541e-05 5.78055e-06 6.34578e-07
2.05368e-08 6.34578e-07 -9.18235e-05
0.00091917 1.12115e-05 -7.19762e-07
1.12115e-05 5.31003e-06 1.79322e-06
-7.19762e-07 1.79322e-06 -2.14894e-05
0.0010366 -2.28744e-05 4.35995e-08
-2.28744e-05 8.3434e-05 1.06389e-07
4.35995e-08 1.06389e-07 4.40559e-06
0.00120019 -2.06126e-05 -3.61286e-07
-2.06126e-05 0.000160276 6.84071e-07
-3.61286e-07 6.84071e-07 0.000113835
0.00101134 -2.77003e-06 -2.18199e-07
-2.77003e-06 6.86688e-05 1.56081e-06
-2.18199e-07 1.56081e-06 3.30734e-06
0.000757514 7.09441e-06 7.06395e-09
7.09441e-06 -6.84131e-05 1.0707e-06
7.06395e-09 1.0707e-06 -0.000111404
0.00165894 2.67882e-05 -4.3669e-08
2.67882e-05 9.49695e-05 2.60255e-07
-4.3669e-08 2.60255e-07 1.11518e-05
0.000866843 4.29198e-06 2.8782e-07
4.29198e-06 -1.21659e-05 -4.49294e-07
2.8782e-07 -4.49294e-07 -5.36893e-05
0.000941013 -1.19333e-05 -2.30015e-07
-1.19333e-05 2.71014e-05 2.7505e-08
-2.30015e-07 2.7505e-08 -1.81087e-05
0.000992609 -8.45642e-06 -6.5409e-07
-8.45642e-06 6.33962e-05 4.66136e-07
-6.5409e-07 4.66136e-07 5.90007e-06
0.00178533 -1.47664e-05 9.83125e-07
-1.47664e-05 0.000124295 4.16636e-07
9.83125e-07 4.16636e-07 5.03238e-05
0.0016407 -7.66221e-05 -1.62918e-06
-7.66221e-05 2.86913e-05 -9.77321e-07
-1.62918e-06 -9.77321e-07 -3.57522e-06
0.000974654 -6.35647e-05 -4.09924e-07
-6.35647e-05 4.93228e-05 6.49335e-07
-4.09924e-07 6.49335e-07 -3.97963e-05
0.0011399 -8.53725e-05 7.28092e-07
-8.53725e-05 0.00012095 -6.63072e-07
7.28092e-07 -6.63072e-07 -1.63591e-05
0.00140486 -9.5014e-05 -4.35184e-08
-9.5014e-05 8.33844e-05 9.5499e-07
-4.35184e-08 9.5499e-07 -8.10238e-06
0.000956708 8.79367e-06 -1.70171e-07
8.79367e-06 4.30589e-05 4.65478e-08
-1.70171e-07 4.65478e-08 -2.03907e-05
0.00109529 -2.61747e-05 -4.12782e-08
-2.61747e-05 0.000114973 -2.47716e-08
-4.12782e-08 -2.47716e-08 3.90362e-05
0.000906179 -6.5597e-05 -2.06997e-06
-6.5597e-05 2.72687e-05 2.71069e-07
-2.06997e-06 2.71069e-07 -6.2658e-05
0.00115043 -4.64867e-05 2.10732e-07
-4.64867e-05 0.000162296 -2.33987e-07
2.10732e-07 -2.33987e-07 6.00223e-05
0.000960968 -3.42196e-05 1.32144e-08
-3.42196e-05 5.47623e-05 6.49928e-07
1.32144e-08 6.49928e-07 -3.40864e-05
0.00152441 2.19667e-05 2.54131e-06
2.19667e-05 5.92378e-06 1.93842e-07
2.54131e-06 1.93842e-07 -7.49613e-05
0.00220829 -4.70022e-05 3.09137e-06
-4.70022e-05 0.000265312 -2.8221e-06
3.09137e-06 -2.8221e-06 0.000227138
0.00203495 -0.000112005 6.26595e-06
-0.000112005 0.000250238 -1.38703e-06
6.26595e-06 -1.38703e-06 0.00018717
0.00149763 -0.000103917 3.08369e-07
-0.000103917 0.000237449 -1.65243e-06
3.08369e-07 -1.65243e-06 0.000111296
0.00102986 -7.48057e-05 4.6209e-07
-7.48057e-05 9.9042e-05 -2.44017e-06
4.6209e-07 -2.44017e-06 -1.21083e-05
0.000771912 1.38803e-05 7.55792e-08
1.38803e-05 -4.90607e-05 -1.12845e-06
7.55792e-08 -1.12845e-06 -0.000105418
0.000884944 1.63913e-05 3.21073e-07
1.63913e-05 8.77654e-06 -1.20554e-06
3.21073e-07 -1.20554e-06 -5.31041e-05
0.00112873 1.07218e-05 3.16077e-07
1.07218e-05 0.000136024 -8.38985e-08
3.16077e-07 -8.38985e-08 6.82163e-05
0.00104552 -3.61016e-05 6.2706e-07
-3.61016e-05 9.42523e-05 -8.34258e-07
6.2706e-07 -8.34258e-07 1.95939e-05
0.00106821 -2.56778e-05 2.84764e-09
-2.56778e-05 0.000104437 1.30002e-07
2.84764e-09 1.30002e-07 2.17138e-05
0.00103819 -3.53473e-05 -2.09459e-07
-3.53473e-05 0.000103959 -1.51173e-06
-2.09459e-07 -1.51173e-06 7.61714e-06
0.00096757 -5.41209e-05 4.62515e-06
-5.41209e-05 9.41227e-05 1.76993e-07
4.62515e-06 1.76993e-07 -2.69157e-05
0.00100307 4.79349e-05 -7.03561e-07
4.79349e-05 6.90728e-05 -1.06901e-06
-7.03561e-07 -1.06901e-06 -1.09085e-05
0.000953103 5.87732e-05 -1.15461e-08
5.87732e-05 4.82967e-05 2.95347e-07
-1.15461e-08 2.95347e-07 -4.38626e-05
0.00137831 8.37253e-06 -1.29167e-06
8.37253e-06 -9.07718e-05 -1.37329e-06
-1.29167e-06 -1.37329e-06 -0.000160698
0.00121244 5.88018e-05 -1.14623e-06
5.88018e-05 -0.000191804 -1.94521e-06
-1.14623e-06 -1.94521e-06 -0.000246247
0.00189451 0.000109661 -2.73622e-06
0.000109661 0.000303525 -1.59657e-07
-2.73622e-06 -1.59657e-07 0.000206453
0.000813884 5.87378e-05 -6.37525e-08
5.87378e-05 -2.8858e-05 -1.0153e-06
-6.37525e-08 -1.0153e-06 -0.000133459
0.0014611 9.20273e-05 -3.6416e-07
9.20273e-05 0.000267615 -6.87147e-07
-3.6416e-07 -6.87147e-07 0.000139227
0.00109626 5.09765e-05 8.92977e-08
5.09765e-05 0.000121366 9.24741e-08
8.92977e-08 9.24741e-08 3.31138e-05
0.00162586 4.2489e-05 -1.49867e-06
4.2489e-05 -7.38499e-05 2.04058e-07
-1.49867e-06 2.04058e-07 -0.000130825
0.0011928 6.69782e-05 -4.25929e-07
6.69782e-05 0.000160032 -3.00207e-07
-4.25929e-07 -3.00207e-07 6.34835e-05
0.00127573 7.68539e-05 -3.20688e-07
7.68539e-05 0.000206648 4.30305e-07
-3.20688e-07 4.30305e-07 8.80846e-05
0.00166487 0.000103752 1.70138e-06
0.000103752 3.40778e-05 -1.21212e-06
1.70138e-06 -1.21212e-06 -3.469e-05
0.00125076 9.32795e-05 -1.05197e-06
9.32795e-05 0.000116061 1.2062e-06
-1.05197e-06 1.2062e-06 -2.0721e-05
0.00177062 1.4703e-05 -3.24673e-06
1.4703e-05 5.60152e-05 -3.43384e-06
-3.24673e-06 -3.43384e-06 4.08552e-05
0.00113597 5.87877e-05 -6.35618e-07
5.87877e-05 0.000136336 -8.38057e-07
-6.35618e-07 -8.38057e-07 4.32876e-05
0.00225151 0.000115777 1.01037e-05
0.000115777 0.000222353 4.32675e-07
1.01037e-05 4.32675e-07 0.0001716
0.00129748 7.41727e-05 -1.69784e-06
7.41727e-05 0.000220727 -7.39781e-07
-1.69784e-06 -7.39781e-07 0.00011918
0.00103085 7.57902e-05 -1.70427e-06
7.57902e-05 0.000111913 1.38955e-06
-1.70427e-06 1.38955e-06 -3.19591e-05
0.000590676 0.000104271 1.79101e-07
0.000104271 -0.000301515 1.13216e-07
1.79101e-07 1.13216e-07 -0.000420464
0.00607703 -0.000117887 -2.01634e-05
-0.000117887 0.00211651 6.3969e-07
-2.01634e-05 6.3969e-07 0.00160073
0.00288451 -0.000123864 5.87246e-05
-0.000123864 0.000427147 1.18022e-05
5.87246e-05 1.18022e-05 0.000194238
0.00115268 0.000114671 9.39347e-06
0.000114671 -0.000209859 4.57916e-06
9.39347e-06 4.57916e-06 -0.000135017
-0.00262012 -0.000155885 -4.16242e-05
-0.000155885 -0.00140069 -2.14519e-05
-4.16242e-05 -2.14519e-05 -0.00135892
0.00154172 -0.000226908 -1.1917e-05
-0.000226908 -1.87375e-05 -2.28975e-06
-1.1917e-05 -2.28975e-06 0.000532507
0.00102479 3.47529e-05 -4.08835e-07
3.47529e-05 8.08063e-05 -6.08552e-07
-4.08835e-07 -6.08552e-07 -1.85541e-06
0.00111111 4.59179e-05 4.45752e-08
4.59179e-05 0.000120621 -6.0911e-08
4.45752e-08 -6.0911e-08 3.3044e-05
0.00111967 4.86246e-05 2.64834e-07
4.86246e-05 0.000112 1.38381e-07
2.64834e-07 1.38381e-07 2.38953e-05
0.000944248 -2.6575e-05 2.29481e-07
-2.6575e-05 2.90119e-05 -8.10986e-07
2.29481e-07 -8.10986e-07 -1.65848e-05
0.000845438 1.67634e-05 5.18598e-08
1.67634e-05 -1.46501e-05 -6.88363e-07
5.18598e-08 -6.88363e-07 -7.41571e-05
0.00103426 -8.36728e-06 9.39681e-08
-8.36728e-06 8.15314e-05 -3.93222e-07
9.39681e-08 -3.93222e-07 1.38728e-05
0.00109916 1.34813e-05 -1.01058e-07
1.34813e-05 0.000115416 -5.00889e-07
-1.01058e-07 -5.00889e-07 3.85374e-05
0.00102072 3.04193e-05 -5.69171e-07
3.04193e-05 7.02799e-05 -1.23637e-06
-5.69171e-07 -1.23637e-06 -1.45061e-05
0.00101769 2.95101e-05 -3.23167e-07
2.95101e-05 7.33636e-05 -4.50274e-07
-3.23167e-07 -4.50274e-07 5.31309e-06
0.000871453 7.07616e-06 1.61924e-07
7.07616e-06 -9.29913e-06 4.28748e-07
1.61924e-07 4.28748e-07 -5.4835e-05
0.000909455 4.15772e-06 -1.41268e-07
4.15772e-06 1.78867e-05 4.22178e-08
-1.41268e-07 4.22178e-08 -4.08137e-05
0.00105475 3.17592e-05 -4.16696e-08
3.17592e-05 8.42956e-05 1.72924e-07
-4.16696e-08 1.72924e-07 -3.81876e-07
0.00105525 2.47791e-05 -4.33159e-09
2.47791e-05 9.35361e-05 -2.54208e-07
-4.33159e-09 -2.54208e-07 1.89258e-05
0.0010351 4.28546e-05 2.18558e-08
4.28546e-05 8.53557e-05 -3.33629e-07
2.18558e-08 -3.33629e-07 1.12476e-05
0.00110319 5.09336e-05 2.60388e-07
5.09336e-05 0.000115111 5.93659e-07
2.60388e-07 5.93659e-07 3.24225e-05
0.000877624 2.00938e-05 1.73175e-07
2.00938e-05 -1.59024e-06 8.99606e-07
1.73175e-07 8.99606e-07 -6.95934e-05
0.000848035 4.8139e-06 3.68359e-07
4.8139e-06 -1.49082e-05 9.63439e-08
3.68359e-07 9.63439e-08 -7.39377e-05
0.000766189 -2.69523e-05 -1.09328e-06
-2.69523e-05 -6.24917e-05 1.21539e-06
-1.09328e-06 1.21539e-06 -0.000108519
0.00102219 7.78504e-06 -5.98978e-08
7.78504e-06 7.48884e-05 4.40446e-07
-5.98978e-08 4.40446e-07 1.66675e-05
0.00113755 4.0774e-05 1.49864e-07
4.0774e-05 0.000135521 1.23166e-07
1.49864e-07 1.23166e-07 6.78868e-05
0.000969301 -4.56683e-06 -3.38582e-07
-4.56683e-06 5.00065e-05 6.31291e-07
-3.38582e-07 6.31291e-07 -9.76019e-06
0.000997807 6.52118e-06 3.49849e-07
6.52118e-06 6.35616e-05 -4.44865e-07
3.49849e-07 -4.44865e-07 5.19272e-06
0.000949756 -2.07967e-05 -8.31868e-07
-2.07967e-05 3.16473e-05 7.5431e-07
-8.31868e-07 7.5431e-07 -1.34854e-05
0.000786141 4.10133e-06 1.57641e-07
4.10133e-06 -5.19623e-05 4.22517e-07
1.57641e-07 4.22517e-07 -9.8066e-05
0.000918273 1.07531e-05 -3.86321e-08
1.07531e-05 4.46593e-06 1.56758e-06
-3.86321e-08 1.56758e-06 -2.17577e-05
0.000912659 2.8962e-06 -2.11007e-07
2.8962e-06 1.51763e-06 -1.73934e-09
-2.11007e-07 -1.73934e-09 -2.44671e-05
0.000883358 3.55623e-06 -3.49556e-07
3.55623e-06 -2.59526e-05 4.18676e-06
-3.49556e-07 4.18676e-06 -2.49901e-05
0.000913405 -7.32653e-06 3.85519e-07
-7.32653e-06 1.60546e-06 -1.552e-06
3.85519e-07 -1.552e-06 -2.43203e-05
0.000867434 2.74903e-07 9.24192e-08
2.74903e-07 -3.48307e-05 7.22148e-09
9.24192e-08 7.22148e-09 -3.36631e-05
0.00218043 -9.14764e-07 1.20135e-08
-9.14764e-07 0.000641229 3.92462e-06
1.20135e-08 3.92462e-06 0.000665032
0.000885086 -2.91065e-06 -4.58079e-07
-2.91065e-06 -2.50699e-05 -4.22007e-06
-4.58079e-07 -4.22007e-06 -2.40677e-05
0.00161452 -4.54898e-06 -1.49736e-07
-4.54898e-06 0.000349918 1.80818e-08
-1.49736e-07 1.80818e-08 0.000370887
0.00101001 -7.49953e-06 -7.76163e-07
-7.49953e-06 3.94965e-05 -1.4833e-06
-7.76163e-07 -1.4833e-06 5.78983e-05
0.00093016 3.11339e-06 1.19248e-07
3.11339e-06 5.70841e-06 -1.71569e-06
1.19248e-07 -1.71569e-06 -1.6455e-05
0.00092465 5.66811e-06 1.53876e-08
5.66811e-06 4.0134e-06 -2.7213e-09
1.53876e-08 -2.7213e-09 -1.91459e-05
0.000859409 7.54729e-06 4.93841e-07
7.54729e-06 -3.75392e-05 -3.0682e-06
4.93841e-07 -3.0682e-06 -3.47976e-05
0.000922082 8.46298e-06 -5.32008e-07
8.46298e-06 4.32692e-06 1.73032e-06
-5.32008e-07 1.73032e-06 -2.04265e-05
0.00112801 1.1964e-05 -1.7126e-07
1.1964e-05 0.000103645 -5.95448e-07
-1.7126e-07 -5.95448e-07 0.000106425
0.00213979 1.41991e-05 7.78518e-06
1.41991e-05 0.000624823 -3.82425e-06
7.78518e-06 -3.82425e-06 0.000648331
0.000863741 1.4461e-05 -1.32135e-06
1.4461e-05 -2.84005e-05 3.17217e-06
-1.32135e-06 3.17217e-06 -2.88989e-05
0.00220092 1.8511e-05 -4.1086e-06
1.8511e-05 0.000660843 1.1095e-06
-4.1086e-06 1.1095e-06 0.000683026
0.00222739 2.37301e-05 -1.4102e-05
2.37301e-05 0.000679318 3.87641e-06
-1.4102e-05 3.87641e-06 0.000700192
0.00144031 -1.08529e-05 -1.05462e-06
-1.08529e-05 -1.10212e-05 -5.82228e-07
-1.05462e-06 -5.82228e-07 -8.89231e-05
0.00162855 3.02127e-06 -1.62065e-06
3.02127e-06 9.18519e-05 -1.14454e-06
-1.62065e-06 -1.14454e-06 3.89026e-06
0.00156557 -1.75505e-05 8.57147e-07
-1.75505e-05 3.39453e-05 -6.65231e-07
8.57147e-07 -6.65231e-07 -4.63549e-05
0.00169204 -3.69025e-05 -2.05443e-06
-3.69025e-05 1.62695e-05 -7.66698e-07
-2.05443e-06 -7.66698e-07 -1.83803e-05
0.00151788 2.80783e-06 -9.76312e-07
2.80783e-06 2.95e-05 -3.4874e-07
-9.76312e-07 -3.4874e-07 -5.09068e-05
0.00157006 -5.96959e-07 -1.33505e-07
-5.96959e-07 -6.08022e-06 -2.01039e-07
-1.33505e-07 -2.01039e-07 -7.84358e-05
0.00214565 2.73815e-05 1.94745e-06
2.73815e-05 0.000280251 2.46249e-06
1.94745e-06 2.46249e-06 0.000187284
0.00185161 -9.92386e-05 0.000142073
-9.92386e-05 0.000141594 3.64947e-05
0.000142073 3.64947e-05 -7.62572e-05
0.0014838 -2.22386e-05 -6.44687e-06
-2.22386e-05 4.23339e-05 2.65963e-06
-6.44687e-06 2.65963e-06 -1.70458e-05
0.000952325 3.79581e-06 -4.15885e-07
3.79581e-06 3.14038e-05 -9.8014e-07
-4.15885e-07 -9.8014e-07 -8.15631e-06
0.000956144 -1.49453e-05 3.85421e-07
-1.49453e-05 3.30888e-05 -1.346e-08
3.85421e-07 -1.346e-08 -7.0013e-06
0.000962578 -4.74708e-06 -1.45358e-07
-4.74708e-06 4.64487e-05 -4.46494e-07
-1.45358e-07 -4.46494e-07 -5.64096e-06
0.000973358 -1.76407e-05 -3.52801e-07
-1.76407e-05 5.45051e-05 -1.93294e-07
-3.52801e-07 -1.93294e-07 8.00865e-07
0.00168307 2.53316e-05 -1.74007e-06
2.53316e-05 0.000104383 -9.26463e-07
-1.74007e-06 -9.26463e-07 2.0731e-05
0.0017271 -1.48118e-05 -3.20939e-07
-1.48118e-05 8.94955e-05 1.57755e-06
-3.20939e-07 1.57755e-06 1.69441e-05
0.00133292 -7.47785e-05 -4.54812e-06
-7.47785e-05 -0.000111116 1.2924e-06
-4.54812e-06 1.2924e-06 -0.000148279
0.000882229 -6.15246e-05 1.40703e-07
-6.15246e-05 -2.08382e-06 2.7339e-06
1.40703e-07 2.7339e-06 -8.96432e-05
0.000740203 -7.23261e-05 6.24132e-07
-7.23261e-05 -6.96216e-05 2.53639e-06
6.24132e-07 2.53639e-06 -0.000206654
0.00130333 -9.35857e-05 -2.69309e-06
-9.35857e-05 3.43775e-05 -9.12731e-07
-2.69309e-06 -9.12731e-07 -5.58104e-05
0.000860411 -6.37564e-05 -4.35852e-06
-6.37564e-05 4.22784e-06 7.6196e-07
-4.35852e-06 7.6196e-07 -8.70424e-05
0.0010831 -3.8125e-05 -9.69803e-07
-3.8125e-05 0.000127335 -5.52431e-08
-9.69803e-07 -5.52431e-08 2.69724e-05
0.00106801 -4.25865e-05 -4.7155e-07
-4.25865e-05 0.000108792 1.46917e-06
-4.7155e-07 1.46917e-06 2.03841e-05
0.000945273 -8.32872e-07 -7.58912e-07
-8.32872e-07 2.93575e-05 1.2107e-06
-7.58912e-07 1.2107e-06 -1.59617e-05
0.00105081 -3.29201e-05 -9.09972e-08
-3.29201e-05 9.32986e-05 6.61636e-07
-9.09972e-08 6.61636e-07 1.61232e-05
0.00104379 9.36643e-06 -5.85278e-07
9.36643e-06 8.68758e-05 1.00266e-06
-5.85278e-07 1.00266e-06 2.49294e-05
0.000967877 -5.25007e-06 -9.05641e-08
-5.25007e-06 3.92167e-05 4.83525e-07
-9.05641e-08 4.83525e-07 -1.91587e-06
0.000794921 1.54664e-05 3.49342e-08
1.54664e-05 -3.67165e-05 1.5206e-06
3.49342e-08 1.5206e-06 -9.57992e-05
0.00166575 2.14933e-05 -3.26799e-07
2.14933e-05 8.16646e-05 1.33172e-06
-3.26799e-07 1.33172e-06 1.86599e-06
0.000955009 1.17842e-05 2.02134e-07
1.17842e-05 4.36429e-05 -4.92148e-07
2.02134e-07 -4.92148e-07 -1.09871e-05
0.000926948 3.02355e-06 4.33075e-07
3.02355e-06 3.04019e-05 1.09591e-08
4.33075e-07 1.09591e-08 -3.05312e-05
0.00100923 2.58215e-05 -2.01257e-07
2.58215e-05 7.41134e-05 9.27195e-07
-2.01257e-07 9.27195e-07 6.82236e-06
0.00197455 -4.82105e-05 -2.95204e-06
-4.82105e-05 0.000151135 5.86707e-07
-2.95204e-06 5.86707e-07 0.000108096
0.00143186 -9.81295e-05 -9.50233e-07
-9.81295e-05 -4.12457e-05 -1.40814e-06
-9.50233e-07 -1.40814e-06 -0.000102347
0.0010492 -7.55481e-05 1.02176e-07
-7.55481e-05 0.000103534 -2.75557e-07
1.02176e-07 -2.75557e-07 -6.22259e-06
0.00144839 -0.000102765 1.21749e-07
-0.000102765 0.00021803 -3.30665e-07
1.21749e-07 -3.30665e-07 8.97381e-05
0.00108333 -2.20537e-05 -2.55115e-07
-2.20537e-05 0.000112709 8.85663e-08
-2.55115e-07 8.85663e-08 3.91992e-05
0.00101544 -2.82859e-05 -1.20265e-07
-2.82859e-05 7.7697e-05 7.35237e-07
-1.20265e-07 7.35237e-07 -5.00332e-06
0.00098434 -5.45522e-05 1.96138e-06
-5.45522e-05 9.67204e-05 -4.60566e-07
1.96138e-06 -4.60566e-07 -1.93518e-05
0.0011395 -4.36137e-05 7.96576e-08
-4.36137e-05 0.00015525 -5.51815e-07
7.96576e-08 -5.51815e-07 5.66838e-05
0.00110041 1.13449e-05 3.38126e-06
1.13449e-05 -0.000272767 -6.57822e-08
3.38126e-06 -6.57822e-08 -0.000339952
0.00212235 -0.000109287 1.15726e-05
-0.000109287 0.000139182 -5.40231e-06
1.15726e-05 -5.40231e-06 9.32561e-05
0.00194424 -0.000120451 4.81118e-06
-0.000120451 0.00035613 -1.94958e-06
4.81118e-06 -1.94958e-06 0.000234648
0.00111895 -8.93853e-05 1.10103e-07
-8.93853e-05 0.000144014 -1.41209e-06
1.10103e-07 -1.41209e-06 2.06496e-05
0.000925865 1.69396e-05 -5.86806e-07
1.69396e-05 3.42477e-05 -6.23492e-07
-5.86806e-07 -6.23492e-07 -3.70059e-05
0.000948958 -3.68755e-05 9.15947e-07
-3.68755e-05 4.79748e-05 -1.44525e-06
9.15947e-07 -1.44525e-06 -2.48643e-05
0.00101756 -4.97145e-05 5.69701e-07
-4.97145e-05 8.34379e-05 -1.01931e-06
5.69701e-07 -1.01931e-06 -3.68471e-06
0.0010948 -2.54665e-05 -6.46578e-07
-2.54665e-05 0.000148044 -5.20626e-07
-6.46578e-07 -5.20626e-07 2.23475e-05
0.000468107 -7.76311e-06 -1.16192e-05
-7.76311e-06 -0.000462455 -1.05895e-06
-1.16192e-05 -1.05895e-06 -0.000969148
0.0010844 5.26154e-05 -1.66329e-07
5.26154e-05 0.000116401 -3.09537e-07
-1.66329e-07 -3.09537e-07 2.86518e-05
0.000961142 6.07227e-05 7.04917e-07
6.07227e-05 4.72752e-05 4.78283e-07
7.04917e-07 4.78283e-07 -4.86922e-05
0.00126573 4.10166e-05 -3.5114e-06
4.10166e-05 -0.000261746 -1.4006e-06
-3.5114e-06 -1.4006e-06 -0.000318708
0.00173638 0.00010006 -3.6347e-06
0.00010006 6.21282e-05 5.23978e-07
-3.6347e-06 5.23978e-07 -4.74017e-06
0.00139823 9.83638e-05 -2.2516e-06
9.83638e-05 0.00019802 -3.64027e-07
-2.2516e-06 -3.64027e-07 5.43649e-05
0.000873447 6.32021e-05 1.27083e-06
6.32021e-05 1.58002e-05 3.65104e-07
1.27083e-06 3.65104e-07 -0.000103095
0.00145966 1.01997e-05 -1.14103e-05
1.01997e-05 -0.000170802 -1.63694e-06
-1.14103e-05 -1.63694e-06 -0.000180216
0.00110801 5.84434e-05 1.01733e-07
5.84434e-05 0.000124927 -1.67002e-07
1.01733e-07 -1.67002e-07 3.20783e-05
0.00189001 0.000110551 -3.1824e-07
0.000110551 3.35698e-05 3.06975e-07
-3.1824e-07 3.06975e-07 -1.6972e-05
0.00108978 6.7272e-05 6.54232e-07
6.7272e-05 0.000120384 -9.78779e-09
6.54232e-07 -9.78779e-09 1.9092e-05
0.00106497 7.73663e-05 -2.5711e-07
7.73663e-05 0.000129525 -1.22996e-07
-2.5711e-07 -1.22996e-07 -1.21718e-05
0.000751106 0.000106448 -2.63286e-06
0.000106448 -0.000230894 -2.74762e-07
-2.63286e-06 -2.74762e-07 -0.000345454
0.00156039 -0.000123612 -1.34099e-05
-0.000123612 8.96156e-05 -5.64786e-06
-1.34099e-05 -5.64786e-06 -0.000418276
0.00276318 -0.000131298 4.32155e-06
-0.000131298 0.000242475 -4.37514e-06
4.32155e-06 -4.37514e-06 -6.30171e-05
0.000879903 0.000106548 3.10721e-06
0.000106548 -0.000359547 -4.76186e-07
3.10721e-06 -4.76186e-07 -0.000277908
-0.000343208 -0.000176233 -5.91805e-06
-0.000176233 -0.000396384 -3.82634e-06
-5.91805e-06 -3.82634e-06 -0.000451015
0.000491274 -0.000237282 -2.36352e-07
-0.000237282 -0.000531655 2.83832e-07
-2.36352e-07 2.83832e-07 -1.31301e-05
0.00110135 5.97268e-05 6.93681e-07
5.97268e-05 0.000125793 -6.90852e-07
6.93681e-07 -6.90852e-07 3.37344e-05
-0.000245788 3.21106e-05 -9.82855e-05
3.21106e-05 -0.000377731 -1.16161e-05
-9.82855e-05 -1.16161e-05 -0.000589232
0.00212034 -0.00012479 -7.96132e-06
-0.00012479 0.00075775 -8.31329e-06
-7.96132e-06 -8.31329e-06 0.00100812
0.001226 0.000127597 4.42873e-06
0.000127597 -0.000201548 3.83322e-06
4.42873e-06 3.83322e-06 -0.000209382
0.000796893 3.30545e-05 -5.77735e-07
3.30545e-05 -1.52336e-05 -9.7156e-07
-5.77735e-07 -9.7156e-07 -0.000126673
0.00160458 6.85249e-05 -4.33543e-06
6.85249e-05 0.000439485 2.26903e-06
-4.33543e-06 2.26903e-06 0.000259951
0.00165288 0.000110791 2.51631e-06
0.000110791 0.000223642 7.20198e-06
2.51631e-06 7.20198e-06 0.000178038
0.00570888 -0.000236483 -6.6522e-05
-0.000236483 0.00176164 -1.72896e-05
-6.6522e-05 -1.72896e-05 0.00100907
0.00211234 -4.70699e-05 2.77685e-05
-4.70699e-05 -0.000124871 2.27427e-05
2.77685e-05 2.27427e-05 -0.000488824
1.35543e-06 -0.000252568 -5.30701e-05
-0.000252568 -0.000155832 -2.65538e-05
-5.30701e-05 -2.65538e-05 -7.12962e-05
-0.000358595 -0.000115301 -6.44022e-06
-0.000115301 -0.00119489 1.19494e-06
-6.44022e-06 1.19494e-06 -0.000918722
0.00104924 4.13336e-05 -5.32663e-07
4.13336e-05 9.11121e-05 -4.53144e-07
-5.32663e-07 -4.53144e-07 3.98663e-06
0.00111974 5.15124e-05 -4.95889e-07
5.15124e-05 0.000114303 1.84903e-07
-4.95889e-07 1.84903e-07 2.58405e-05
0.00122028 6.45839e-05 -5.33955e-07
6.45839e-05 0.00015461 -3.29323e-07
-5.33955e-07 -3.29323e-07 6.58699e-05
0.000946324 2.8785e-06 3.522e-08
2.8785e-06 3.01383e-05 -4.19238e-07
3.522e-08 -4.19238e-07 -1.55792e-05
0.000996048 -9.26053e-06 9.06167e-08
-9.26053e-06 6.1977e-05 -6.25139e-07
9.06167e-08 -6.25139e-07 4.01459e-06
0.000945918 1.34589e-05 -2.68457e-07
1.34589e-05 3.44586e-05 -8.82434e-07
-2.68457e-07 -8.82434e-07 -3.33368e-05
0.00103471 2.36807e-05 9.93579e-08
2.36807e-05 8.17075e-05 -5.54792e-07
9.93579e-08 -5.54792e-07 6.94726e-06
0.00103372 2.87881e-05 -1.78825e-07
2.87881e-05 7.59303e-05 -4.91345e-07
-1.78825e-07 -4.91345e-07 -8.30733e-06
0.000778682 -4.75897e-06 2.89905e-07
-4.75897e-06 -5.6489e-05 4.21716e-07
2.89905e-07 4.21716e-07 -0.000102454
0.00100528 3.38609e-05 -2.7991e-07
3.38609e-05 6.91106e-05 -5.53799e-07
-2.7991e-07 -5.53799e-07 -4.36378e-06
0.00102437 1.40858e-06 -1.13191e-07
1.40858e-06 7.42758e-05 4.36527e-07
-1.13191e-07 4.36527e-07 6.69885e-06
0.00093123 1.46672e-05 1.85187e-07
1.46672e-05 2.78102e-05 -2.90052e-07
1.85187e-07 -2.90052e-07 -3.09691e-05
0.00102355 4.78206e-05 1.32795e-08
4.78206e-05 7.30585e-05 1.63071e-07
1.32795e-08 1.63071e-07 -1.01524e-05
0.000993147 3.08395e-05 5.07263e-08
3.08395e-05 5.7401e-05 3.34243e-07
5.07263e-08 3.34243e-07 -1.92837e-05
0.00118188 5.44226e-05 1.85591e-08
5.44226e-05 0.000162385 2.36714e-07
1.85591e-08 2.36714e-07 7.21212e-05
0.00100379 -3.52143e-05 -2.6462e-07
-3.52143e-05 6.33964e-05 2.81494e-07
-2.6462e-07 2.81494e-07 -3.31389e-06
0.00101581 -2.30783e-05 -3.21381e-07
-2.30783e-05 7.01803e-05 6.11978e-09
-3.21381e-07 6.11978e-09 1.22949e-05
0.00102789 -5.33161e-07 -2.17759e-07
-5.33161e-07 7.69469e-05 -2.47734e-08
-2.17759e-07 -2.47734e-08 1.93294e-05
0.00102957 2.44554e-05 -2.3784e-07
2.44554e-05 7.84935e-05 -4.13142e-07
-2.3784e-07 -4.13142e-07 1.0951e-05
0.00101974 1.67655e-05 1.95302e-08
1.67655e-05 7.45917e-05 5.51617e-07
1.95302e-08 5.51617e-07 6.05459e-06
0.00100282 1.27545e-05 -2.02495e-09
1.27545e-05 6.53276e-05 6.12137e-07
-2.02495e-09 6.12137e-07 -3.18118e-06
0.00107395 2.19995e-05 -4.6174e-08
2.19995e-05 9.86164e-05 -2.33998e-07
-4.6174e-08 -2.33998e-07 2.50749e-05
0.000975514 -1.79835e-05 -6.32373e-08
-1.79835e-05 6.02498e-05 1.09302e-06
-6.32373e-08 1.09302e-06 -1.64905e-05
0.00096858 -1.41358e-06 -1.64736e-07
-1.41358e-06 4.71781e-05 7.35711e-07
-1.64736e-07 7.35711e-07 -1.32617e-05
0.000963187 -6.05685e-06 3.41787e-08
-6.05685e-06 4.64053e-05 -2.72291e-08
3.41787e-08 -2.72291e-08 -1.29912e-05
0.000947832 -6.21262e-06 -7.24824e-07
-6.21262e-06 3.08998e-05 7.96436e-07
-7.24824e-07 7.96436e-07 -1.48137e-05
0.000860967 9.15216e-06 1.85768e-07
9.15216e-06 -8.37533e-06 -9.08847e-07
1.85768e-07 -9.08847e-07 -6.64864e-05
0.000869437 -8.71524e-06 1.90746e-07
-8.71524e-06 -9.63145e-06 -1.24054e-09
1.90746e-07 -1.24054e-09 -5.50797e-05
0.000922484 8.98403e-06 -3.05401e-07
8.98403e-06 7.04447e-06 1.61452e-06
-3.05401e-07 1.61452e-06 -1.97511e-05
0.000791635 4.14745e-06 1.96024e-07
4.14745e-06 -4.91301e-05 -3.59514e-07
1.96024e-07 -3.59514e-07 -9.52645e-05
0.000917265 3.16491e-06 -1.78664e-07
3.16491e-06 3.84946e-06 -1.43484e-08
-1.78664e-07 -1.43484e-08 -2.23314e-05
0.00144362 7.49986e-06 -2.43033e-06
7.49986e-06 0.00026457 4.14568e-06
-2.43033e-06 4.14568e-06 0.000268069
0.000910411 -5.98932e-06 5.63987e-07
-5.98932e-06 3.8015e-07 -1.54561e-06
5.63987e-07 -1.54561e-06 -2.55738e-05
0.00115765 3.86129e-06 -9.26265e-07
3.86129e-06 0.000115509 6.03866e-07
-9.26265e-07 6.03866e-07 0.000117915
0.00106261 2.22349e-06 -2.04224e-06
2.22349e-06 6.46643e-05 3.79502e-06
-2.04224e-06 3.79502e-06 8.29111e-05
0.000870799 2.28255e-07 3.28122e-08
2.28255e-07 -3.31003e-05 -2.96281e-06
3.28122e-08 -2.96281e-06 -3.19461e-05
0.00217727 -6.53797e-07 1.3102e-06
-6.53797e-07 0.00063959 2.86929e-10
1.3102e-06 2.86929e-10 0.000663412
0.00105791 -3.11937e-06 -1.07651e-06
-3.11937e-06 6.2671e-05 -3.80313e-06
-1.07651e-06 -3.80313e-06 8.0922e-05
0.000950195 2.59034e-05 1.92736e-07
2.59034e-05 3.13763e-05 -4.31382e-07
1.92736e-07 -4.31382e-07 -9.1825e-06
0.00093146 4.02254e-07 4.78661e-08
4.02254e-07 6.14402e-06 -1.71739e-06
4.78661e-08 -1.71739e-06 -1.57277e-05
0.000928576 2.63398e-06 -5.13874e-08
2.63398e-06 4.79552e-06 -6.71962e-09
-5.13874e-08 -6.71962e-09 -1.73515e-05
0.000867799 3.86694e-06 1.92745e-07
3.86694e-06 -3.51869e-05 -3.06578e-06
1.92745e-07 -3.06578e-06 -3.15725e-05
0.000922892 5.23058e-06 -3.53163e-07
5.23058e-06 2.83297e-06 1.68075e-06
-3.53163e-07 1.68075e-06 -2.02839e-05
0.000863052 7.62426e-06 6.16144e-08
7.62426e-06 -3.59888e-05 -6.09786e-07
6.16144e-08 -6.09786e-07 -3.31715e-05
0.00210682 9.41893e-06 5.14547e-06
9.41893e-06 0.0006052 -3.83821e-06
5.14547e-06 -3.83821e-06 0.000629522
0.0013991 1.36235e-05 -1.26221e-06
1.36235e-05 0.000243704 1.92713e-06
-1.26221e-06 1.92713e-06 0.000247607
0.0016123 1.2507e-05 2.53515e-07
1.2507e-05 0.000353641 1.19012e-06
2.53515e-07 1.19012e-06 0.000374102
0.00109922 1.43181e-05 -1.10047e-05
1.43181e-05 9.32013e-05 6.3009e-06
-1.10047e-05 6.3009e-06 0.000109713
0.00156384 -3.25962e-05 -1.88593e-06
-3.25962e-05 -1.94874e-05 -3.55783e-07
-1.88593e-06 -3.55783e-07 -5.94706e-05
0.0015031 -4.53076e-07 -2.16885e-06
-4.53076e-07 1.69371e-05 -5.38955e-07
-2.16885e-06 -5.38955e-07 -6.45482e-05
0.00110841 1.57961e-06 -5.76015e-06
1.57961e-06 -0.000216249 -4.10516e-06
-5.76015e-06 -4.10516e-06 -0.000293621
0.000998925 -8.18644e-05 3.51715e-05
-8.18644e-05 -5.7259e-05 6.62676e-06
3.51715e-05 6.62676e-06 -0.000262
0.00136042 -2.5054e-05 -2.75477e-06
-2.5054e-05 4.21662e-08 -7.88483e-07
-2.75477e-06 -7.88483e-07 -5.93702e-05
0.00179181 2.88339e-05 -2.077e-06
2.88339e-05 9.7142e-05 -1.57327e-06
-2.077e-06 -1.57327e-06 4.28398e-06
0.0013845 4.6187e-05 9.88565e-07
4.6187e-05 4.26687e-05 1.06062e-06
9.88565e-07 1.06062e-06 -2.98337e-05
0.00123203 -4.43912e-05 0.000105513
-4.43912e-05 3.94461e-05 7.31841e-06
0.000105513 7.31841e-06 -0.000219522
0.0052367 9.66422e-05 -2.40228e-05
9.66422e-05 0.00155694 -3.50958e-06
-2.40228e-05 -3.50958e-06 0.000883437
0.00272611 0.000260545 -3.9054e-05
0.000260545 0.00108822 1.73105e-05
-3.9054e-05 1.73105e-05 0.00108115
0.00107047 0.000203065 -1.15617e-05
0.000203065 -4.55613e-05 6.04197e-06
-1.15617e-05 6.04197e-06 0.000394964
0.000775496 -1.19001e-05 9.10169e-07
-1.19001e-05 -4.65406e-05 -9.73842e-07
9.10169e-07 -9.73842e-07 -0.000100389
0.000956957 -8.78711e-06 -2.17927e-08
-8.78711e-06 3.3888e-05 -1.88712e-09
-2.17927e-08 -1.88712e-09 -5.78103e-06
0.000961895 -2.88749e-05 -7.09057e-07
-2.88749e-05 3.6821e-05 9.47831e-07
-7.09057e-07 9.47831e-07 -3.92466e-06
0.000899065 5.76226e-06 -2.49555e-07
5.76226e-06 1.51412e-05 7.28124e-09
-2.49555e-07 7.28124e-09 -3.78922e-05
0.00103971 3.76579e-05 1.15733e-07
3.76579e-05 9.30052e-05 3.52543e-07
1.15733e-07 3.52543e-07 2.95051e-05
0.00102771 4.35823e-05 1.85047e-07
4.35823e-05 8.38144e-05 2.63696e-07
1.85047e-07 2.63696e-07 2.25238e-05
0.00100294 -2.52867e-06 5.40499e-07
-2.52867e-06 6.97745e-05 -1.35269e-06
5.40499e-07 -1.35269e-06 1.43883e-05
0.000908504 -2.65142e-05 -3.76214e-07
-2.65142e-05 2.05193e-05 4.75051e-07
-3.76214e-07 4.75051e-07 -3.29956e-05
0.0018144 2.09946e-05 -2.72665e-06
2.09946e-05 0.000161063 1.87365e-07
-2.72665e-06 1.87365e-07 8.23468e-05
0.00177481 -4.95911e-05 -3.09898e-06
-4.95911e-05 4.97727e-05 1.65597e-06
-3.09898e-06 1.65597e-06 2.62357e-06
0.000924165 -8.64979e-05 -9.78572e-06
-8.64979e-05 -0.000284856 5.64684e-07
-9.78572e-06 5.64684e-07 -0.000343906
0.00100566 -7.43921e-05 1.54277e-07
-7.43921e-05 7.61879e-05 1.70298e-06
1.54277e-07 1.70298e-06 -3.23484e-05
0.00158585 -0.000106643 -9.37629e-07
-0.000106643 0.000292483 2.59372e-06
-9.37629e-07 2.59372e-06 0.000161119
0.00100484 -5.52877e-05 -4.71815e-07
-5.52877e-05 0.000101675 1.17518e-07
-4.71815e-07 1.17518e-07 -9.98826e-06
0.00123611 -5.21996e-05 1.67006e-07
-5.21996e-05 0.000204191 3.72645e-07
1.67006e-07 3.72645e-07 0.000103277
0.00096031 -3.06418e-05 -4.23127e-07
-3.06418e-05 4.97219e-05 1.03944e-06
-4.23127e-07 1.03944e-06 -3.29019e-05
0.000971619 -5.95308e-06 -3.13652e-08
-5.95308e-06 5.32965e-05 1.08081e-06
-3.13652e-08 1.08081e-06 -6.66555e-06
0.00113062 -1.28429e-05 -4.71463e-07
-1.28429e-05 0.000135858 8.01084e-07
-4.71463e-07 8.01084e-07 6.35578e-05
0.00115681 4.18666e-06 -7.24432e-08
4.18666e-06 0.000145503 2.56484e-07
-7.24432e-08 2.56484e-07 9.27054e-05
0.000916184 4.06826e-05 7.32826e-07
4.06826e-05 2.53452e-05 2.01882e-06
7.32826e-07 2.01882e-06 -4.14583e-05
0.0017705 2.15105e-05 1.64494e-06
2.15105e-05 5.05938e-05 -3.11368e-06
1.64494e-06 -3.11368e-06 -1.65796e-05
0.000950535 1.7937e-05 -2.7313e-07
1.7937e-05 4.73736e-05 3.26487e-07
-2.7313e-07 3.26487e-07 -2.30744e-05
0.000974485 -3.33865e-05 -4.77777e-09
-3.33865e-05 6.04361e-05 -4.44127e-07
-4.77777e-09 -4.44127e-07 -1.20948e-05
0.00217889 -0.000109295 -4.26115e-06
-0.000109295 0.000170056 -7.31237e-07
-4.26115e-06 -7.31237e-07 0.000127812
0.000906871 -9.59328e-05 1.61741e-06
-9.59328e-05 -0.000147631 1.8172e-06
1.61741e-06 1.8172e-06 -0.000263595
0.0011823 -9.27696e-05 8.80604e-07
-9.27696e-05 0.000173408 -7.69267e-07
8.80604e-07 -7.69267e-07 4.43044e-05
0.00104163 -4.31371e-05 5.4692e-08
-4.31371e-05 9.33485e-05 -1.69023e-07
5.4692e-08 -1.69023e-07 5.82771e-06
0.00111438 -3.24385e-05 -4.91138e-08
-3.24385e-05 0.000156402 2.76142e-07
-4.91138e-08 2.76142e-07 3.08833e-05
0.00241362 -5.14566e-05 -2.29316e-06
-5.14566e-05 0.000256983 9.99651e-06
-2.29316e-06 9.99651e-06 0.000238713
0.00266424 -0.000178099 1.14996e-05
-0.000178099 0.000557583 -4.28956e-06
1.14996e-05 -4.28956e-06 0.000436538
0.000526792 -9.1571e-05 -4.12591e-07
-9.1571e-05 -0.00018858 -2.67767e-06
-4.12591e-07 -2.67767e-06 -0.000318724
0.0011755 -6.48071e-05 2.04251e-07
-6.48071e-05 0.000200671 -5.57161e-07
2.04251e-07 -5.57161e-07 4.26782e-05
0.000871034 -3.76095e-05 3.80863e-07
-3.76095e-05 9.76788e-06 -4.1423e-07
3.80863e-07 -4.1423e-07 -6.76217e-05
0.00102019 -3.47789e-05 1.0486e-06
-3.47789e-05 8.06758e-05 -1.21672e-06
1.0486e-06 -1.21672e-06 -2.7178e-06
0.00119911 -2.0035e-05 -2.66225e-07
-2.0035e-05 0.000177049 -7.19588e-07
-2.66225e-07 -7.19588e-07 7.38087e-05
-0.000950541 -1.7945e-05 -8.44902e-05
-1.7945e-05 -0.000639116 -1.10727e-06
-8.44902e-05 -1.10727e-06 -0.000663333
0.00552921 -2.29608e-05 -2.16671e-05
-2.29608e-05 0.00187718 -2.58552e-06
-2.16671e-05 -2.58552e-06 0.00135717
0.00110806 5.91317e-05 4.35259e-07
5.91317e-05 0.00012714 3.32976e-07
4.35259e-07 3.32976e-07 3.44572e-05
0.000879447 6.01967e-05 1.40172e-06
6.01967e-05 1.8539e-05 -7.81668e-07
1.40172e-06 -7.81668e-07 -8.24554e-05
0.00155535 0.000106439 -9.31791e-06
0.000106439 -0.000149962 1.71398e-06
-9.31791e-06 1.71398e-06 -0.000196799
0.0012468 0.000117081 -3.05597e-06
0.000117081 -1.24953e-06 -1.49102e-06
-3.05597e-06 -1.49102e-06 -0.000110597
0.00107403 7.78829e-05 1.52837e-06
7.78829e-05 0.000134177 -1.66608e-06
1.52837e-06 -1.66608e-06 -4.67668e-06
0.00503627 -4.44486e-05 2.48722e-05
-4.44486e-05 0.00150324 -1.15624e-05
2.48722e-05 -1.15624e-05 0.000865388
0.00200468 -0.00013246 -5.4777e-05
-0.00013246 -1.17138e-05 -1.3671e-05
-5.4777e-05 -1.3671e-05 -0.000205399
0.000820098 9.04357e-05 -7.8797e-06
9.04357e-05 -0.000399421 -1.0651e-05
-7.8797e-06 -1.0651e-05 -0.000322683
0.00239988 -0.000234955 3.12172e-05
-0.000234955 0.00103384 1.46682e-05
3.12172e-05 1.46682e-05 0.00100617
-0.000607338 -0.000249804 1.41368e-05
-0.000249804 -0.00109058 1.46722e-05
1.41368e-05 1.46722e-05 -0.000597239
0.00106734 6.10191e-05 1.85443e-07
6.10191e-05 0.000105223 -3.10135e-07
1.85443e-07 -3.10135e-07 1.33718e-05
-0.00114072 -5.99367e-05 -1.24817e-05
-5.99367e-05 -0.000665366 -5.04087e-07
-1.24817e-05 -5.04087e-07 -0.000648143
0.000922693 -0.00011723 -1.98911e-06
-0.00011723 0.000131476 1.57379e-07
-1.98911e-06 1.57379e-07 0.000309914
0.00164057 0.000132717 7.1121e-07
0.000132717 5.52528e-06 1.16731e-06
7.1121e-07 1.16731e-06 -1.17569e-05
0.0010901 4.8411e-05 -2.60705e-07
4.8411e-05 0.000137791 -1.20738e-06
-2.60705e-07 -1.20738e-06 3.02394e-05
0.00124145 7.37475e-05 6.10713e-07
7.37475e-05 0.000257541 1.41802e-07
6.10713e-07 1.41802e-07 7.90086e-05
0.00130588 8.05689e-05 -6.16936e-06
8.05689e-05 3.43325e-05 -1.98057e-06
-6.16936e-06 -1.98057e-06 1.70938e-05
0.00444902 -0.000157279 6.51562e-06
-0.000157279 0.00107862 5.91374e-06
6.51562e-06 5.91374e-06 0.000263458
0.0019839 -2.41868e-05 -1.0691e-05
-2.41868e-05 -4.10127e-06 -1.48246e-05
-1.0691e-05 -1.48246e-05 -0.000150967
0.0030018 -0.000342942 5.92738e-06
-0.000342942 0.000955977 -9.74185e-07
5.92738e-06 -9.74185e-07 0.000947037
0.000130028 -0.000140108 -1.9922e-06
-0.000140108 -0.000986718 3.61481e-06
-1.9922e-06 3.61481e-06 -0.000621053
0.00104955 3.00427e-05 -1.91526e-06
3.00427e-05 6.35023e-05 -1.54846e-06
-1.91526e-06 -1.54846e-06 -2.47274e-05
0.000168234 -2.57133e-05 -3.81629e-06
-2.57133e-05 -0.000203555 -1.16091e-06
-3.81629e-06 -1.16091e-06 -0.000231221
0.0010279 -8.17725e-06 2.51617e-06
-8.17725e-06 7.73283e-05 -8.06567e-06
2.51617e-06 -8.06567e-06 3.14545e-05
0.000229047 9.63634e-05 5.84245e-06
9.63634e-05 -0.000334424 -3.12689e-06
5.84245e-06 -3.12689e-06 -0.00049014
0.00189618 5.06718e-05 -7.42059e-06
5.06718e-05 0.000605719 1.63829e-07
-7.42059e-06 1.63829e-07 0.000470639
0.00410289 -4.82048e-05 -9.97016e-06
-4.82048e-05 0.00178244 -4.91829e-07
-9.97016e-06 -4.91829e-07 0.00174982
0.000617044 0.000153307 -5.35994e-05
0.000153307 -0.000335593 1.09231e-05
-5.35994e-05 1.09231e-05 -0.000569315
0.0016265 -0.000243198 1.32808e-05
-0.000243198 -0.000109635 9.18623e-06
1.32808e-05 9.18623e-06 -0.00104812
0.00396649 -0.000368935 -4.2411e-05
-0.000368935 0.000879639 -1.79935e-05
-4.2411e-05 -1.79935e-05 0.000951221
0.000639961 -4.31031e-05 2.8584e-07
-4.31031e-05 -0.0004483 7.76903e-07
2.8584e-07 7.76903e-07 -0.000371107
0.00113061 5.58179e-05 -7.49922e-08
5.58179e-05 0.000122271 9.89903e-07
-7.49922e-08 9.89903e-07 3.3291e-05
0.00111531 5.99744e-05 8.28008e-07
5.99744e-05 0.000102143 6.48218e-07
8.28008e-07 6.48218e-07 1.27608e-05
0.000700513 5.27036e-05 1.76776e-06
5.27036e-05 -8.00388e-05 -4.08251e-07
1.76776e-06 -4.08251e-07 -0.000175178
0.000792425 1.30373e-05 1.44118e-07
1.30373e-05 -4.94444e-05 -3.82827e-07
1.44118e-07 -3.82827e-07 -9.56515e-05
0.00101309 2.09973e-05 -7.15695e-08
2.09973e-05 7.00253e-05 -6.49163e-07
-7.15695e-08 -6.49163e-07 1.14312e-05
0.00117812 -1.85965e-05 2.25169e-07
-1.85965e-05 0.000153628 1.33202e-08
2.25169e-07 1.33202e-08 8.64591e-05
0.00096972 2.76854e-05 -4.383e-07
2.76854e-05 5.04692e-05 -7.77722e-07
-4.383e-07 -7.77722e-07 -2.25792e-05
0.000935974 4.48129e-05 -2.10019e-07
4.48129e-05 2.70671e-05 -8.56438e-08
-2.10019e-07 -8.56438e-08 -5.66786e-05
0.00100522 8.09206e-06 3.53717e-07
8.09206e-06 6.57119e-05 -4.06891e-07
3.53717e-07 -4.06891e-07 7.34141e-06
0.0010205 2.67751e-05 -1.66873e-07
2.67751e-05 7.2984e-05 -1.13518e-07
-1.66873e-07 -1.13518e-07 -3.04796e-06
0.000989722 -1.78855e-05 4.7763e-08
-1.78855e-05 5.68313e-05 -2.44322e-08
4.7763e-08 -2.44322e-08 -1.01291e-05
0.00108865 4.56986e-05 1.1751e-07
4.56986e-05 0.000116838 4.07129e-07
1.1751e-07 4.07129e-07 2.58626e-05
0.00128881 -2.10805e-06 -7.71179e-08
-2.10805e-06 0.000217114 -8.24594e-07
-7.71179e-08 -8.24594e-07 0.000122267
0.00110058 1.45453e-05 -2.72114e-07
1.45453e-05 0.000115418 7.34809e-07
-2.72114e-07 7.34809e-07 3.54639e-05
0.00101839 9.78485e-06 1.74823e-07
9.78485e-06 7.33102e-05 3.46125e-07
1.74823e-07 3.46125e-07 5.06349e-06
0.0010185 -1.34615e-05 4.49331e-08
-1.34615e-05 7.35118e-05 -5.18352e-07
4.49331e-08 -5.18352e-07 1.52497e-05
0.000917791 1.12718e-06 -1.21216e-08
1.12718e-06 1.97936e-05 -1.04202e-06
-1.21216e-08 -1.04202e-06 -4.76781e-05
0.00101295 3.22832e-06 2.34044e-07
3.22832e-06 7.06957e-05 8.17859e-09
2.34044e-07 8.17859e-09 2.53667e-06
0.000993741 1.07778e-05 2.90055e-08
1.07778e-05 6.10172e-05 4.03735e-08
2.90055e-08 4.03735e-08 -7.51952e-06
0.00103754 1.02091e-05 -2.77633e-07
1.02091e-05 7.81203e-05 -7.34089e-07
-2.77633e-07 -7.34089e-07 5.04145e-06
0.000963466 -7.20802e-07 -1.22313e-07
-7.20802e-07 4.83959e-05 1.18972e-06
-1.22313e-07 1.18972e-06 -2.29615e-05
0.00107564 1.70415e-05 9.79232e-08
1.70415e-05 9.94859e-05 2.07165e-08
9.79232e-08 2.07165e-08 2.44705e-05
0.000919972 -6.3997e-06 5.78331e-08
-6.3997e-06 1.63107e-05 2.8764e-07
5.78331e-08 2.8764e-07 -6.07109e-05
0.00100725 -3.1813e-05 4.64358e-07
-3.1813e-05 7.20761e-05 -4.88404e-07
4.64358e-07 -4.88404e-07 -1.32684e-05
0.00079602 -4.7965e-05 3.00067e-07
-4.7965e-05 -1.15908e-05 -5.96136e-08
3.00067e-07 -5.96136e-08 -0.000101723
0.000885521 -3.10712e-05 -6.39149e-07
-3.10712e-05 1.92571e-05 -3.78496e-07
-6.39149e-07 -3.78496e-07 -6.18364e-05
0.000997028 -1.84136e-05 -5.0571e-08
-1.84136e-05 7.10983e-05 2.95649e-07
-5.0571e-08 2.95649e-07 -5.65321e-06
0.000984569 -1.26543e-05 -3.6311e-07
-1.26543e-05 5.70668e-05 1.31513e-06
-3.6311e-07 1.31513e-06 -7.1857e-06
0.000981138 -7.43306e-06 -6.03017e-08
-7.43306e-06 5.42112e-05 -5.33534e-08
-6.03017e-08 -5.33534e-08 -6.58504e-06
0.000950686 7.88994e-06 -2.90268e-07
7.88994e-06 3.1413e-05 9.14308e-07
-2.90268e-07 9.14308e-07 -1.52271e-05
0.000968416 2.30839e-07 3.60342e-07
2.30839e-07 4.78877e-05 -5.3999e-07
3.60342e-07 -5.3999e-07 -1.07019e-05
0.000948317 -5.018e-07 5.82489e-08
-5.018e-07 3.06741e-05 2.03891e-09
5.82489e-08 2.03891e-09 -1.47905e-05
0.000920561 1.03673e-05 -6.04542e-07
1.03673e-05 7.71287e-06 1.59996e-06
-6.04542e-07 1.59996e-06 -2.00891e-05
0.000782927 1.12301e-05 1.33124e-07
1.12301e-05 -5.45316e-05 -7.62445e-07
1.33124e-07 -7.62445e-07 -9.99003e-05
0.000921101 4.06561e-06 -8.58315e-08
4.06561e-06 6.21275e-06 -1.15634e-08
-8.58315e-08 -1.15634e-08 -2.05612e-05
0.00144193 1.12709e-05 -3.80106e-06
1.12709e-05 0.000266108 4.17345e-06
-3.80106e-06 4.17345e-06 0.000269069
0.000916279 -3.25162e-06 6.23267e-07
-3.25162e-06 3.22357e-06 -1.55034e-06
6.23267e-07 -1.55034e-06 -2.29208e-05
0.0011552 7.47945e-06 -1.45902e-06
7.47945e-06 0.00011577 5.89804e-07
-1.45902e-06 5.89804e-07 0.000117905
0.00101304 7.00693e-06 -7.46702e-07
7.00693e-06 4.06961e-05 1.48402e-06
-7.46702e-07 1.48402e-06 5.88875e-05
0.000868955 3.56043e-06 3.71703e-07
3.56043e-06 -3.36649e-05 -2.96188e-06
3.71703e-07 -2.96188e-06 -3.25741e-05
0.00217627 4.10467e-06 1.25612e-06
4.10467e-06 0.00063942 8.80201e-09
1.25612e-06 8.80201e-09 0.000663186
0.00217448 -3.91138e-07 1.07383e-06
-3.91138e-07 0.000638133 -3.89873e-06
1.07383e-06 -3.89873e-06 0.000661972
0.00119323 2.01025e-05 -6.81966e-07
2.01025e-05 0.000154796 -7.75104e-07
-6.81966e-07 -7.75104e-07 0.000114769
0.00092938 -1.79027e-06 -1.35932e-07
-1.79027e-06 5.60568e-06 -1.67e-06
-1.35932e-07 -1.67e-06 -1.68087e-05
0.000949299 4.37863e-06 5.13942e-07
4.37863e-06 3.05737e-05 4.87153e-07
5.13942e-07 4.87153e-07 -9.61309e-06
0.000874053 1.38132e-07 -2.50671e-08
1.38132e-07 -3.25045e-05 -3.06766e-06
-2.50671e-08 -3.06766e-06 -2.86479e-05
0.000930363 -4.61035e-08 5.37668e-09
-4.61035e-08 5.56588e-06 -5.81939e-09
5.37668e-09 -5.81939e-09 -1.63029e-05
0.000924973 2.17391e-06 -2.89181e-07
2.17391e-06 2.83169e-06 1.70395e-06
-2.89181e-07 1.70395e-06 -1.92896e-05
0.000871645 3.97605e-06 -1.1402e-07
3.97605e-06 -3.32106e-05 3.5403e-09
-1.1402e-07 3.5403e-09 -2.96276e-05
0.00208593 4.69935e-06 2.22707e-06
4.69935e-06 0.000592857 -3.84935e-06
2.22707e-06 -3.84935e-06 0.000617675
0.00138846 9.32051e-06 -8.47139e-07
9.32051e-06 0.000235042 1.88494e-06
-8.47139e-07 1.88494e-06 0.000240404
0.00157503 8.60331e-06 1.5031e-06
8.60331e-06 0.000331166 2.63804e-08
1.5031e-06 2.63804e-08 0.00035275
0.00109617 1.07452e-05 -8.95954e-06
1.07452e-05 8.71233e-05 6.23383e-06
-8.95954e-06 6.23383e-06 0.00010498
-0.00270361 6.28294e-05 -5.50459e-05
6.28294e-05 -0.00163929 1.08416e-05
-5.50459e-05 1.08416e-05 -0.0016103
-0.0013252 8.61533e-05 -7.88897e-06
8.61533e-05 -0.00123136 7.29372e-06
-7.88897e-06 7.29372e-06 -0.00106446
0.0018527 -8.59928e-05 -6.01642e-05
-8.59928e-05 0.000391174 -1.3249e-05
-6.01642e-05 -1.3249e-05 0.000189586
0.00150686 -2.9155e-05 -2.08331e-06
-2.9155e-05 9.06812e-05 -1.17218e-06
-2.08331e-06 -1.17218e-06 3.10143e-05
0.00142015 3.20899e-05 -1.30779e-05
3.20899e-05 -9.35388e-05 -9.20709e-07
-1.30779e-05 -9.20709e-07 -0.00018632
0.000894217 -2.73485e-05 2.19715e-05
-2.73485e-05 4.73552e-05 -1.93644e-06
2.19715e-05 -1.93644e-06 -0.000114853
0.00175125 5.33934e-05 2.08561e-06
5.33934e-05 0.000207359 1.65285e-06
2.08561e-06 1.65285e-06 0.000131253
0.00481646 0.000156436 -3.03191e-05
0.000156436 0.0013744 -4.54043e-07
-3.03191e-05 -4.54043e-07 0.000771672
-0.00229878 0.000135193 2.62001e-06
0.000135193 -0.00109408 -4.06259e-06
2.62001e-06 -4.06259e-06 -0.00109058
0.000341038 0.000219846 3.07377e-06
0.000219846 -0.000510593 -4.82121e-06
3.07377e-06 -4.82121e-06 -4.16616e-05
0.000956163 3.98095e-05 3.06049e-05
3.98095e-05 0.000145523 -1.29094e-05
3.06049e-05 -1.29094e-05 -6.53151e-05
0.00560636 0.000287376 -1.20673e-05
0.000287376 0.0016976 1.06724e-05
-1.20673e-05 1.06724e-05 0.00101635
8.71006e-05 0.000236284 -5.45535e-05
0.000236284 -0.000108815 3.82593e-05
-5.45535e-05 3.82593e-05 -4.34625e-06
0.00173804 0.000140881 -1.16588e-05
0.000140881 -7.94338e-05 8.52098e-06
-1.16588e-05 8.52098e-06 0.000315089
0.000906832 2.71651e-05 -3.63281e-07
2.71651e-05 2.6783e-05 -6.82083e-07
-3.63281e-07 -6.82083e-07 -4.03765e-05
0.000866988 3.70219e-06 5.30973e-08
3.70219e-06 -8.1715e-07 -4.34897e-07
5.30973e-08 -4.34897e-07 -5.39627e-05
0.000954168 -2.51158e-05 -6.69624e-07
-2.51158e-05 3.28557e-05 9.68963e-07
-6.69624e-07 9.68963e-07 -7.09313e-06
0.000829914 1.31525e-05 2.40167e-09
1.31525e-05 -1.96356e-05 6.09721e-07
2.40167e-09 6.09721e-07 -7.32973e-05
0.00100389 3.97813e-05 5.53393e-07
3.97813e-05 7.59205e-05 9.10341e-07
5.53393e-07 9.10341e-07 1.31255e-05
0.00103941 3.19786e-05 -3.20543e-07
3.19786e-05 9.45586e-05 -4.76107e-07
-3.20543e-07 -4.76107e-07 2.77418e-05
0.000978054 2.54765e-05 8.28445e-07
2.54765e-05 5.95959e-05 9.95322e-07
8.28445e-07 9.95322e-07 -2.16303e-06
0.000968452 4.9989e-06 5.69806e-07
4.9989e-06 5.21662e-05 -3.83699e-07
5.69806e-07 -3.83699e-07 -8.17032e-06
0.000928976 -9.09064e-06 2.33313e-07
-9.09064e-06 3.20657e-05 -5.23079e-07
2.33313e-07 -5.23079e-07 -2.41211e-05
0.00083544 -2.33164e-05 -3.99494e-07
-2.33164e-05 -1.65669e-05 1.08462e-06
-3.99494e-07 1.08462e-06 -7.0459e-05
0.00226506 3.06341e-05 -5.99572e-06
3.06341e-05 0.000286598 1.77311e-06
-5.99572e-06 1.77311e-06 0.000219588
0.00194999 -0.000106206 -1.45013e-05
-0.000106206 6.09889e-05 1.86205e-06
-1.45013e-05 1.86205e-06 2.25977e-05
-0.000343063 -6.58392e-05 -1.2713e-06
-6.58392e-05 -0.000755552 3.91521e-06
-1.2713e-06 3.91521e-06 -0.000866041
0.00119062 -9.45576e-05 -3.0467e-07
-9.45576e-05 0.00017504 1.95783e-06
-3.0467e-07 1.95783e-06 4.09606e-05
0.00112288 -3.89897e-05 5.59609e-07
-3.89897e-05 0.000158268 5.52802e-07
5.59609e-07 5.52802e-07 3.38275e-05
0.00106524 -3.93909e-05 -2.32862e-07
-3.93909e-05 0.000102738 5.55035e-07
-2.32862e-07 5.55035e-07 1.49849e-05
0.000981304 -3.60751e-05 -5.38683e-07
-3.60751e-05 6.39597e-05 6.04438e-07
-5.38683e-07 6.04438e-07 -8.53224e-06
0.000970891 1.87764e-05 -1.23632e-07
1.87764e-05 5.83481e-05 8.60205e-07
-1.23632e-07 8.60205e-07 -1.12902e-05
0.00195043 -4.37126e-05 -4.31538e-06
-4.37126e-05 1.08091e-05 1.24231e-06
-4.31538e-06 1.24231e-06 -1.68196e-05
0.000887833 -1.75462e-05 -1.62e-07
-1.75462e-05 1.80094e-05 -1.43365e-08
-1.62e-07 -1.43365e-08 -5.98233e-05
0.000968262 -3.78156e-05 4.43395e-07
-3.78156e-05 5.32372e-05 -5.45177e-07
4.43395e-07 -5.45177e-07 -3.14793e-05
0.00188338 -0.000152872 2.90743e-06
-0.000152872 0.000172837 3.05501e-07
2.90743e-06 3.05501e-07 6.03587e-05
0.000676167 -9.37445e-05 1.66929e-07
-9.37445e-05 -0.00010312 2.43169e-06
1.66929e-07 2.43169e-06 -0.000230523
0.00117424 -6.32092e-05 8.26069e-07
-6.32092e-05 0.000192415 -2.85685e-07
8.26069e-07 -2.85685e-07 4.13112e-05
0.00117679 -2.46909e-05 -2.11088e-07
-2.46909e-05 0.000165745 -3.62085e-07
-2.11088e-07 -3.62085e-07 5.77993e-05
0.00301535 -0.000132719 4.38681e-06
-0.000132719 0.000603409 -1.46413e-06
4.38681e-06 -1.46413e-06 0.000608471
0.00198019 -0.000154644 2.35103e-07
-0.000154644 0.000514437 -4.85365e-06
2.35103e-07 -4.85365e-06 0.000344551
0.000895491 1.1266e-06 -1.57252e-06
1.1266e-06 6.51663e-05 -5.50152e-07
-1.57252e-06 -5.50152e-07 -8.23553e-05
0.000959035 3.2828e-05 2.26171e-07
3.2828e-05 5.50738e-05 1.96818e-07
2.26171e-07 1.96818e-07 -2.41829e-05
0.000992987 -5.20485e-05 7.57871e-07
-5.20485e-05 6.41271e-05 -5.58892e-07
7.57871e-07 -5.58892e-07 -2.25821e-05
0.00110637 -7.03877e-06 3.01307e-07
-7.03877e-06 0.000109084 -1.71797e-09
3.01307e-07 -1.71797e-09 1.63788e-05
0.00116366 -8.26491e-06 -3.96399e-06
-8.26491e-06 0.000329128 1.24515e-07
-3.96399e-06 1.24515e-07 0.000314581
0.00134044 -9.29924e-06 7.43024e-06
-9.29924e-06 0.000363315 -1.9267e-06
7.43024e-06 -1.9267e-06 0.000208209
0.000525171 9.05687e-05 -3.74607e-05
9.05687e-05 -0.000540572 4.53037e-06
-3.74607e-05 4.53037e-06 -0.0010529
0.00104287 6.21204e-05 1.19252e-07
6.21204e-05 8.90721e-05 1.86489e-07
1.19252e-07 1.86489e-07 -2.49993e-06
0.00140011 6.43203e-05 2.48064e-06
6.43203e-05 0.00029761 3.88798e-07
2.48064e-06 3.88798e-07 0.000194246
0.00199557 0.000135226 -3.37347e-06
0.000135226 0.000188998 -7.506e-07
-3.37347e-06 -7.506e-07 0.00015843
0.000746158 7.49888e-05 2.33486e-06
7.49888e-05 1.34778e-05 -4.01365e-06
2.33486e-06 -4.01365e-06 -0.000166009
0.00387668 -0.000178383 4.59325e-05
-0.000178383 0.00155653 6.02772e-06
4.59325e-05 6.02772e-06 0.00152164
0.000527374 -0.000211876 3.08954e-05
-0.000211876 -0.000550683 2.98691e-05
3.08954e-05 2.98691e-05 -0.00110171
0.00351022 -6.38471e-06 -6.61057e-05
-6.38471e-06 0.000426886 -5.44791e-05
-6.61057e-05 -5.44791e-05 0.000182341
0.000466693 6.72623e-05 4.88266e-06
6.72623e-05 -0.000391545 -1.54067e-07
4.88266e-06 -1.54067e-07 -0.000372848
-0.00163187 -0.000221158 5.45088e-05
-0.000221158 -0.00108836 2.64844e-05
5.45088e-05 2.64844e-05 -0.00102626
0.0021608 -0.000117763 1.21209e-05
-0.000117763 0.000778968 8.82871e-06
1.21209e-05 8.82871e-06 0.000938424
0.00163396 -0.000172897 9.89794e-06
-0.000172897 -0.000103484 6.80154e-06
9.89794e-06 6.80154e-06 0.000297014
0.00115983 4.23796e-05 -5.52053e-08
4.23796e-05 0.000127241 2.19888e-07
-5.52053e-08 2.19888e-07 3.72046e-05
0.00068457 -4.09295e-05 -3.23548e-06
-4.09295e-05 6.54052e-05 3.31486e-07
-3.23548e-06 3.31486e-07 8.60047e-05
0.0009123 -2.70598e-06 -2.44749e-06
-2.70598e-06 -9.14319e-07 -3.92516e-06
-2.44749e-06 -3.92516e-06 -4.57376e-05
0.000913804 0.000100146 -1.858e-06
0.000100146 -7.55365e-07 5.5673e-07
-1.858e-06 5.5673e-07 -0.000161796
0.000878447 2.99239e-05 -2.14407e-07
2.99239e-05 0.000116411 -2.02799e-07
-2.14407e-07 -2.02799e-07 -2.45773e-05
0.00234614 1.36193e-06 1.42304e-05
1.36193e-06 0.000839881 7.00408e-07
1.42304e-05 7.00408e-07 0.000740645
0.00412207 0.000241212 -2.85183e-05
0.000241212 0.00105501 -1.90529e-05
-2.85183e-05 -1.90529e-05 0.000655437
0.00623471 -0.000267905 -1.80112e-06
-0.000267905 0.00176 4.35528e-06
-1.80112e-06 4.35528e-06 0.000948685
0.000149499 -0.000256752 8.4283e-06
-0.000256752 -0.000652801 1.56361e-05
8.4283e-06 1.56361e-05 -0.000628223
0.00180233 -6.09308e-05 -4.6597e-07
-6.09308e-05 0.000171246 7.46118e-07
-4.6597e-07 7.46118e-07 0.000328904
0.00142839 6.80424e-05 -6.31984e-07
6.80424e-05 0.00031246 -3.64496e-06
-6.31984e-07 -3.64496e-06 0.00023541
0.00190953 8.74629e-06 8.00644e-06
8.74629e-06 0.000711611 3.18533e-06
8.00644e-06 3.18533e-06 0.000647217
0.00112963 1.41144e-05 4.94144e-06
1.41144e-05 0.000157511 -9.17115e-08
4.94144e-06 -9.17115e-08 5.70162e-05
0.00040089 -3.53948e-05 -8.27938e-06
-3.53948e-05 -1.78134e-05 4.61705e-06
-8.27938e-06 4.61705e-06 -0.00015719
0.000708243 0.000127037 -2.36433e-05
0.000127037 0.00020612 4.29103e-05
-2.36433e-05 4.29103e-05 -4.03499e-05
0.00625708 -0.000171749 -1.91852e-05
-0.000171749 0.00137976 -1.64535e-05
-1.91852e-05 -1.64535e-05 0.00042827
-0.000181486 -0.000142987 -3.8738e-05
-0.000142987 -0.00125094 -4.50304e-05
-3.8738e-05 -4.50304e-05 -0.00110404
0.00217707 1.27996e-05 1.02406e-08
1.27996e-05 0.000422286 1.13241e-05
1.02406e-08 1.13241e-05 0.000567664
0.000996785 5.6291e-05 -4.50613e-08
5.6291e-05 4.33276e-05 -7.15572e-08
-4.50613e-08 -7.15572e-08 -4.68285e-05
0.00108723 6.13913e-05 5.55442e-07
6.13913e-05 0.000107027 -6.74043e-08
5.55442e-07 -6.74043e-08 1.4551e-05
0.00109537 5.26077e-05 -1.08095e-06
5.26077e-05 0.000112399 -2.40312e-06
-1.08095e-06 -2.40312e-06 2.0724e-05
0.0010092 4.05659e-05 -5.27579e-07
4.05659e-05 6.73732e-05 -8.1693e-07
-5.27579e-07 -8.1693e-07 9.15604e-06
0.000988528 -9.55553e-06 2.64037e-07
-9.55553e-06 5.6478e-05 -3.12107e-07
2.64037e-07 -3.12107e-07 -1.07292e-05
0.00104317 2.31332e-05 -2.55394e-07
2.31332e-05 8.61634e-05 -2.8072e-07
-2.55394e-07 -2.8072e-07 1.08579e-05
0.00100936 3.67135e-05 2.4462e-07
3.67135e-05 7.82599e-05 4.48073e-08
2.4462e-07 4.48073e-08 -1.32803e-05
0.0010275 1.89995e-05 2.30504e-07
1.89995e-05 7.68048e-05 -3.8983e-09
2.30504e-07 -3.8983e-09 9.14407e-06
0.00108051 1.48425e-05 -6.02669e-08
1.48425e-05 0.000103975 4.4823e-07
-6.02669e-08 4.4823e-07 2.50061e-05
0.00108966 7.10045e-06 2.19506e-07
7.10045e-06 0.000123032 -4.6197e-07
2.19506e-07 -4.6197e-07 2.47453e-05
0.00135126 -6.85158e-06 -2.69504e-07
-6.85158e-06 0.000261422 -8.75537e-07
-2.69504e-07 -8.75537e-07 0.000169104
0.00108681 -3.34246e-05 3.88086e-07
-3.34246e-05 0.000101051 1.7453e-07
3.88086e-07 1.7453e-07 1.22807e-05
0.00109423 3.38847e-05 6.39264e-07
3.38847e-05 0.000109027 5.28695e-07
6.39264e-07 5.28695e-07 3.2732e-05
0.00101672 -4.98476e-06 4.89773e-07
-4.98476e-06 7.13443e-05 -5.03711e-07
4.89773e-07 -5.03711e-07 3.99209e-06
0.000984015 1.05701e-05 1.94137e-07
1.05701e-05 5.64328e-05 -6.38409e-07
1.94137e-07 -6.38409e-07 -1.21995e-05
0.00100604 4.4591e-06 -4.21476e-07
4.4591e-06 5.96086e-05 -1.29366e-06
-4.21476e-07 -1.29366e-06 -1.27989e-05
0.00109004 1.58195e-05 -1.6726e-07
1.58195e-05 0.000105263 -4.14123e-07
-1.6726e-07 -4.14123e-07 3.1111e-05
0.000982023 2.50384e-06 5.78186e-08
2.50384e-06 5.896e-05 3.53702e-07
5.78186e-08 3.53702e-07 -1.27905e-05
0.000982678 4.01008e-06 1.57543e-08
4.01008e-06 4.63823e-05 -2.0747e-07
1.57543e-08 -2.0747e-07 -2.98512e-05
0.00100053 -1.68859e-05 3.79204e-08
-1.68859e-05 5.9212e-05 5.56558e-07
3.79204e-08 5.56558e-07 -2.1867e-05
0.00104427 -1.05519e-05 3.20501e-07
-1.05519e-05 7.51184e-05 1.44437e-07
3.20501e-07 1.44437e-07 -4.08069e-06
0.000973491 -4.91713e-05 3.62459e-07
-4.91713e-05 5.25376e-05 -1.55396e-07
3.62459e-07 -1.55396e-07 -3.73618e-05
0.00107998 -3.50466e-05 -2.72192e-07
-3.50466e-05 0.000108179 -5.75246e-08
-2.72192e-07 -5.75246e-08 2.29237e-05
0.000815903 -4.87359e-05 -7.34089e-08
-4.87359e-05 -2.33425e-06 1.12112e-06
-7.34089e-08 1.12112e-06 -9.36441e-05
0.0010887 -6.55147e-05 -1.1334e-06
-6.55147e-05 0.00011777 1.77964e-06
-1.1334e-06 1.77964e-06 2.22903e-05
0.00112335 -5.13276e-05 3.92794e-07
-5.13276e-05 0.000139326 -1.09721e-06
3.92794e-07 -1.09721e-06 5.77553e-05
0.000846157 -5.12759e-05 2.95479e-07
-5.12759e-05 1.67359e-05 -1.28471e-06
2.95479e-07 -1.28471e-06 -7.08313e-05
0.00100148 -3.36747e-05 1.29951e-07
-3.36747e-05 7.74621e-05 -5.3419e-07
1.29951e-07 -5.3419e-07 -2.82209e-06
0.00086794 -1.83579e-05 -3.52845e-07
-1.83579e-05 -7.48221e-07 8.10409e-07
-3.52845e-07 8.10409e-07 -7.07583e-05
0.00101591 -1.90629e-05 -1.33355e-07
-1.90629e-05 8.06666e-05 -1.78768e-07
-1.33355e-07 -1.78768e-07 3.90745e-06
0.000986908 -1.40565e-05 -8.22378e-08
-1.40565e-05 5.84078e-05 4.51277e-07
-8.22378e-08 4.51277e-07 -5.99156e-06
0.00094562 7.10317e-06 -2.8899e-07
7.10317e-06 2.88745e-05 1.12841e-06
-2.8899e-07 1.12841e-06 -2.05498e-05
0.000977741 -1.91034e-05 2.80863e-07
-1.91034e-05 5.41316e-05 -8.20441e-07
2.80863e-07 -8.20441e-07 -7.63623e-06
0.000942032 -8.99302e-07 -2.17283e-07
-8.99302e-07 2.77585e-05 -3.55962e-08
-2.17283e-07 -3.55962e-08 -1.92272e-05
0.000913453 1.18353e-05 -7.84058e-07
1.18353e-05 6.46576e-06 1.64186e-06
-7.84058e-07 1.64186e-06 -2.26339e-05
0.000947226 -2.34984e-07 6.87819e-07
-2.34984e-07 3.01503e-05 -8.53649e-07
6.87819e-07 -8.53649e-07 -1.54146e-05
0.000917951 5.59999e-06 -1.47977e-07
5.59999e-06 6.01458e-06 -9.90545e-10
-1.47977e-07 -9.90545e-10 -2.17186e-05
0.0014425 1.48852e-05 -5.23757e-06
1.48852e-05 0.000269873 4.20933e-06
-5.23757e-06 4.20933e-06 0.000271905
0.000917382 -1.72946e-06 8.98366e-07
-1.72946e-06 4.17301e-06 -1.57695e-06
8.98366e-07 -1.57695e-06 -2.25609e-05
0.00115228 1.10344e-05 -1.94419e-06
1.10344e-05 0.000116917 5.77387e-07
-1.94419e-06 5.77387e-07 0.000118422
0.00100864 1.08101e-05 -1.23915e-06
1.08101e-05 4.16981e-05 1.49867e-06
-1.23915e-06 1.49867e-06 5.92233e-05
0.000866663 6.95229e-06 6.46688e-07
6.95229e-06 -3.33685e-05 -2.99454e-06
6.46688e-07 -2.99454e-06 -3.25606e-05
0.00159725 8.37544e-06 2.9573e-06
8.37544e-06 0.000342007 -1.17465e-06
2.9573e-06 -1.17465e-06 0.000362875
0.00217332 4.54236e-06 3.87207e-06
4.54236e-06 0.000638172 -3.86677e-06
3.87207e-06 -3.86677e-06 0.000661919
0.00101483 -6.38523e-06 2.29476e-07
-6.38523e-06 6.41565e-05 -9.52257e-07
2.29476e-07 -9.52257e-07 1.9985e-05
0.000930579 -3.99699e-06 -2.46616e-07
-3.99699e-06 7.35736e-06 -1.6125e-06
-2.46616e-07 -1.6125e-06 -1.61936e-05
0.00099452 2.36281e-06 2.83633e-07
2.36281e-06 5.35252e-05 7.28746e-08
2.83633e-07 7.28746e-08 1.24031e-05
0.000878006 -3.46255e-06 -3.51892e-07
-3.46255e-06 -2.97672e-05 -3.06425e-06
-3.51892e-07 -3.06425e-06 -2.63815e-05
0.000929656 -2.24829e-06 -5.50095e-08
-2.24829e-06 5.74776e-06 -6.9089e-09
-5.50095e-08 -6.9089e-09 -1.66665e-05
0.000954343 -7.23711e-06 -4.51241e-07
-7.23711e-06 3.2335e-05 1.3447e-06
-4.51241e-07 1.3447e-06 -7.1888e-06
0.00208202 2.20318e-08 -7.71869e-07
2.20318e-08 0.00059043 -3.87728e-06
-7.71869e-07 -3.87728e-06 0.000615363
0.000872796 2.67838e-07 -7.70512e-08
2.67838e-07 -3.31861e-05 -4.56416e-09
-7.70512e-08 -4.56416e-09 -2.93165e-05
0.000927609 -5.15404e-07 -9.92819e-08
-5.15404e-07 4.11974e-06 1.71397e-06
-9.92819e-08 1.71397e-06 -1.77355e-05
0.000875601 4.08418e-06 -3.79157e-07
4.08418e-06 -3.11694e-05 3.04597e-06
-3.79157e-07 3.04597e-06 -2.76207e-05
0.00208824 4.88346e-06 -1.33035e-06
4.88346e-06 0.000594216 -8.51382e-09
-1.33035e-06 -8.51382e-09 0.000618976
0.00210779 9.36756e-06 -6.76246e-06
9.36756e-06 0.000605847 3.82546e-06
-6.76246e-06 3.82546e-06 0.000630141
-0.00108202 1.55988e-05 -9.08243e-07
1.55988e-05 -0.000959814 -1.25723e-06
-9.08243e-07 -1.25723e-06 -0.000984234
-0.000518506 0.000111554 2.50197e-05
0.000111554 -0.000416631 -2.25486e-06
2.50197e-05 -2.25486e-06 -0.000484825
0.00105971 1.01433e-05 -3.00448e-08
1.01433e-05 3.04786e-05 4.76357e-06
-3.00448e-08 4.76357e-06 1.62914e-05
-0.00113646 9.7367e-05 8.18028e-07
9.7367e-05 -0.00102555 7.43454e-07
8.18028e-07 7.43454e-07 -0.000858781
0.00207703 3.01882e-05 -7.59033e-05
3.01882e-05 0.000486079 -6.96742e-06
-7.59033e-05 -6.96742e-06 0.000249004
0.00177926 5.44484e-05 7.26891e-06
5.44484e-05 0.000215877 -2.36677e-06
7.26891e-06 -2.36677e-06 0.000136768
0.000632953 -1.17034e-05 -2.52084e-05
-1.17034e-05 -0.000437962 3.19477e-06
-2.52084e-05 3.19477e-06 -0.000913323
0.00428788 0.00020519 9.59127e-05
0.00020519 0.00194421 -2.93502e-05
9.59127e-05 -2.93502e-05 0.00191105
-0.000397173 0.000237161 1.42532e-05
0.000237161 -0.000996884 -1.34072e-05
1.42532e-05 -1.34072e-05 -0.000496113
0.0013399 5.55326e-05 -3.35647e-06
5.55326e-05 0.000154358 4.21662e-06
-3.35647e-06 4.21662e-06 -3.92044e-05
0.00265031 0.000189405 6.98977e-06
0.000189405 0.000416479 -7.1793e-06
6.98977e-06 -7.1793e-06 -0.000439501
0.00284551 0.000336241 2.63297e-06
0.000336241 0.000829318 -6.33461e-07
2.63297e-06 -6.33461e-07 0.000851347
0.00155352 0.000131262 -2.86146e-06
0.000131262 -0.000178 1.62087e-06
-2.86146e-06 1.62087e-06 0.000226354
0.0017013 6.51994e-05 -5.75769e-07
6.51994e-05 0.000368626 1.36792e-06
-5.75769e-07 1.36792e-06 0.000114664
0.00324031 0.000234649 2.88479e-05
0.000234649 0.000690689 -1.57046e-05
2.88479e-05 -1.57046e-05 -0.000249366
-0.00224351 0.000230335 -5.47009e-05
0.000230335 -0.00201483 4.42712e-05
-5.47009e-05 4.42712e-05 -0.00187983
0.00085062 4.98314e-05 -5.612e-08
4.98314e-05 -0.00040615 1.70294e-06
-5.612e-08 1.70294e-06 -0.000245937
0.00105386 -3.21291e-06 7.41903e-07
-3.21291e-06 0.000102215 -6.1157e-07
7.41903e-07 -6.1157e-07 2.73097e-05
0.000990857 2.77119e-05 -8.0413e-07
2.77119e-05 6.89387e-05 -2.94588e-07
-8.0413e-07 -2.94588e-07 3.08442e-06
0.000953603 8.42935e-06 3.34101e-07
8.42935e-06 4.20891e-05 1.62174e-07
3.34101e-07 1.62174e-07 -1.00743e-05
0.000955141 4.14564e-05 1.15348e-06
4.14564e-05 5.24211e-05 1.41076e-06
1.15348e-06 1.41076e-06 -9.65008e-06
0.000937745 9.13183e-06 -2.46294e-07
9.13183e-06 4.04535e-05 -2.94199e-07
-2.46294e-07 -2.94199e-07 -3.19015e-05
0.00106538 2.97539e-05 1.53141e-07
2.97539e-05 0.000107232 5.10319e-07
1.53141e-07 5.10319e-07 4.12274e-05
0.000943003 5.90191e-06 -2.71274e-07
5.90191e-06 4.06989e-05 1.66688e-06
-2.71274e-07 1.66688e-06 -2.02395e-05
0.00108677 3.75625e-05 -7.93823e-07
3.75625e-05 0.000111869 -5.58149e-07
-7.93823e-07 -5.58149e-07 4.90132e-05
0.0010593 1.93017e-05 -1.06486e-07
1.93017e-05 9.93024e-05 4.54306e-07
-1.06486e-07 4.54306e-07 3.90172e-05
0.000862912 -1.61983e-05 -6.80133e-07
-1.61983e-05 -1.35086e-06 2.78511e-07
-6.80133e-07 2.78511e-07 -5.86392e-05
0.00163663 -3.97179e-05 -6.86654e-06
-3.97179e-05 -0.000160132 1.59901e-07
-6.86654e-06 1.59901e-07 -0.000196845
0.00122845 -0.000128918 -7.21727e-06
-0.000128918 -0.000148842 5.17245e-06
-7.21727e-06 5.17245e-06 -0.000253309
0.000943212 -9.96574e-05 3.23964e-06
-9.96574e-05 3.96771e-05 4.40575e-06
3.23964e-06 4.40575e-06 -8.47387e-05
0.00118244 -6.17284e-05 8.17085e-07
-6.17284e-05 0.000190577 1.52228e-06
8.17085e-07 1.52228e-06 4.43575e-05
0.00114634 -2.11383e-05 -7.00141e-08
-2.11383e-05 0.000151409 2.57583e-07
-7.00141e-08 2.57583e-07 3.81539e-05
0.000914703 -4.19875e-05 -2.57204e-07
-4.19875e-05 2.59793e-05 4.67953e-07
-2.57204e-07 4.67953e-07 -6.06443e-05
0.00091044 2.20529e-05 3.03287e-08
2.20529e-05 2.90275e-05 1.48635e-07
3.03287e-08 1.48635e-07 -4.91122e-05
0.00100297 -6.53087e-06 2.53823e-07
-6.53087e-06 7.65332e-05 6.34284e-07
2.53823e-07 6.34284e-07 -2.70297e-06
0.00200973 -0.000130316 9.72806e-07
-0.000130316 0.000111308 -8.38483e-08
9.72806e-07 -8.38483e-08 0.000115935
0.00106316 -5.66534e-06 -1.67665e-07
-5.66534e-06 0.000100869 -2.1497e-07
-1.67665e-07 -2.1497e-07 1.51284e-05
0.00120484 -1.57973e-05 -1.22782e-07
-1.57973e-05 0.000160919 -3.71995e-08
-1.22782e-07 -3.71995e-08 6.61784e-05
0.00165323 -0.00014149 -3.35219e-07
-0.00014149 0.000365055 -1.8476e-06
-3.35219e-07 -1.8476e-06 0.000186893
0.001148 -1.16378e-05 -4.75705e-07
-1.16378e-05 0.000182639 -1.42423e-08
-4.75705e-07 -1.42423e-08 3.79954e-05
0.000422513 -0.000135958 -6.83341e-06
-0.000135958 -0.000501538 -9.39038e-06
-6.83341e-06 -9.39038e-06 -0.000486847
0.00160573 -4.11338e-05 -2.11368e-06
-4.11338e-05 0.000466732 1.56445e-06
-2.11368e-06 1.56445e-06 0.000244346
0.000883063 2.92222e-05 -1.05379e-06
2.92222e-05 2.00611e-06 1.65563e-06
-1.05379e-06 1.65563e-06 -9.98707e-05
0.001016 2.77331e-05 -1.4122e-08
2.77331e-05 7.1671e-05 -8.01096e-07
-1.4122e-08 -8.01096e-07 -1.13806e-05
0.00105844 2.39634e-05 -2.2656e-07
2.39634e-05 8.0081e-05 9.12371e-08
-2.2656e-07 9.12371e-08 -1.32539e-05
0.00187008 -5.00314e-06 8.73088e-06
-5.00314e-06 0.000708885 8.46114e-07
8.73088e-06 8.46114e-07 0.000636982
6.36145e-05 -9.70973e-06 8.11479e-06
-9.70973e-06 -0.000285072 -4.09548e-07
8.11479e-06 -4.09548e-07 -0.000314627
-0.00301775 -1.96433e-05 7.74817e-05
-1.96433e-05 -0.00183054 3.4678e-07
7.74817e-05 3.4678e-07 -0.00186773
0.0013236 5.56239e-05 1.51121e-06
5.56239e-05 0.000218317 1.87752e-06
1.51121e-06 1.87752e-06 0.000126296
-9.97719e-05 1.35874e-05 2.33841e-06
1.35874e-05 -0.000352859 -1.32641e-06
2.33841e-06 -1.32641e-06 -0.000498974
0.00163695 0.000102605 1.4553e-06
0.000102605 0.000343813 -7.14297e-06
1.4553e-06 -7.14297e-06 0.000183116
-0.00114032 -2.15356e-05 4.39572e-06
-2.15356e-05 -0.00100337 1.15135e-06
4.39572e-06 1.15135e-06 -0.00103529
0.00223868 -0.0002816 2.4527e-05
-0.0002816 8.49842e-05 2.17596e-05
2.4527e-05 2.17596e-05 -0.000871047
0.00263349 0.000181376 5.45042e-05
0.000181376 0.000517378 -4.20419e-05
5.45042e-05 -4.20419e-05 0.000275821
0.00119986 2.35023e-06 3.94883e-05
2.35023e-06 0.000155456 1.38351e-05
3.94883e-05 1.38351e-05 -1.87572e-06
0.00427738 -0.000375928 4.42762e-05
-0.000375928 0.00116145 4.98261e-05
4.42762e-05 4.98261e-05 0.00116384
0.000713805 2.12906e-06 -4.77043e-06
2.12906e-06 -0.000134671 -4.5464e-07
-4.77043e-06 -4.5464e-07 -0.000178101
0.00110634 -4.82619e-05 -6.98061e-07
-4.82619e-05 -0.000186869 -2.11924e-06
-6.98061e-07 -2.11924e-06 -6.63181e-05
0.00102051 5.9844e-05 1.40059e-06
5.9844e-05 0.000108195 -6.21979e-07
1.40059e-06 -6.21979e-07 3.38279e-05
0.00124638 1.13426e-05 2.5097e-08
1.13426e-05 0.000322447 8.59511e-07
2.5097e-08 8.59511e-07 0.000256479
0.00099646 1.4538e-05 -2.34948e-06
1.4538e-05 6.86509e-05 -2.98098e-06
-2.34948e-06 -2.98098e-06 -3.02078e-05
-0.000199367 -4.92331e-06 1.03129e-05
-4.92331e-06 -0.000309727 -5.35359e-07
1.03129e-05 -5.35359e-07 -0.000463826
0.00284858 0.000204697 -3.87291e-05
0.000204697 0.000911028 -1.92296e-05
-3.87291e-05 -1.92296e-05 0.000701096
0.00593536 7.1755e-06 2.0433e-05
7.1755e-06 0.00116345 4.23254e-06
2.0433e-05 4.23254e-06 0.00019579
0.00130802 4.54688e-07 1.70173e-06
4.54688e-07 -5.67125e-05 -1.59636e-07
1.70173e-06 -1.59636e-07 3.3157e-05
0.00168433 -0.000222463 -6.70469e-07
-0.000222463 -0.000391331 2.56509e-05
-6.70469e-07 2.56509e-05 -0.0003156
0.000859591 3.35607e-05 -2.01036e-06
3.35607e-05 6.45945e-05 -6.32151e-06
-2.01036e-06 -6.32151e-06 2.52552e-06
0.00102788 1.32232e-05 1.25393e-05
1.32232e-05 9.93744e-05 3.12594e-06
1.25393e-05 3.12594e-06 -1.32984e-05
0.001607 -6.47853e-06 -7.25108e-06
-6.47853e-06 0.000414998 -1.79848e-06
-7.25108e-06 -1.79848e-06 0.00029331
0.000858489 3.40829e-05 -2.50893e-07
3.40829e-05 -0.000326876 8.69414e-07
-2.50893e-07 8.69414e-07 -0.000219614
-0.00183208 4.87528e-05 -1.81715e-06
4.87528e-05 -0.000989858 3.20341e-07
-1.81715e-06 3.20341e-07 -0.00115787
0.00680135 -4.05051e-05 2.15174e-05
-4.05051e-05 0.00151768 1.6476e-05
2.15174e-05 1.6476e-05 0.000871103
0.000400087 4.62119e-06 -2.4051e-06
4.62119e-06 -0.000979236 -6.24072e-05
-2.4051e-06 -6.24072e-05 -0.000686243
0.00144977 7.14952e-05 1.14272e-06
7.14952e-05 0.000280974 2.43233e-06
1.14272e-06 2.43233e-06 0.000191282
0.00115769 5.59203e-05 -1.06937e-06
5.59203e-05 0.000132348 8.73492e-07
-1.06937e-06 8.73492e-07 3.75259e-05
0.00151097 5.3045e-05 -2.95487e-07
5.3045e-05 0.000324851 -3.67231e-06
-2.95487e-07 -3.67231e-06 0.000231904
0.00101311 4.44277e-05 -2.60342e-07
4.44277e-05 6.95109e-05 -3.66922e-07
-2.60342e-07 -3.66922e-07 2.00131e-06
0.00106409 2.53606e-05 -1.38506e-07
2.53606e-05 9.46115e-05 -3.04605e-07
-1.38506e-07 -3.04605e-07 1.64781e-05
0.000876753 -2.59521e-06 -1.68129e-07
-2.59521e-06 1.99358e-05 1.22933e-06
-1.68129e-07 1.22933e-06 -8.17875e-05
0.00112269 3.29643e-05 -4.08162e-08
3.29643e-05 0.000121927 -1.42772e-07
-4.08162e-08 -1.42772e-07 4.66763e-05
0.00104002 -3.58664e-05 -4.03379e-08
-3.58664e-05 7.80959e-05 1.04532e-07
-4.03379e-08 1.04532e-07 -1.20336e-05
0.00108342 -2.83758e-05 1.26705e-06
-2.83758e-05 0.000123101 7.77895e-07
1.26705e-06 7.77895e-07 2.63911e-05
0.000865961 -1.18452e-05 3.61223e-07
-1.18452e-05 2.61298e-05 -4.73056e-07
3.61223e-07 -4.73056e-07 -5.78296e-05
0.00107545 -2.81603e-05 -3.889e-07
-2.81603e-05 8.59847e-05 2.58571e-07
-3.889e-07 2.58571e-07 2.86895e-06
0.0011068 1.59099e-05 -5.88979e-07
1.59099e-05 0.00011206 -7.44636e-07
-5.88979e-07 -7.44636e-07 3.88605e-05
0.00100089 5.91504e-06 4.51664e-09
5.91504e-06 6.95724e-05 -2.91357e-07
4.51664e-09 -2.91357e-07 -2.53779e-06
0.00103928 7.80293e-06 -2.7094e-07
7.80293e-06 7.38018e-05 -5.04126e-07
-2.7094e-07 -5.04126e-07 -1.89517e-06
0.00102591 -1.53368e-05 2.1252e-07
-1.53368e-05 6.53318e-05 -2.66574e-08
2.1252e-07 -2.66574e-08 -1.39006e-05
0.00100247 -1.52738e-05 4.07603e-08
-1.52738e-05 5.92527e-05 4.36875e-07
4.07603e-08 4.36875e-07 -2.13873e-05
0.0010329 -5.38483e-05 8.74293e-08
-5.38483e-05 9.05631e-05 9.56329e-07
8.74293e-08 9.56329e-07 1.7908e-06
0.00096304 -4.91466e-05 1.05873e-07
-4.91466e-05 5.16102e-05 -7.91108e-07
1.05873e-07 -7.91108e-07 -3.68563e-05
0.0011005 -6.49048e-05 6.43943e-07
-6.49048e-05 0.000134301 9.34919e-07
6.43943e-07 9.34919e-07 2.70547e-05
0.0011718 -3.91394e-05 4.75026e-08
-3.91394e-05 0.00015379 -3.54829e-07
4.75026e-08 -3.54829e-07 6.85562e-05
0.0010766 -5.65194e-05 -1.48462e-07
-5.65194e-05 0.000123595 9.82913e-07
-1.48462e-07 9.82913e-07 3.18268e-05
0.000692561 -5.65324e-05 -3.47827e-07
-5.65324e-05 -8.12084e-05 1.79988e-06
-3.47827e-07 1.79988e-06 -0.000185222
0.00100242 -6.36828e-05 -1.85917e-06
-6.36828e-05 7.324e-05 1.70602e-07
-1.85917e-06 1.70602e-07 -2.05104e-05
0.00105644 -6.03829e-05 -1.07679e-06
-6.03829e-05 0.000107794 2.39578e-07
-1.07679e-06 2.39578e-07 2.37584e-05
0.000969678 -6.14696e-05 -2.6874e-07
-6.14696e-05 6.13339e-05 -7.16757e-08
-2.6874e-07 -7.16757e-08 -3.39e-05
0.00101462 -3.67967e-05 -4.03499e-07
-3.67967e-05 7.64931e-05 6.38347e-07
-4.03499e-07 6.38347e-07 3.00801e-06
0.00110728 -5.22357e-05 -2.77131e-07
-5.22357e-05 0.00013119 -3.56634e-07
-2.77131e-07 -3.56634e-07 4.89236e-05
0.000891046 -5.38609e-05 -9.66281e-08
-5.38609e-05 4.22501e-05 -1.43488e-06
-9.66281e-08 -1.43488e-06 -4.2677e-05
0.00112418 -3.67076e-05 3.09214e-07
-3.67076e-05 0.00013901 -7.3571e-07
3.09214e-07 -7.3571e-07 5.95065e-05
0.00093928 -1.94965e-05 5.72547e-08
-1.94965e-05 3.55637e-05 -2.56498e-08
5.72547e-08 -2.56498e-08 -3.35274e-05
0.000961611 2.3767e-06 -3.85272e-07
2.3767e-06 3.83182e-05 1.30584e-06
-3.85272e-07 1.30584e-06 -1.53817e-05
0.000992943 -1.66924e-05 2.35856e-07
-1.66924e-05 6.20239e-05 -4.42639e-07
2.35856e-07 -4.42639e-07 -2.77604e-06
0.000949524 3.67267e-06 -1.0963e-07
3.67267e-06 3.13451e-05 -9.98376e-08
-1.0963e-07 -9.98376e-08 -1.82664e-05
0.000903837 1.45967e-05 -9.57821e-07
1.45967e-05 4.34862e-06 1.73402e-06
-9.57821e-07 1.73402e-06 -2.65578e-05
0.000941085 -5.00018e-06 5.13798e-07
-5.00018e-06 2.76097e-05 -1.00696e-06
5.13798e-07 -1.00696e-06 -1.94864e-05
0.000909081 1.08578e-05 -6.90753e-08
1.08578e-05 3.89106e-06 -3.20801e-09
-6.90753e-08 -3.20801e-09 -2.5175e-05
0.00141548 1.83264e-05 -5.92361e-06
1.83264e-05 0.000261002 3.04621e-06
-5.92361e-06 3.04621e-06 0.000261714
0.000914437 1.61932e-06 9.4378e-07
1.61932e-06 3.85074e-06 -1.59453e-06
9.4378e-07 -1.59453e-06 -2.38097e-05
0.00115066 1.44274e-05 -2.4271e-06
1.44274e-05 0.000119776 5.62772e-07
-2.4271e-06 5.62772e-07 0.000120257
0.00100236 1.44275e-05 -1.74678e-06
1.44275e-05 4.28219e-05 1.51494e-06
-1.74678e-06 1.51494e-06 5.93641e-05
0.000865476 1.03144e-05 9.81245e-07
1.03144e-05 -3.12485e-05 -3.03363e-06
9.81245e-07 -3.03363e-06 -3.11016e-05
0.00159968 1.26989e-05 3.97895e-06
1.26989e-05 0.000346216 -1.14864e-06
3.97895e-06 -1.14864e-06 0.000366511
0.0021743 9.41607e-06 6.52568e-06
9.41607e-06 0.000640527 -3.83836e-06
6.52568e-06 -3.83836e-06 0.000663956
0.000785642 -3.96156e-07 -3.58569e-07
-3.96156e-07 -5.18469e-05 -1.50852e-06
-3.58569e-07 -1.50852e-06 -0.000101429
0.000679333 -6.88594e-06 -3.04498e-07
-6.88594e-06 -0.000118185 -2.21942e-06
-3.04498e-07 -2.21942e-06 -0.000145361
0.0010272 -1.15153e-06 -4.16087e-08
-1.15153e-06 7.07659e-05 4.59147e-08
-4.16087e-08 4.59147e-08 2.623e-05
0.000878958 -6.92792e-06 -6.03468e-07
-6.92792e-06 -2.75078e-05 -3.07987e-06
-6.03468e-07 -3.07987e-06 -2.52302e-05
0.000805129 -4.5086e-06 3.62297e-08
-4.5086e-06 -5.61702e-05 -1.21039e-08
3.62297e-08 -1.21039e-08 -8.05807e-05
0.000795038 -1.8081e-05 -1.42578e-07
-1.8081e-05 -4.78615e-05 9.57139e-07
-1.42578e-07 9.57139e-07 -9.02781e-05
0.00209702 -4.59376e-06 -3.90104e-06
-4.59376e-06 0.000598865 -3.89757e-06
-3.90104e-06 -3.89757e-06 0.000623503
0.000871783 -3.35485e-06 -1.37925e-07
-3.35485e-06 -3.30586e-05 -1.59556e-08
-1.37925e-07 -1.59556e-08 -2.96065e-05
0.00092933 -2.75293e-06 -4.68964e-08
-2.75293e-06 5.58796e-06 1.68318e-06
-4.68964e-08 1.68318e-06 -1.68244e-05
0.00208098 1.93327e-07 -1.35371e-06
1.93327e-07 0.000589887 2.23719e-10
-1.35371e-06 2.23719e-10 0.000614829
0.000873119 3.94877e-07 -7.79756e-08
3.94877e-07 -3.30466e-05 3.05935e-06
-7.79756e-08 3.05935e-06 -2.91727e-05
0.00209001 5.0654e-06 -3.55912e-06
5.0654e-06 0.000595283 3.85545e-06
-3.55912e-06 3.85545e-06 0.000619986
0.00123451 -1.3529e-05 6.32283e-06
-1.3529e-05 0.000274313 -9.6412e-08
6.32283e-06 -9.6412e-08 0.000197164
0.00121951 3.63615e-05 1.46501e-06
3.63615e-05 0.000370794 -2.25297e-07
1.46501e-06 -2.25297e-07 0.000400668
0.000503597 6.12277e-06 0.000106967
6.12277e-06 -9.83673e-05 -1.61197e-05
0.000106967 -1.61197e-05 -0.000271991
0.000989299 1.85158e-05 -3.72762e-07
1.85158e-05 5.61894e-05 -7.35735e-07
-3.72762e-07 -7.35735e-07 -8.74933e-06
0.00118543 -3.41305e-06 1.60573e-05
-3.41305e-06 0.000184625 3.52629e-06
1.60573e-05 3.52629e-06 8.9356e-05
0.00114131 5.14904e-06 -6.09361e-06
5.14904e-06 0.000111059 1.82234e-06
-6.09361e-06 1.82234e-06 7.72148e-05
0.00139042 0.000118875 1.0657e-05
0.000118875 0.000404423 -6.90695e-06
1.0657e-05 -6.90695e-06 0.000625434
0.00185258 7.80854e-05 -4.10294e-05
7.80854e-05 0.0001705 1.565e-05
-4.10294e-05 1.565e-05 -4.65031e-05
0.00643916 0.000309189 1.53638e-05
0.000309189 0.00227058 -1.24122e-05
1.53638e-05 -1.24122e-05 0.00142734
-0.00129438 0.000233616 5.65028e-05
0.000233616 -0.00101184 -3.66106e-05
5.65028e-05 -3.66106e-05 -0.000942656
0.00226655 0.000130511 5.77946e-06
0.000130511 0.000282577 -7.01802e-06
5.77946e-06 -7.01802e-06 0.000663423
0.00160577 6.7307e-05 -2.51119e-05
6.7307e-05 -7.25916e-05 7.53492e-06
-2.51119e-05 7.53492e-06 -0.000388173
0.00475872 0.000228063 2.55637e-05
0.000228063 0.00132674 -1.82124e-05
2.55637e-05 -1.82124e-05 0.00045326
0.00155084 0.000275476 -6.69397e-06
0.000275476 -0.000405688 1.26941e-05
-6.69397e-06 1.26941e-05 -0.000267654
0.00202784 5.63872e-05 4.14183e-07
5.63872e-05 0.000219968 1.27969e-06
4.14183e-07 1.27969e-06 0.000426402
0.00354761 -8.76257e-05 1.73504e-05
-8.76257e-05 0.000785335 -3.15593e-05
1.73504e-05 -3.15593e-05 0.000436548
0.00744637 0.000234702 2.56473e-05
0.000234702 0.00209173 -3.85186e-06
2.56473e-05 -3.85186e-06 0.00106111
0.00177292 0.00025233 8.36232e-06
0.00025233 -0.000549902 5.89972e-05
8.36232e-06 5.89972e-05 -0.000513252
0.00284691 3.20768e-05 -1.36678e-06
3.20768e-05 0.000766198 -2.39022e-06
-1.36678e-06 -2.39022e-06 0.000954082
0.000952657 -5.57363e-06 1.16536e-07
-5.57363e-06 4.19217e-05 -8.35906e-07
1.16536e-07 -8.35906e-07 -3.73452e-05
0.0010191 -1.61597e-05 3.06429e-07
-1.61597e-05 8.4781e-05 -4.0916e-08
3.06429e-07 -4.0916e-08 9.23546e-06
0.00107798 3.39461e-05 -5.00305e-07
3.39461e-05 0.000114046 5.37504e-07
-5.00305e-07 5.37504e-07 4.84136e-05
0.000973597 7.17665e-06 -3.25756e-07
7.17665e-06 5.1429e-05 -1.09005e-06
-3.25756e-07 -1.09005e-06 -1.98435e-05
0.00102937 3.03513e-05 -3.3574e-07
3.03513e-05 8.66644e-05 3.77274e-07
-3.3574e-07 3.77274e-07 1.54896e-05
0.00108377 1.5158e-05 3.25629e-07
1.5158e-05 0.000115447 1.44808e-06
3.25629e-07 1.44808e-06 5.06297e-05
0.00113527 3.75768e-05 -3.5274e-07
3.75768e-05 0.000136155 8.10401e-08
-3.5274e-07 8.10401e-08 7.35277e-05
0.00115033 3.84484e-05 6.84811e-07
3.84484e-05 0.000146192 1.37751e-06
6.84811e-07 1.37751e-06 8.61602e-05
0.00102261 -0.000124748 3.53997e-06
-0.000124748 -0.000369964 -3.69759e-06
3.53997e-06 -3.69759e-06 -0.000367361
0.0014113 -0.000130101 -1.02504e-06
-0.000130101 0.000256942 3.43327e-06
-1.02504e-06 3.43327e-06 7.13481e-05
0.000981855 -6.2306e-05 -1.33505e-06
-6.2306e-05 6.71726e-05 1.01142e-06
-1.33505e-06 1.01142e-06 -1.31275e-05
0.00144751 -2.41766e-05 3.97099e-07
-2.41766e-05 0.000323222 4.0693e-07
3.97099e-07 4.0693e-07 0.000182391
0.00126886 -2.75543e-05 -7.3327e-07
-2.75543e-05 0.000193633 4.95474e-07
-7.3327e-07 4.95474e-07 9.77817e-05
0.00112568 4.57473e-06 -4.68938e-07
4.57473e-06 0.000133612 -3.39901e-07
-4.68938e-07 -3.39901e-07 4.90209e-05
0.00105071 2.46756e-05 9.28894e-08
2.46756e-05 9.07256e-05 2.57875e-07
9.28894e-08 2.57875e-07 6.93651e-06
0.00158443 -0.000166828 -1.73599e-06
-0.000166828 6.98403e-05 -8.10474e-07
-1.73599e-06 -8.10474e-07 7.82975e-05
0.00105806 1.11384e-05 8.46386e-09
1.11384e-05 8.39477e-05 -7.1598e-07
8.46386e-09 -7.1598e-07 -8.91035e-06
0.00110908 5.2884e-06 -3.4485e-07
5.2884e-06 0.000121925 1.53321e-07
-3.4485e-07 1.53321e-07 1.35471e-05
0.00109002 -3.27972e-05 -2.85812e-07
-3.27972e-05 0.000224148 3.95648e-07
-2.85812e-07 3.95648e-07 -1.35641e-05
0.00118054 2.39986e-05 4.93462e-08
2.39986e-05 0.00014587 -4.00117e-07
4.93462e-08 -4.00117e-07 6.49217e-05
0.00036948 -0.000150165 -2.44274e-05
-0.000150165 -0.000201481 -6.7711e-06
-2.44274e-05 -6.7711e-06 -0.000313202
0.00142788 5.13913e-05 -5.5079e-06
5.13913e-05 0.00041223 5.32959e-06
-5.5079e-06 5.32959e-06 0.000223434
0.000884016 1.86933e-05 -6.91749e-07
1.86933e-05 -1.47328e-05 8.26699e-07
-6.91749e-07 8.26699e-07 -0.00010169
0.00116663 5.55663e-05 -4.28147e-07
5.55663e-05 0.00014136 -5.2664e-07
-4.28147e-07 -5.2664e-07 5.31931e-05
0.00144332 -9.62721e-07 1.54074e-05
-9.62721e-07 0.000391722 -1.01178e-06
1.54074e-05 -1.01178e-06 0.000278259
0.00159508 -5.07323e-06 -1.32676e-06
-5.07323e-06 0.000527968 2.90984e-07
-1.32676e-06 2.90984e-07 0.000451514
-0.00108344 -7.69737e-06 1.03462e-05
-7.69737e-06 -0.000932045 8.72025e-07
1.03462e-05 8.72025e-07 -0.000972701
0.000539745 4.68112e-05 2.90041e-06
4.68112e-05 -0.000132596 1.45016e-06
2.90041e-06 1.45016e-06 -0.000203704
-0.00081052 1.66282e-05 -7.3654e-06
1.66282e-05 -0.000594253 1.81689e-06
-7.3654e-06 1.81689e-06 -0.000766248
0.000571856 1.35446e-05 -1.00759e-05
1.35446e-05 -7.45204e-05 -2.25802e-06
-1.00759e-05 -2.25802e-06 -0.000141422
0.00397572 -0.000331717 4.65451e-05
-0.000331717 0.00067724 1.19653e-05
4.65451e-05 1.19653e-05 -0.000360134
0.00402552 0.000239526 -2.22935e-05
0.000239526 0.00109308 -7.5807e-05
-2.22935e-05 -7.5807e-05 0.000635147
0.00254474 -0.000278548 1.3644e-05
-0.000278548 -0.000266075 0.000102978
1.3644e-05 0.000102978 -0.000116613
0.000853956 1.53423e-05 -1.53486e-05
1.53423e-05 -2.20986e-05 -5.20548e-06
-1.53486e-05 -5.20548e-06 -0.000119342
0.000614093 -6.11396e-06 -9.47318e-07
-6.11396e-06 -0.000431456 -2.33119e-06
-9.47318e-07 -2.33119e-06 -0.000400948
0.00110659 4.71992e-05 -1.50861e-06
4.71992e-05 0.000183074 -5.4299e-07
-1.50861e-06 -5.4299e-07 0.000115811
0.000995826 1.11773e-05 1.93874e-06
1.11773e-05 8.111e-05 1.70783e-06
1.93874e-06 1.70783e-06 -3.25881e-05
0.00123218 -6.98375e-06 -5.44849e-06
-6.98375e-06 0.000199944 2.36682e-06
-5.44849e-06 2.36682e-06 7.00716e-05
2.2625e-05 6.73688e-05 7.79044e-06
6.73688e-05 -1.4056e-05 -3.51517e-06
7.79044e-06 -3.51517e-06 -0.000125945
0.00190601 4.26022e-05 -6.13409e-07
4.26022e-05 0.000217835 -1.97683e-06
-6.13409e-07 -1.97683e-06 0.000371886
0.00527429 9.23129e-05 2.56726e-05
9.23129e-05 0.000503151 -2.99238e-06
2.56726e-05 -2.99238e-06 0.00010428
0.00320652 2.61412e-05 -2.90074e-05
2.61412e-05 0.000161916 -5.12801e-06
-2.90074e-05 -5.12801e-06 0.00037703
0.000860174 6.61537e-05 1.70772e-06
6.61537e-05 0.000197935 -8.18825e-06
1.70772e-06 -8.18825e-06 0.000103175
0.00139592 -4.90939e-06 2.13899e-06
-4.90939e-06 0.000259758 -2.51774e-06
2.13899e-06 -2.51774e-06 0.000125677
0.00107911 -1.77658e-05 -1.65937e-05
-1.77658e-05 0.000112395 -2.57869e-06
-1.65937e-05 -2.57869e-06 4.79517e-06
0.00186636 0.000136718 9.07618e-06
0.000136718 7.30556e-05 -5.5879e-06
9.07618e-06 -5.5879e-06 0.000412901
0.00153275 0.000274647 -7.72974e-06
0.000274647 -0.000581575 -5.87219e-05
-7.72974e-06 -5.87219e-05 -0.000591654
0.00135795 0.000144414 1.12454e-05
0.000144414 0.000546684 -2.68497e-06
1.12454e-05 -2.68497e-06 0.000579283
0.00367319 -0.000155858 5.28534e-05
-0.000155858 0.000164856 2.0285e-05
5.28534e-05 2.0285e-05 -0.000367973
0.00124558 5.91608e-05 -1.31243e-06
5.91608e-05 0.000167654 4.35255e-06
-1.31243e-06 4.35255e-06 6.94347e-05
0.00129746 3.51904e-05 -5.28582e-07
3.51904e-05 0.000212463 1.16253e-06
-5.28582e-07 1.16253e-06 0.00012473
0.000200723 -2.03915e-05 1.03741e-06
-2.03915e-05 -0.000144376 -6.71238e-06
1.03741e-06 -6.71238e-06 -0.000338148
0.00115665 1.94275e-05 -4.79058e-07
1.94275e-05 0.000137223 -5.35224e-07
-4.79058e-07 -5.35224e-07 6.31772e-05
0.000997834 -3.6429e-05 -1.0694e-07
-3.6429e-05 5.69175e-05 5.29749e-07
-1.0694e-07 5.29749e-07 -3.38202e-05
0.000949967 -2.71056e-05 -6.46112e-07
-2.71056e-05 5.34391e-05 3.17616e-06
-6.46112e-07 3.17616e-06 -4.72798e-05
0.00103325 -3.70488e-05 -1.25666e-07
-3.70488e-05 6.69397e-05 1.27188e-07
-1.25666e-07 1.27188e-07 -1.69064e-05
0.000834277 -2.31626e-05 -6.24974e-07
-2.31626e-05 3.3114e-06 1.31322e-06
-6.24974e-07 1.31322e-06 -8.02916e-05
0.000875246 -4.33612e-05 1.38966e-06
-4.33612e-05 7.03784e-05 -1.18032e-07
1.38966e-06 -1.18032e-07 -5.70351e-05
0.00100336 -1.98496e-05 1.25438e-07
-1.98496e-05 5.39049e-05 -3.05203e-07
1.25438e-07 -3.05203e-07 -2.55432e-05
0.00100737 -3.2753e-06 -8.90083e-08
-3.2753e-06 6.00022e-05 1.15609e-07
-8.90083e-08 1.15609e-07 -1.96149e-05
0.00118512 -5.45443e-05 5.08594e-08
-5.45443e-05 0.000162852 3.62772e-07
5.08594e-08 3.62772e-07 7.20122e-05
0.00102626 -6.49764e-05 3.80973e-07
-6.49764e-05 0.000126082 1.05501e-06
3.80973e-07 1.05501e-06 3.23439e-06
0.000942556 -4.84096e-05 -4.90392e-07
-4.84096e-05 4.59316e-05 -6.52967e-07
-4.90392e-07 -6.52967e-07 -4.10785e-05
0.000836028 -5.60969e-05 6.98851e-07
-5.60969e-05 5.17489e-06 -2.30146e-07
6.98851e-07 -2.30146e-07 -9.90897e-05
0.00110375 -7.22941e-05 8.28638e-07
-7.22941e-05 0.000135761 7.16313e-07
8.28638e-07 7.16313e-07 1.58629e-05
0.00117491 -7.55683e-05 -2.18722e-06
-7.55683e-05 0.000126796 1.87413e-06
-2.18722e-06 1.87413e-06 2.15937e-05
0.00132525 -6.39086e-05 -5.3238e-09
-6.39086e-05 0.0002436 -2.32784e-07
-5.3238e-09 -2.32784e-07 0.000151396
0.000875534 -6.23562e-05 -3.59292e-07
-6.23562e-05 7.71958e-06 3.66345e-08
-3.59292e-07 3.66345e-08 -9.82129e-05
0.00129064 -7.33323e-05 1.26116e-07
-7.33323e-05 0.000211113 -3.16876e-07
1.26116e-07 -3.16876e-07 0.000123026
0.000827894 -5.33103e-05 -9.95028e-07
-5.33103e-05 -2.63399e-07 -8.46024e-08
-9.95028e-07 -8.46024e-08 -8.61355e-05
0.00100213 -6.33988e-05 3.83292e-07
-6.33988e-05 7.24831e-05 4.71184e-08
3.83292e-07 4.71184e-08 -1.96973e-05
0.00103404 -4.44925e-05 -9.54504e-07
-4.44925e-05 9.00786e-05 2.92105e-07
-9.54504e-07 2.92105e-07 1.48676e-05
0.00108595 -6.07937e-05 -1.01177e-06
-6.07937e-05 0.000121109 6.40195e-07
-1.01177e-06 6.40195e-07 3.70255e-05
0.000848577 -5.73871e-05 -1.15121e-07
-5.73871e-05 4.05669e-06 -7.63e-07
-1.15121e-07 -7.63e-07 -9.09488e-05
0.000988984 -3.88829e-06 -7.85502e-07
-3.88829e-06 5.50203e-05 1.29318e-06
-7.85502e-07 1.29318e-06 -3.48983e-06
0.000974013 -3.50751e-05 2.72889e-07
-3.50751e-05 5.4896e-05 1.46605e-07
2.72889e-07 1.46605e-07 -1.85464e-05
0.00108923 -5.30509e-05 1.42359e-06
-5.30509e-05 0.000122127 -6.03922e-07
1.42359e-06 -6.03922e-07 3.91598e-05
0.00100687 -2.05728e-05 3.99182e-07
-2.05728e-05 7.00449e-05 -8.32906e-07
3.99182e-07 -8.32906e-07 1.8732e-06
0.000957773 2.32715e-06 1.16919e-07
2.32715e-06 3.62616e-05 -6.66984e-08
1.16919e-07 -6.66984e-08 -1.74237e-05
0.000903196 1.651e-05 -1.06958e-06
1.651e-05 7.99013e-06 1.90594e-06
-1.06958e-06 1.90594e-06 -2.57655e-05
0.000947386 -3.05159e-08 3.33848e-07
-3.05159e-08 3.07304e-05 -1.17413e-06
3.33848e-07 -1.17413e-06 -1.90396e-05
0.000901141 1.56159e-05 4.53547e-08
1.56159e-05 2.97386e-06 -2.53804e-08
4.53547e-08 -2.53804e-08 -2.80321e-05
0.000822186 1.89537e-05 -1.8819e-06
1.89537e-05 -3.94124e-05 3.20255e-06
-1.8819e-06 3.20255e-06 -4.32577e-05
0.000907793 9.25971e-06 8.34204e-07
9.25971e-06 2.88112e-06 -1.69222e-06
8.34204e-07 -1.69222e-06 -2.61451e-05
0.000842316 1.63654e-05 1.36277e-07
1.63654e-05 -3.44529e-05 6.93713e-09
1.36277e-07 6.93713e-09 -3.67595e-05
0.00216835 2.54416e-05 -4.41428e-06
2.54416e-05 0.000648853 1.55601e-06
-4.41428e-06 1.55601e-06 0.000669849
0.000862728 1.35003e-05 1.32657e-06
1.35003e-05 -2.89442e-05 -3.07335e-06
1.32657e-06 -3.07335e-06 -2.98517e-05
0.00160592 1.68688e-05 4.93782e-06
1.68688e-05 0.000353432 -1.12626e-06
4.93782e-06 -1.12626e-06 0.00037285
0.0021836 1.41441e-05 9.18018e-06
1.41441e-05 0.000648312 -3.81754e-06
9.18018e-06 -3.81754e-06 0.000671133
0.000787859 -8.13646e-06 -1.31398e-07
-8.13646e-06 -5.3666e-05 -1.57471e-06
-1.31398e-07 -1.57471e-06 -0.000105002
0.000655098 -8.8047e-06 -5.26945e-07
-8.8047e-06 -0.000128011 -2.31569e-06
-5.26945e-07 -2.31569e-06 -0.000158324
0.000921549 -1.54094e-06 -1.48688e-07
-1.54094e-06 1.68991e-05 -5.00855e-07
-1.48688e-07 -5.00855e-07 -3.19821e-05
0.000878009 -1.04303e-05 -8.26574e-07
-1.04303e-05 -2.49899e-05 -3.15503e-06
-8.26574e-07 -3.15503e-06 -2.43969e-05
0.000673499 -7.07316e-06 -6.70299e-08
-7.07316e-06 -0.00012094 -5.99441e-07
-6.70299e-08 -5.99441e-07 -0.000148473
0.00103792 2.57338e-07 3.27535e-08
2.57338e-07 7.66845e-05 1.04539e-06
3.27535e-08 1.04539e-06 3.16806e-05
0.00212446 -9.26966e-06 -6.72263e-06
-9.26966e-06 0.000614758 -3.92156e-06
-6.72263e-06 -3.92156e-06 0.000638761
0.000868815 -6.84463e-06 -1.03966e-07
-6.84463e-06 -3.26957e-05 -1.79541e-08
-1.03966e-07 -1.79541e-08 -3.0334e-05
0.000678087 -4.91139e-06 9.14649e-08
-4.91139e-06 -0.000120379 1.59172e-06
9.14649e-08 1.59172e-06 -0.000145663
0.00209396 -4.45243e-06 -1.41905e-06
-4.45243e-06 0.000597116 8.96939e-09
-1.41905e-06 8.96939e-09 0.00062183
0.000866182 -3.24938e-06 1.34843e-07
-3.24938e-06 -3.60151e-05 3.06886e-06
1.34843e-07 3.06886e-06 -3.25019e-05
0.00208228 3.70996e-07 -6.09518e-07
3.70996e-07 0.000590549 3.86423e-06
-6.09518e-07 3.86423e-06 0.000615486
0.00116608 -1.23059e-05 1.71641e-05
-1.23059e-05 0.000204524 -8.8872e-07
1.71641e-05 -8.8872e-07 9.33543e-05
0.0012547 -1.42278e-05 -5.98942e-06
-1.42278e-05 0.000287296 6.11265e-07
-5.98942e-06 6.11265e-07 0.000212097
0.00110944 1.70164e-05 9.22545e-06
1.70164e-05 0.000321894 2.39055e-06
9.22545e-06 2.39055e-06 0.000320433
0.00102389 2.45741e-05 8.40497e-09
2.45741e-05 7.34103e-05 7.27049e-08
8.40497e-09 7.27049e-08 9.19768e-06
0.0009319 1.11552e-05 -2.10999e-07
1.11552e-05 2.08792e-05 -6.76206e-07
-2.10999e-07 -6.76206e-07 -4.42725e-05
0.00111841 3.34071e-05 -2.76859e-07
3.34071e-05 0.00012463 -6.4555e-08
-2.76859e-07 -6.4555e-08 5.26e-05
0.00143229 1.18441e-05 5.20273e-06
1.18441e-05 0.000308987 4.34746e-07
5.20273e-06 4.34746e-07 0.000197641
0.00114757 -6.40847e-06 1.62106e-06
-6.40847e-06 0.000184082 -7.46955e-07
1.62106e-06 -7.46955e-07 8.69488e-05
0.00124116 -1.17914e-07 -1.20871e-05
-1.17914e-07 0.000205347 -7.18515e-08
-1.20871e-05 -7.18515e-08 0.000150274
0.000731285 6.00691e-05 -3.56648e-05
6.00691e-05 -0.000431159 1.05016e-05
-3.56648e-05 1.05016e-05 -0.000584681
0.00254261 0.000200113 1.1975e-05
0.000200113 0.000488067 -1.90651e-05
1.1975e-05 -1.90651e-05 -0.000492479
0.0037884 0.000355332 4.08523e-05
0.000355332 0.000811407 -2.68487e-05
4.08523e-05 -2.68487e-05 0.000902584
0.000638163 3.85763e-05 1.94676e-06
3.85763e-05 -0.000617383 -3.10743e-06
1.94676e-06 -3.10743e-06 -0.000427993
0.00100562 -4.72283e-05 -9.8888e-06
-4.72283e-05 -0.000233012 8.10467e-06
-9.8888e-06 8.10467e-06 -0.000324065
0.00505125 0.000103432 3.37361e-05
0.000103432 0.00107109 -4.09172e-05
3.37361e-05 -4.09172e-05 0.000101103
0.00110458 0.000127966 -3.15946e-06
0.000127966 -0.000662835 1.25543e-05
-3.15946e-06 1.25543e-05 -0.00043699
0.00140573 2.12388e-05 1.02502e-06
2.12388e-05 -8.82178e-05 5.41158e-06
1.02502e-06 5.41158e-06 6.07023e-05
0.0032818 -0.000254675 1.62876e-05
-0.000254675 0.000610401 -5.60469e-05
1.62876e-05 -5.60469e-05 0.00049928
0.00818108 0.00014101 2.89504e-05
0.00014101 0.00223638 -3.15853e-05
2.89504e-05 -3.15853e-05 0.00158606
0.000373354 1.1397e-06 1.80804e-06
1.1397e-06 -0.00101345 5.96231e-05
1.80804e-06 5.96231e-05 -0.000752903
0.00043667 -1.9348e-05 -9.61028e-07
-1.9348e-05 -0.000646566 4.76179e-06
-9.61028e-07 4.76179e-06 -0.000479654
0.00105819 4.66037e-06 -9.65045e-08
4.66037e-06 8.87017e-05 -2.44969e-07
-9.65045e-08 -2.44969e-07 9.49169e-06
0.000969468 -4.78792e-06 -1.14085e-07
-4.78792e-06 5.20753e-05 -2.03321e-07
-1.14085e-07 -2.03321e-07 -2.76897e-05
0.00102248 -2.38125e-05 -2.2611e-07
-2.38125e-05 8.60877e-05 7.47314e-07
-2.2611e-07 7.47314e-07 1.03e-05
0.000987554 1.81291e-05 -4.06591e-07
1.81291e-05 5.86757e-05 -6.26429e-07
-4.06591e-07 -6.26429e-07 -1.29065e-05
0.00111292 5.6297e-05 1.14338e-06
5.6297e-05 0.000129379 1.02627e-06
1.14338e-06 1.02627e-06 5.91069e-05
0.00118308 3.77417e-05 1.42385e-07
3.77417e-05 0.000160083 8.15449e-07
1.42385e-07 8.15449e-07 9.76787e-05
0.00271382 -0.000194732 5.12011e-06
-0.000194732 0.000626367 9.2884e-07
5.12011e-06 9.2884e-07 0.000627101
0.000559344 -1.79542e-05 1.36712e-06
-1.79542e-05 -2.89639e-05 3.76663e-06
1.36712e-06 3.76663e-06 -0.000279282
0.00111587 3.13489e-05 4.97769e-07
3.13489e-05 0.000124419 7.38635e-07
4.97769e-07 7.38635e-07 4.03001e-05
0.00123966 -2.35616e-05 9.40485e-07
-2.35616e-05 0.000192732 -6.4096e-07
9.40485e-07 -6.4096e-07 7.81711e-05
0.00113022 1.08383e-06 1.69372e-07
1.08383e-06 0.000123202 -2.61069e-07
1.69372e-07 -2.61069e-07 3.1766e-05
0.00107921 1.48581e-05 4.61071e-07
1.48581e-05 9.33399e-05 8.5349e-08
4.61071e-07 8.5349e-08 1.2987e-05
0.00110012 3.15542e-05 2.82184e-07
3.15542e-05 0.000106067 -2.62187e-07
2.82184e-07 -2.62187e-07 1.85914e-05
0.000904588 -0.000144035 -2.98295e-06
-0.000144035 1.67e-05 2.80327e-06
-2.98295e-06 2.80327e-06 -5.9529e-05
0.00119102 -4.78584e-06 6.23798e-07
-4.78584e-06 0.000135852 -1.17912e-06
6.23798e-07 -1.17912e-06 5.03064e-05
0.00124941 4.85253e-05 -1.57947e-06
4.85253e-05 0.000361033 -9.43654e-07
-1.57947e-06 -9.43654e-07 0.000181368
0.000943205 -1.06053e-06 4.86759e-07
-1.06053e-06 2.44896e-05 -1.52871e-06
4.86759e-07 -1.52871e-06 -5.65518e-05
-0.000338461 -3.09448e-05 2.15963e-06
-3.09448e-05 -0.000210933 -8.05499e-06
2.15963e-06 -8.05499e-06 -0.000445613
0.000216258 1.47829e-05 -2.89409e-06
1.47829e-05 -0.000234724 1.28979e-05
-2.89409e-06 1.28979e-05 -0.000278887
0.00105054 -1.0714e-05 2.51465e-08
-1.0714e-05 7.03546e-05 -5.81406e-07
2.51465e-08 -5.81406e-07 -1.6467e-05
0.00137684 -3.23829e-06 4.48805e-07
-3.23829e-06 0.000275663 4.64397e-07
4.48805e-07 4.64397e-07 0.000140703
0.00111046 -1.91966e-06 5.56883e-06
-1.91966e-06 0.000173872 1.50836e-07
5.56883e-06 1.50836e-07 5.43919e-05
0.00129655 -4.84563e-06 -1.36039e-05
-4.84563e-06 0.000332752 1.22737e-06
-1.36039e-05 1.22737e-06 0.000251529
0.00131067 6.64421e-05 3.8439e-06
6.64421e-05 0.000280808 4.06821e-06
3.8439e-06 4.06821e-06 0.000207659
6.501e-05 8.303e-05 9.35069e-06
8.303e-05 -9.95356e-05 -1.44043e-05
9.35069e-06 -1.44043e-05 -0.000202537
0.000949293 9.10698e-06 -1.2356e-05
9.10698e-06 5.37222e-05 6.65668e-07
-1.2356e-05 6.65668e-07 -6.08079e-05
0.00344993 -8.85539e-06 -1.84117e-05
-8.85539e-06 0.000194476 -1.0074e-05
-1.84117e-05 -1.0074e-05 -0.000127042
-0.000668904 2.88144e-05 7.83568e-07
2.88144e-05 -0.00160492 7.02975e-05
7.83568e-07 7.02975e-05 -0.00135494
0.000866155 -7.31015e-06 -4.1687e-06
-7.31015e-06 -8.72553e-06 -2.50686e-06
-4.1687e-06 -2.50686e-06 -0.000147481
0.000700694 2.47405e-05 -1.30252e-06
2.47405e-05 -0.000498892 -1.46318e-07
-1.30252e-06 -1.46318e-07 -0.000367079
0.000600524 4.24242e-05 -2.00236e-06
4.24242e-05 4.59079e-05 -2.33481e-07
-2.00236e-06 -2.33481e-07 -4.57906e-05
0.00124032 -4.64443e-06 -8.98202e-07
-4.64443e-06 0.000169892 2.71704e-07
-8.98202e-07 2.71704e-07 3.48325e-05
0.00116263 -2.15893e-05 -1.75547e-06
-2.15893e-05 0.000191147 1.34149e-06
-1.75547e-06 1.34149e-06 8.1518e-05
0.00144616 0.000190732 3.43425e-05
0.000190732 0.00023491 1.69635e-06
3.43425e-05 1.69635e-06 0.000157961
0.00166724 0.000125605 1.98219e-06
0.000125605 -3.77481e-05 -2.63684e-06
1.98219e-06 -2.63684e-06 0.00030315
0.000839179 0.000149561 4.17882e-06
0.000149561 -0.000716561 -1.38212e-05
4.17882e-06 -1.38212e-05 -0.000536426
0.00669645 7.23281e-06 7.74565e-06
7.23281e-06 0.00161709 -1.80947e-05
7.74565e-06 -1.80947e-05 0.00118263
-0.000357183 1.3636e-05 -2.46829e-05
1.3636e-05 1.43009e-05 -1.29865e-05
-2.46829e-05 -1.29865e-05 -0.000177094
0.00118485 -1.84297e-05 -1.67551e-05
-1.84297e-05 0.00021878 1.44134e-06
-1.67551e-05 1.44134e-06 9.86949e-05
0.000953957 2.34995e-06 -2.24529e-06
2.34995e-06 -2.52411e-05 -4.12955e-06
-2.24529e-06 -4.12955e-06 -5.89181e-05
0.00133272 0.000209777 1.05069e-05
0.000209777 0.000149962 -3.23501e-06
1.05069e-05 -3.23501e-06 0.000566235
-0.00296663 0.000254664 4.79043e-05
0.000254664 -0.00218082 -3.80471e-05
4.79043e-05 -3.80471e-05 -0.00214887
0.00777819 0.00019537 4.22616e-06
0.00019537 0.00209298 -1.92079e-05
4.22616e-06 -1.92079e-05 0.00117708
0.00137431 -3.27645e-05 -2.60776e-05
-3.27645e-05 0.000196652 9.8401e-05
-2.60776e-05 9.8401e-05 -3.045e-05
0.000961155 1.75879e-05 2.21215e-06
1.75879e-05 4.23483e-05 5.55985e-06
2.21215e-06 5.55985e-06 -4.07321e-05
0.000303631 -1.66723e-05 1.2702e-06
-1.66723e-05 -9.40358e-05 -1.36826e-06
1.2702e-06 -1.36826e-06 -0.00029579
0.000570274 -4.18093e-05 3.04757e-06
-4.18093e-05 0.000128281 -3.4138e-06
3.04757e-06 -3.4138e-06 -0.000132354
0.0009783 -4.18947e-05 1.66958e-07
-4.18947e-05 4.0739e-05 -5.65032e-07
1.66958e-07 -5.65032e-07 -4.35291e-05
0.000740957 -3.09063e-05 -6.28275e-07
-3.09063e-05 -4.96476e-05 3.44837e-06
-6.28275e-07 3.44837e-06 -0.000133143
0.000781102 -2.59709e-05 -1.78715e-07
-2.59709e-05 2.51877e-05 5.34404e-07
-1.78715e-07 5.34404e-07 -9.42489e-05
0.000864839 -7.71026e-05 2.07493e-06
-7.71026e-05 0.000115937 -1.15032e-06
2.07493e-06 -1.15032e-06 -8.80202e-05
0.00134377 -5.86107e-05 -3.82487e-07
-5.86107e-05 0.000237929 1.1556e-08
-3.82487e-07 1.1556e-08 0.000145372
0.00130629 -7.67446e-05 9.198e-08
-7.67446e-05 0.000254198 3.31106e-07
9.198e-08 3.31106e-07 0.000128814
0.00109009 -7.88696e-05 2.01404e-06
-7.88696e-05 0.000155232 1.63362e-06
2.01404e-06 1.63362e-06 -7.1981e-06
0.000581962 -4.78157e-05 -1.8852e-07
-4.78157e-05 -0.000119048 -1.26511e-06
-1.8852e-07 -1.26511e-06 -0.000220066
0.00108508 -7.1377e-05 -3.83091e-07
-7.1377e-05 0.000124539 -5.23119e-08
-3.83091e-07 -5.23119e-08 2.48097e-06
0.00168183 -9.89866e-05 -8.11024e-07
-9.89866e-05 0.000381502 1.75828e-06
-8.11024e-07 1.75828e-06 0.000252886
0.00139967 -8.80093e-05 -2.15763e-06
-8.80093e-05 0.000217462 2.7266e-06
-2.15763e-06 2.7266e-06 0.000102944
0.000818454 -6.21173e-05 -4.98249e-07
-6.21173e-05 -3.83598e-05 1.63848e-06
-4.98249e-07 1.63848e-06 -0.000130274
0.00112012 -7.4425e-05 -7.04076e-07
-7.4425e-05 0.000100963 5.84652e-07
-7.04076e-07 5.84652e-07 -5.93935e-06
0.0010471 -6.78635e-05 -2.98241e-07
-6.78635e-05 9.05947e-05 -6.97128e-07
-2.98241e-07 -6.97128e-07 -1.71963e-05
0.00122334 -6.90216e-05 5.13363e-07
-6.90216e-05 0.000179188 -8.00465e-07
5.13363e-07 -8.00465e-07 9.63251e-05
0.00111138 -6.74501e-05 1.31661e-06
-6.74501e-05 0.000123471 -6.29335e-07
1.31661e-06 -6.29335e-07 3.74592e-05
0.000879116 -4.35331e-05 -5.03061e-07
-4.35331e-05 1.98606e-05 6.01067e-07
-5.03061e-07 6.01067e-07 -5.90005e-05
0.00094602 -5.69076e-05 2.55413e-07
-5.69076e-05 5.75631e-05 -1.16304e-07
2.55413e-07 -1.16304e-07 -2.75689e-05
0.00101527 -6.35101e-05 2.96451e-06
-6.35101e-05 7.83123e-05 -1.258e-06
2.96451e-06 -1.258e-06 -1.23144e-05
0.0009701 -1.66822e-06 -1.13174e-06
-1.66822e-06 4.92316e-05 1.13236e-06
-1.13174e-06 1.13236e-06 -1.34701e-05
0.00105191 -4.5154e-05 -2.22039e-07
-4.5154e-05 9.80028e-05 -2.06838e-08
-2.22039e-07 -2.06838e-08 2.29423e-05
0.00110869 -6.20851e-05 3.30433e-07
-6.20851e-05 0.000131301 6.80827e-09
3.30433e-07 6.80827e-09 4.70571e-05
0.000895104 1.48616e-05 -1.40531e-06
1.48616e-05 8.05136e-06 2.09307e-06
-1.40531e-06 2.09307e-06 -2.94667e-05
0.000971779 -4.5899e-06 1.50651e-07
-4.5899e-06 4.56959e-05 3.38577e-08
1.50651e-07 3.38577e-08 -1.24618e-05
0.000942283 -3.41695e-05 1.10584e-06
-3.41695e-05 3.77657e-05 -3.65951e-07
1.10584e-06 -3.65951e-07 -3.56896e-05
0.000956719 1.73272e-06 6.9088e-07
1.73272e-06 3.56247e-05 -1.28764e-06
6.9088e-07 -1.28764e-06 -1.80329e-05
0.000894813 1.8363e-05 1.75108e-07
1.8363e-05 4.00112e-06 -4.02333e-08
1.75108e-07 -4.02333e-08 -2.99096e-05
0.000808397 2.15871e-05 -2.25558e-06
2.15871e-05 -4.02731e-05 3.27382e-06
-2.25558e-06 3.27382e-06 -4.62556e-05
0.000898381 1.67528e-05 8.00252e-07
1.67528e-05 1.52164e-06 -1.88549e-06
8.00252e-07 -1.88549e-06 -2.95669e-05
0.000838277 1.91762e-05 9.90553e-08
1.91762e-05 -3.14328e-05 -1.35254e-08
9.90553e-08 -1.35254e-08 -3.53447e-05
0.00224408 2.74323e-05 -1.51697e-05
2.74323e-05 0.000692409 3.71676e-06
-1.51697e-05 3.71676e-06 0.0007123
0.000860033 1.64966e-05 1.7199e-06
1.64966e-05 -2.58104e-05 -3.12835e-06
1.7199e-06 -3.12835e-06 -2.81057e-05
0.00161452 2.09957e-05 5.85956e-06
2.09957e-05 0.000363259 -1.08884e-06
5.85956e-06 -1.08884e-06 0.000381429
0.00219762 1.87271e-05 1.17041e-05
1.87271e-05 0.000659503 -3.80326e-06
1.17041e-05 -3.80326e-06 0.000681466
0.000944432 1.82105e-05 -6.78735e-07
1.82105e-05 2.64136e-05 -1.15914e-06
-6.78735e-07 -1.15914e-06 -2.67823e-05
0.00089683 -1.1302e-05 -6.96161e-07
-1.1302e-05 -3.25135e-06 -1.83321e-06
-6.96161e-07 -1.83321e-06 -3.45042e-05
0.000861275 9.60059e-06 -5.72163e-07
9.60059e-06 -1.43321e-05 -5.40906e-07
-5.72163e-07 -5.40906e-07 -6.59397e-05
0.000871349 -1.37435e-05 -1.04881e-06
-1.37435e-05 -2.41773e-05 -3.2592e-06
-1.04881e-06 -3.2592e-06 -2.5759e-05
0.00078694 -9.0219e-06 -2.22301e-07
-9.0219e-06 -6.07595e-05 -5.97058e-07
-2.22301e-07 -5.97058e-07 -9.05109e-05
0.00105939 -2.51838e-06 1.30128e-07
-2.51838e-06 8.6683e-05 5.33691e-07
1.30128e-07 5.33691e-07 3.85007e-05
0.00216994 -1.40075e-05 -9.33839e-06
-1.40075e-05 0.00064101 -3.95389e-06
-9.33839e-06 -3.95389e-06 0.000664018
0.000862818 -1.03075e-05 -9.91432e-08
-1.03075e-05 -3.2671e-05 -2.10622e-08
-9.91432e-08 -2.10622e-08 -3.19706e-05
0.000669587 -7.21335e-06 8.54219e-08
-7.21335e-06 -0.000122765 1.1017e-06
8.54219e-08 1.1017e-06 -0.000150651
0.00212414 -9.12303e-06 -1.26391e-06
-9.12303e-06 0.00061431 2.04151e-08
-1.26391e-06 2.04151e-08 0.000638413
0.000857419 -6.75733e-06 4.50443e-07
-6.75733e-06 -3.85153e-05 3.08261e-06
4.50443e-07 3.08261e-06 -3.60676e-05
0.00209132 -4.30506e-06 2.39617e-06
-4.30506e-06 0.000595564 3.85731e-06
2.39617e-06 3.85731e-06 0.000620352
0.00129542 9.02308e-07 -9.36534e-07
9.02308e-07 0.000204757 2.14725e-06
-9.36534e-07 2.14725e-06 7.29811e-05
0.00126568 -1.14668e-05 4.11957e-06
-1.14668e-05 0.000264251 -6.91397e-07
4.11957e-06 -6.91397e-07 0.000153763
0.00130791 -1.51577e-05 -1.7871e-05
-1.51577e-05 0.000319799 4.18935e-06
-1.7871e-05 4.18935e-06 0.000247506
0.000929029 7.82173e-07 -1.26573e-07
7.82173e-07 1.70306e-05 -8.71785e-07
-1.26573e-07 -8.71785e-07 -4.89935e-05
0.00110441 2.16289e-05 -1.86882e-07
2.16289e-05 0.000110114 -5.80267e-07
-1.86882e-07 -5.80267e-07 3.65965e-05
0.00105952 2.90804e-05 1.13511e-06
2.90804e-05 9.15042e-05 7.87583e-07
1.13511e-06 7.87583e-07 2.78538e-05
0.000918088 7.8508e-06 -1.26554e-08
7.8508e-06 1.37197e-05 2.00714e-08
-1.26554e-08 2.00714e-08 -5.12853e-05
0.00104756 1.95675e-05 1.69294e-07
1.95675e-05 8.62242e-05 3.51148e-07
1.69294e-07 3.51148e-07 1.43188e-05
0.00102759 2.37398e-05 -4.2999e-07
2.37398e-05 7.39956e-05 -4.56789e-07
-4.2999e-07 -4.56789e-07 1.37394e-06
0.00103053 5.63034e-05 -1.80389e-07
5.63034e-05 8.11545e-05 1.18335e-07
-1.80389e-07 1.18335e-07 1.77255e-06
0.00106 2.74613e-05 -9.68071e-06
2.74613e-05 0.000130351 -2.87289e-07
-9.68071e-06 -2.87289e-07 2.79379e-05
0.00112631 1.11449e-05 3.35913e-06
1.11449e-05 0.000141222 -5.72599e-06
3.35913e-06 -5.72599e-06 1.88683e-05
0.0010799 -9.77528e-06 -1.25098e-05
-9.77528e-06 0.000162744 3.41907e-06
-1.25098e-05 3.41907e-06 6.45106e-05
0.000456531 1.22207e-05 6.11314e-06
1.22207e-05 -0.000609683 3.89193e-06
6.11314e-06 3.89193e-06 -0.000521812
0.00101106 -5.00955e-05 -6.14389e-05
-5.00955e-05 -0.000642371 5.59159e-05
-6.14389e-05 5.59159e-05 -0.000787216
0.00206574 7.98638e-05 5.21551e-05
7.98638e-05 -2.64628e-06 -5.29662e-05
5.21551e-05 -5.29662e-05 -0.000883398
0.0047204 0.000230244 2.08656e-05
0.000230244 0.000842163 -2.42538e-05
2.08656e-05 -2.42538e-05 0.00101034
0.0016405 -0.000212565 -2.27912e-05
-0.000212565 -0.000229056 1.96078e-05
-2.27912e-05 1.96078e-05 -0.000479419
0.00307988 -6.94537e-05 2.4798e-05
-6.94537e-05 -0.000171155 -4.82269e-05
2.4798e-05 -4.82269e-05 -0.000958414
0.00342298 -1.79398e-05 -9.34484e-06
-1.79398e-05 0.000207025 3.88554e-06
-9.34484e-06 3.88554e-06 0.00036477
0.00208841 -3.12433e-05 2.38331e-06
-3.12433e-05 0.000254904 1.70199e-06
2.38331e-06 1.70199e-06 0.000493344
0.00198038 -0.000167155 2.93635e-05
-0.000167155 0.00030335 -2.30303e-05
2.93635e-05 -2.30303e-05 0.000186359
0.00339564 -0.000279673 -1.54155e-05
-0.000279673 -0.000534038 -0.000105456
-1.54155e-05 -0.000105456 -0.000800682
0.000152617 -0.000105152 2.91819e-05
-0.000105152 -0.0011328 4.34619e-05
2.91819e-05 4.34619e-05 -0.000997288
-0.00045375 -9.00045e-05 7.82403e-08
-9.00045e-05 -0.00126154 3.79822e-06
7.82403e-08 3.79822e-06 -0.000952297
0.00112953 -2.27658e-06 -4.09864e-07
-2.27658e-06 0.000116756 -1.75668e-07
-4.09864e-07 -1.75668e-07 3.79772e-05
0.00100506 7.90943e-06 7.95401e-08
7.90943e-06 6.24014e-05 -1.8126e-07
7.95401e-08 -1.8126e-07 -1.73079e-05
0.000964001 -5.84689e-07 -2.18121e-08
-5.84689e-07 5.1267e-05 1.52655e-07
-2.18121e-08 1.52655e-07 -2.9171e-05
0.00100989 2.20289e-05 7.70154e-08
2.20289e-05 6.98054e-05 -2.34388e-07
7.70154e-08 -2.34388e-07 -1.89354e-06
0.00230518 -0.000154258 1.19393e-05
-0.000154258 0.00066751 5.74461e-06
1.19393e-05 5.74461e-06 0.000627857
0.000939772 3.98662e-05 3.13069e-06
3.98662e-05 0.000259998 -5.14438e-07
3.13069e-06 -5.14438e-07 8.35273e-05
0.000960995 9.20344e-06 8.65828e-08
9.20344e-06 3.18843e-05 5.46783e-07
8.65828e-08 5.46783e-07 -4.79915e-05
0.00100949 2.32952e-05 1.99421e-07
2.32952e-05 5.97637e-05 5.39537e-07
1.99421e-07 5.39537e-07 -2.76131e-05
0.00153077 -1.26772e-06 -6.36544e-08
-1.26772e-06 0.000305085 -1.5623e-06
-6.36544e-08 -1.5623e-06 0.000220034
0.000975866 1.6436e-05 -6.44098e-07
1.6436e-05 4.09556e-05 1.17892e-08
-6.44098e-07 1.17892e-08 -4.05346e-05
0.000990598 -1.79433e-06 -1.2325e-06
-1.79433e-06 4.07125e-05 6.3577e-07
-1.2325e-06 6.3577e-07 -4.7714e-05
0.000509645 -4.83985e-05 9.14175e-06
-4.83985e-05 0.000205195 -2.0194e-06
9.14175e-06 -2.0194e-06 1.59052e-05
0.000827746 4.91798e-06 3.00924e-06
4.91798e-06 6.65992e-05 5.6913e-06
3.00924e-06 5.6913e-06 2.69041e-05
0.00115946 -4.24745e-07 1.38516e-07
-4.24745e-07 0.000136245 -2.52473e-06
1.38516e-07 -2.52473e-06 4.78165e-05
-9.65042e-05 1.96672e-05 5.19188e-06
1.96672e-05 0.000198929 -2.93362e-06
5.19188e-06 -2.93362e-06 -0.000145522
0.00165588 -3.66976e-05 8.15095e-06
-3.66976e-05 0.000477635 3.18817e-06
8.15095e-06 3.18817e-06 0.00037192
0.00152201 -2.20705e-06 -1.55351e-05
-2.20705e-06 0.000448045 1.13235e-06
-1.55351e-05 1.13235e-06 0.000324023
0.00116029 -3.47328e-06 3.44136e-07
-3.47328e-06 0.000151222 1.46701e-07
3.44136e-07 1.46701e-07 1.51831e-05
0.000762616 -2.82498e-06 -5.17487e-06
-2.82498e-06 -5.36663e-05 -5.2484e-07
-5.17487e-06 -5.2484e-07 -0.000179227
0.000609925 2.35063e-05 -1.51452e-06
2.35063e-05 1.66212e-05 6.42808e-06
-1.51452e-06 6.42808e-06 -7.08948e-05
0.00136751 0.000104452 -5.03398e-05
0.000104452 0.000503678 5.33974e-06
-5.03398e-05 5.33974e-06 0.000562292
0.00109158 -4.31028e-06 6.13133e-08
-4.31028e-06 8.46384e-05 3.64846e-06
6.13133e-08 3.64846e-06 -5.15866e-05
0.00359116 0.000183535 2.94135e-05
0.000183535 0.00012951 -8.53315e-05
2.94135e-05 -8.53315e-05 -0.000452648
0.00488377 0.000257077 -1.81627e-05
0.000257077 0.000997253 2.11637e-05
-1.81627e-05 2.11637e-05 0.00112867
0.00121938 -2.5729e-05 1.26802e-05
-2.5729e-05 0.000251626 -5.63277e-06
1.26802e-05 -5.63277e-06 0.000140521
0.00226065 0.000122926 -5.25865e-06
0.000122926 0.000375548 3.90311e-06
-5.25865e-06 3.90311e-06 0.000668963
-0.000112051 -9.34794e-06 2.06836e-05
-9.34794e-06 6.55674e-05 -2.9323e-07
2.06836e-05 -2.9323e-07 -9.90592e-05
0.00125904 -1.74144e-05 -4.38645e-06
-1.74144e-05 0.000262781 5.67555e-07
-4.38645e-06 5.67555e-07 0.000143133
0.00108193 -2.16818e-06 5.4834e-06
-2.16818e-06 8.69665e-05 -1.50123e-06
5.4834e-06 -1.50123e-06 3.43636e-05
0.00184848 -3.8025e-05 -1.04947e-05
-3.8025e-05 0.000542346 1.8854e-05
-1.04947e-05 1.8854e-05 0.00049373
0.000390386 0.000224161 -2.21278e-06
0.000224161 -0.000436416 3.48257e-06
-2.21278e-06 3.48257e-06 8.40705e-06
0.00137729 0.000311348 4.44621e-06
0.000311348 -0.000334004 -1.05576e-05
4.44621e-06 -1.05576e-05 -0.0002879
0.00312445 1.74979e-05 2.19399e-05
1.74979e-05 0.000304369 -1.02248e-05
2.19399e-05 -1.02248e-05 -0.000783066
0.000167542 -5.06067e-05 6.34961e-06
-5.06067e-05 0.000152629 -1.36904e-05
6.34961e-06 -1.36904e-05 -4.58846e-05
0.00127439 -1.54341e-05 -7.86351e-06
-1.54341e-05 0.000306573 7.72815e-07
-7.86351e-06 7.72815e-07 0.000216743
-0.00129334 8.51366e-05 8.02644e-06
8.51366e-05 -0.00117899 -7.14147e-06
8.02644e-06 -7.14147e-06 -0.00104445
-4.73057e-05 0.000260888 5.14847e-05
0.000260888 -8.2534e-05 -2.80932e-05
5.14847e-05 -2.80932e-05 2.038e-06
0.00707564 0.000415743 2.99397e-05
0.000415743 0.00210941 -4.84164e-05
2.99397e-05 -4.84164e-05 0.00117279
0.00171341 -0.000164037 -5.88458e-05
-0.000164037 -8.11384e-05 0.000104906
-5.88458e-05 0.000104906 -0.000578259
0.000711431 -1.96951e-05 -2.14862e-06
-1.96951e-05 9.37057e-05 2.14573e-06
-2.14862e-06 2.14573e-06 -0.000109386
0.000585913 -2.60575e-05 3.45107e-07
-2.60575e-05 0.000140049 -1.04126e-06
3.45107e-07 -1.04126e-06 -0.000122375
0.00148245 -0.000118779 2.97759e-06
-0.000118779 0.000428804 -1.30894e-06
2.97759e-06 -1.30894e-06 0.000188228
0.000690453 -1.67773e-05 -1.66099e-06
-1.67773e-05 -1.62048e-05 -1.69449e-07
-1.66099e-06 -1.69449e-07 -0.000129061
0.000443506 -5.24171e-05 -1.09196e-07
-5.24171e-05 -7.01457e-05 3.41896e-07
-1.09196e-07 3.41896e-07 -0.000281093
0.00126993 -0.000101361 2.0735e-06
-0.000101361 0.000252361 3.82451e-06
2.0735e-06 3.82451e-06 6.46368e-05
0.00158247 -8.87138e-05 -1.5659e-06
-8.87138e-05 0.000381062 4.83354e-08
-1.5659e-06 4.83354e-08 0.000251861
0.0012352 -8.27466e-05 5.67323e-08
-8.27466e-05 0.00021811 6.76927e-07
5.67323e-08 6.76927e-07 5.59456e-05
0.00109239 -9.37077e-05 1.04687e-07
-9.37077e-05 8.1636e-05 3.17051e-07
1.04687e-07 3.17051e-07 -7.63531e-05
0.00110958 -7.18541e-05 -7.42473e-07
-7.18541e-05 0.000135075 -6.05044e-07
-7.42473e-07 -6.05044e-07 1.01931e-05
0.00157148 -9.6345e-05 7.02243e-08
-9.6345e-05 0.000324508 3.06607e-07
7.02243e-08 3.06607e-07 0.00019369
0.00134377 -9.29371e-05 -1.42136e-07
-9.29371e-05 0.000179883 1.53974e-07
-1.42136e-07 1.53974e-07 4.77244e-05
0.00132435 -8.53426e-05 -1.7158e-06
-8.53426e-05 0.000141941 2.12932e-08
-1.7158e-06 2.12932e-08 2.84271e-05
0.00153337 -8.73291e-05 -2.20944e-06
-8.73291e-05 0.000289226 3.04894e-06
-2.20944e-06 3.04894e-06 0.000187749
0.00135267 -8.72187e-05 -4.13496e-07
-8.72187e-05 0.000193248 4.78089e-07
-4.13496e-07 4.78089e-07 7.70154e-05
0.000784284 -5.84908e-05 2.16299e-07
-5.84908e-05 -5.02849e-05 -3.0729e-07
2.16299e-07 -3.0729e-07 -0.000133995
0.000954755 -6.59255e-05 9.97204e-07
-6.59255e-05 3.04369e-05 -3.24681e-07
9.97204e-07 -3.24681e-07 -6.07603e-05
0.00108718 -7.3963e-05 6.8921e-07
-7.3963e-05 8.62098e-05 -1.11145e-06
6.8921e-07 -1.11145e-06 -2.24563e-05
0.00110051 -5.90869e-05 -1.422e-07
-5.90869e-05 0.000121045 9.51254e-09
-1.422e-07 9.51254e-09 4.05162e-05
0.00115666 -6.67599e-05 -5.11152e-08
-6.67599e-05 0.000147307 -2.19215e-07
-5.11152e-08 -2.19215e-07 6.41588e-05
0.000914413 -6.10505e-05 2.05035e-06
-6.10505e-05 2.71159e-05 -2.0516e-07
2.05035e-06 -2.0516e-07 -5.67986e-05
0.000909918 9.95061e-07 -5.81591e-07
9.95061e-07 2.36339e-05 1.00125e-06
-5.81591e-07 1.00125e-06 -4.36535e-05
0.000925402 -4.22045e-05 -7.27643e-08
-4.22045e-05 4.12533e-05 2.30946e-07
-7.27643e-08 2.30946e-07 -3.67649e-05
0.00106736 -5.95117e-05 7.9353e-07
-5.95117e-05 0.000116785 -3.74677e-07
7.9353e-07 -3.74677e-07 3.25072e-05
0.000871405 1.94928e-05 -1.90599e-06
1.94928e-05 -7.09653e-07 2.16738e-06
-1.90599e-06 2.16738e-06 -4.25718e-05
0.000967267 -4.04015e-06 -2.0022e-07
-4.04015e-06 4.73593e-05 1.37527e-08
-2.0022e-07 1.37527e-08 -1.52757e-05
0.00106456 -4.49908e-05 4.43153e-07
-4.49908e-05 0.000103144 -3.06243e-07
4.43153e-07 -3.06243e-07 2.83458e-05
0.000830726 2.41166e-05 -3.74626e-06
2.41166e-05 -2.35349e-05 4.65049e-06
-3.74626e-06 4.65049e-06 -3.19982e-05
0.000885281 1.90255e-05 2.94127e-07
1.90255e-05 3.64502e-06 -4.63334e-08
2.94127e-07 -4.63334e-08 -3.41164e-05
0.00095312 -4.77286e-06 1.09896e-06
-4.77286e-06 3.56492e-05 -1.1011e-06
1.09896e-06 -1.1011e-06 -2.21858e-05
0.000885289 2.03185e-05 1.01823e-06
2.03185e-05 -6.05013e-07 -2.04347e-06
1.01823e-06 -2.04347e-06 -3.46511e-05
0.000827609 2.1938e-05 1.05351e-07
2.1938e-05 -3.07128e-05 -3.90984e-08
1.05351e-07 -3.90984e-08 -3.6805e-05
0.00228155 3.175e-05 -1.72185e-05
3.175e-05 0.000717911 3.68048e-06
-1.72185e-05 3.68048e-06 0.000736315
0.000855319 1.94168e-05 2.08163e-06
1.94168e-05 -2.29794e-05 -3.20484e-06
2.08163e-06 -3.20484e-06 -2.69593e-05
0.00224449 2.74707e-05 6.9779e-07
2.74707e-05 0.000693392 4.52894e-08
6.9779e-07 4.52894e-08 0.000713125
0.00221788 2.31617e-05 1.41028e-05
2.31617e-05 0.000674802 -3.78554e-06
1.41028e-05 -3.78554e-06 0.000695676
0.00102124 2.29953e-05 -4.58226e-07
2.29953e-05 6.60593e-05 -9.24742e-07
-4.58226e-07 -9.24742e-07 -2.31017e-06
0.000959014 1.42809e-05 -6.4094e-07
1.42809e-05 3.21811e-05 -1.37446e-06
-6.4094e-07 -1.37446e-06 -2.39126e-05
0.00088913 -1.76439e-05 -7.28139e-07
-1.76439e-05 -4.87427e-06 -1.97043e-06
-7.28139e-07 -1.97043e-06 -3.84593e-05
0.000954472 1.12401e-05 3.64113e-08
1.12401e-05 3.06742e-05 -4.3172e-08
3.64113e-08 -4.3172e-08 -2.20615e-05
0.000859056 -1.65569e-05 -1.50088e-06
-1.65569e-05 -2.60062e-05 -3.34445e-06
-1.50088e-06 -3.34445e-06 -2.97755e-05
0.00090417 -1.27506e-05 -3.27134e-08
-1.27506e-05 7.54898e-07 1.15769e-09
-3.27134e-08 1.15769e-09 -3.05676e-05
0.000936537 1.57373e-05 1.40824e-07
1.57373e-05 2.36791e-05 6.15426e-07
1.40824e-07 6.15426e-07 -2.67685e-05
0.00223332 -1.87266e-05 -1.18731e-05
-1.87266e-05 0.000677413 -4.0029e-06
-1.18731e-05 -4.0029e-06 0.000699104
0.000853003 -1.36109e-05 -9.71308e-08
-1.36109e-05 -3.34588e-05 -3.02808e-08
-9.71308e-08 -3.02808e-08 -3.49195e-05
0.00091744 -9.35161e-06 1.99654e-07
-9.35161e-06 5.74583e-06 1.20503e-06
1.99654e-07 1.20503e-06 -2.34353e-05
0.00216652 -1.3874e-05 -1.13189e-06
-1.3874e-05 0.000638852 3.17268e-08
-1.13189e-06 3.17268e-08 0.000662013
0.000847548 -1.01799e-05 6.66816e-07
-1.01799e-05 -4.03811e-05 3.14806e-06
6.66816e-07 3.14806e-06 -3.95746e-05
0.00212007 -8.95544e-06 5.48743e-06
-8.95544e-06 0.000611905 3.86887e-06
5.48743e-06 3.86887e-06 0.000636129
0.00098051 1.36196e-05 -1.24475e-05
1.36196e-05 8.52309e-05 -4.45274e-06
-1.24475e-05 -4.45274e-06 -3.64253e-05
0.00118225 7.24862e-07 1.26366e-06
7.24862e-07 0.000140625 -1.11851e-06
1.26366e-06 -1.11851e-06 7.00428e-06
0.00136074 -1.0557e-05 -8.63714e-06
-1.0557e-05 0.00032149 -1.14009e-06
-8.63714e-06 -1.14009e-06 0.000211522
0.000966607 1.45195e-05 -9.3605e-08
1.45195e-05 3.8288e-05 1.08249e-08
-9.3605e-08 1.08249e-08 -2.86207e-05
0.00105574 1.94948e-05 1.85821e-08
1.94948e-05 8.45279e-05 2.44992e-07
1.85821e-08 2.44992e-07 1.06219e-05
0.000976189 2.40082e-05 -6.75418e-07
2.40082e-05 4.7808e-05 -1.33101e-06
-6.75418e-07 -1.33101e-06 -2.91417e-05
0.000929348 1.39941e-05 -1.64245e-07
1.39941e-05 2.14893e-05 -1.07399e-06
-1.64245e-07 -1.07399e-06 -5.19107e-05
0.00112285 4.07127e-05 -3.67945e-07
4.07127e-05 0.000124058 -5.8952e-07
-3.67945e-07 -5.8952e-07 4.4667e-05
0.000899316 1.03907e-05 1.0907e-07
1.03907e-05 4.99333e-06 7.46524e-07
1.0907e-07 7.46524e-07 -6.04826e-05
0.000976799 6.82726e-06 2.45703e-07
6.82726e-06 4.77867e-05 7.69105e-07
2.45703e-07 7.69105e-07 -2.39715e-05
0.00101227 3.34877e-05 -1.36388e-07
3.34877e-05 6.80196e-05 -2.35851e-08
-1.36388e-07 -2.35851e-08 -5.36784e-06
0.00103157 2.66294e-05 4.12363e-07
2.66294e-05 7.73138e-05 4.54538e-07
4.12363e-07 4.54538e-07 -1.50989e-07
0.00107591 2.80991e-05 -2.83421e-07
2.80991e-05 0.000102716 -4.24689e-07
-2.83421e-07 -4.24689e-07 2.40554e-05
0.00106182 1.35741e-06 -5.41019e-06
1.35741e-06 0.000139514 7.68007e-06
-5.41019e-06 7.68007e-06 7.44247e-05
0.000970961 2.78546e-05 6.62979e-08
2.78546e-05 7.26174e-05 1.47267e-06
6.62979e-08 1.47267e-06 -2.81504e-05
0.000789546 1.07683e-05 9.21021e-07
1.07683e-05 -4.4362e-05 -3.50957e-06
9.21021e-07 -3.50957e-06 -0.00017656
0.000965436 -2.35901e-05 6.46978e-06
-2.35901e-05 -0.00040315 1.25261e-06
6.46978e-06 1.25261e-06 -0.00017449
-0.00126854 2.04357e-05 -1.54091e-06
2.04357e-05 -0.00197294 -6.69316e-05
-1.54091e-06 -6.69316e-05 -0.00175474
0.00139727 -0.000246485 -6.89218e-05
-0.000246485 -0.00047357 9.08054e-05
-6.89218e-05 9.08054e-05 -0.000827582
0.00713874 0.000141477 -1.60433e-05
0.000141477 0.00150395 -4.45788e-05
-1.60433e-05 -4.45788e-05 0.00107098
0.0012946 -0.000209875 -3.58776e-05
-0.000209875 -0.000237872 3.23553e-05
-3.58776e-05 3.23553e-05 -0.000624413
0.0075577 -0.000119205 3.11418e-05
-0.000119205 0.0017551 1.85804e-06
3.11418e-05 1.85804e-06 0.00132332
0.00131699 -0.000185316 7.15233e-06
-0.000185316 -0.000625962 -2.1677e-05
7.15233e-06 -2.1677e-05 -0.000520457
5.0068e-05 -0.000102297 9.3015e-07
-0.000102297 -0.000989411 -4.05657e-06
9.3015e-07 -4.05657e-06 -0.000641098
0.00172502 -6.88573e-05 -3.16283e-05
-6.88573e-05 0.000243819 -5.67148e-05
-3.16283e-05 -5.67148e-05 -0.000194162
0.00718347 -0.000305829 -1.76664e-05
-0.000305829 0.00160052 4.6992e-05
-1.76664e-05 4.6992e-05 0.00106651
0.00586934 -0.000364052 1.90973e-05
-0.000364052 0.00176245 2.59561e-05
1.90973e-05 2.59561e-05 0.00192543
0.00126688 -0.000182222 3.26573e-06
-0.000182222 -8.93916e-05 2.50014e-06
3.26573e-06 2.50014e-06 0.000396276
0.000939613 2.3698e-05 -7.23177e-07
2.3698e-05 4.01753e-05 1.11693e-07
-7.23177e-07 1.11693e-07 -3.49983e-05
0.00109071 -7.28803e-07 -1.05947e-07
-7.28803e-07 0.000101216 1.23538e-07
-1.05947e-07 1.23538e-07 2.15796e-05
0.000985995 7.36208e-06 2.85906e-07
7.36208e-06 5.25014e-05 1.50422e-07
2.85906e-07 1.50422e-07 -2.73578e-05
0.000986181 -4.90892e-05 2.12582e-05
-4.90892e-05 0.000412008 -2.50027e-06
2.12582e-05 -2.50027e-06 0.000273512
0.00135796 -1.25521e-05 -1.14903e-07
-1.25521e-05 0.000324671 -1.43597e-06
-1.14903e-07 -1.43597e-06 0.000289381
0.00100548 9.9859e-06 -1.08354e-07
9.9859e-06 5.49759e-05 1.40347e-06
-1.08354e-07 1.40347e-06 -2.63076e-05
0.000968084 -1.99877e-05 -7.1029e-07
-1.99877e-05 2.84048e-05 2.06617e-06
-7.1029e-07 2.06617e-06 -6.03763e-05
0.00104146 -6.94259e-06 -8.61871e-08
-6.94259e-06 7.98726e-05 7.167e-08
-8.61871e-08 7.167e-08 -7.70161e-06
0.000836733 -3.91316e-05 9.97395e-07
-3.91316e-05 8.75149e-05 2.78416e-06
9.97395e-07 2.78416e-06 -2.68601e-05
-0.000137737 1.7823e-05 3.39854e-06
1.7823e-05 0.000104496 -9.43613e-06
3.39854e-06 -9.43613e-06 -0.000227024
0.00036535 1.11188e-05 -1.36859e-06
1.11188e-05 -0.000130445 1.76246e-06
-1.36859e-06 1.76246e-06 -0.000261639
0.00146235 6.19278e-05 9.70091e-06
6.19278e-05 0.000590585 3.5484e-06
9.70091e-06 3.5484e-06 0.000398607
0.00185238 -5.08623e-06 -1.17414e-05
-5.08623e-06 0.000713254 -1.23487e-06
-1.17414e-05 -1.23487e-06 0.000630219
0.00111106 -2.73405e-06 -5.53906e-06
-2.73405e-06 0.000181738 -9.3608e-08
-5.53906e-06 -9.3608e-08 5.23495e-05
0.00104037 -3.40372e-06 4.30923e-07
-3.40372e-06 8.7882e-05 -4.55169e-07
4.30923e-07 -4.55169e-07 -4.94493e-05
-0.00071433 -8.91335e-06 -1.09077e-05
-8.91335e-06 -0.000230189 1.65069e-05
-1.09077e-05 1.65069e-05 -0.000385294
0.000336172 3.09975e-05 2.85359e-05
3.09975e-05 -0.000320203 -5.3895e-05
2.85359e-05 -5.3895e-05 -0.000707536
0.00132503 -1.63246e-05 7.80682e-06
-1.63246e-05 0.000301683 1.63996e-06
7.80682e-06 1.63996e-06 0.000182352
0.00855529 0.000191365 4.42121e-05
0.000191365 0.00228049 -2.12637e-06
4.42121e-05 -2.12637e-06 0.00130235
0.0040957 0.000410124 -3.30016e-05
0.000410124 0.00111752 2.03473e-05
-3.30016e-05 2.03473e-05 0.00108734
0.00124156 -7.01062e-06 1.28794e-05
-7.01062e-06 0.000217115 -1.71687e-06
1.28794e-05 -1.71687e-06 0.000147558
-0.000461795 0.000238503 -1.09243e-05
0.000238503 -0.000985664 1.22321e-05
-1.09243e-05 1.22321e-05 -0.000515077
-5.53137e-05 -2.10912e-05 -3.36019e-06
-2.10912e-05 9.36462e-05 -1.05416e-07
-3.36019e-06 -1.05416e-07 -0.00011281
0.00123222 -1.63255e-05 5.69775e-06
-1.63255e-05 0.000278949 -4.81141e-07
5.69775e-06 -4.81141e-07 0.000190955
-0.00115299 9.824e-05 -8.55665e-08
9.824e-05 -0.00100816 -8.82502e-07
-8.55665e-08 -8.82502e-07 -0.000863404
0.00212871 -0.000122585 1.42885e-05
-0.000122585 0.000462235 3.06182e-05
1.42885e-05 3.06182e-05 5.35466e-05
0.00291425 0.000370686 -2.7253e-06
0.000370686 0.00090628 -6.25331e-07
-2.7253e-06 -6.25331e-07 0.000899691
0.00557968 0.000148112 2.39735e-05
0.000148112 0.00135997 -1.27444e-05
2.39735e-05 -1.27444e-05 0.000143763
0.00148768 -6.85239e-05 5.50909e-06
-6.85239e-05 0.000245637 2.85608e-06
5.50909e-06 2.85608e-06 0.000304936
-0.00104348 1.68793e-05 -9.78908e-08
1.68793e-05 -0.000933066 8.65034e-07
-9.78908e-08 8.65034e-07 -0.000968797
0.00285392 0.000264791 4.23828e-05
0.000264791 0.00111453 -1.48834e-05
4.23828e-05 -1.48834e-05 0.00110895
0.00394451 0.000334921 -3.00947e-05
0.000334921 0.000826366 2.74228e-05
-3.00947e-05 2.74228e-05 -8.30123e-05
0.00187067 -0.000106026 1.62324e-06
-0.000106026 0.000210508 4.09709e-05
1.62324e-06 4.09709e-05 -6.87527e-05
0.000756013 -1.08917e-05 -2.0192e-06
-1.08917e-05 0.00021818 4.16224e-06
-2.0192e-06 4.16224e-06 -3.98857e-05
0.000968723 -0.000108056 1.39619e-06
-0.000108056 0.000201776 -2.2298e-06
1.39619e-06 -2.2298e-06 -6.52713e-05
0.00277938 -0.000188505 7.67581e-07
-0.000188505 0.000819656 -7.23801e-07
7.67581e-07 -7.23801e-07 0.000633029
8.4569e-05 -2.86463e-05 -1.38874e-06
-2.86463e-05 -0.000229323 1.78066e-06
-1.38874e-06 1.78066e-06 -0.000443921
0.00080311 -8.69526e-05 1.10462e-06
-8.69526e-05 2.71047e-05 -1.34568e-07
1.10462e-06 -1.34568e-07 -0.000163119
0.00123749 -0.000115983 1.14101e-06
-0.000115983 0.000106474 1.70245e-06
1.14101e-06 1.70245e-06 -4.08333e-05
0.00136691 -8.564e-05 -1.84944e-06
-8.564e-05 0.000272797 3.24876e-07
-1.84944e-06 3.24876e-07 0.000112832
0.00121592 -9.54531e-05 -1.02477e-06
-9.54531e-05 0.000137827 -5.65613e-07
-1.02477e-06 -5.65613e-07 -1.44706e-05
0.00155821 -0.000106963 -1.12116e-06
-0.000106963 0.000223898 -1.57933e-07
-1.12116e-06 -1.57933e-07 0.000101768
0.00141598 -9.21299e-05 -3.5085e-07
-9.21299e-05 0.000244215 -8.65665e-07
-3.5085e-07 -8.65665e-07 0.000111906
0.00127525 -8.9554e-05 3.43767e-07
-8.9554e-05 0.000142612 -8.69716e-07
3.43767e-07 -8.69716e-07 1.34081e-05
0.00145053 -8.86286e-05 -1.61626e-06
-8.86286e-05 0.000166036 -1.86572e-06
-1.61626e-06 -1.86572e-06 5.59336e-05
0.00132556 -7.96288e-05 -1.41831e-06
-7.96288e-05 8.68298e-05 -1.21013e-06
-1.41831e-06 -1.21013e-06 -1.0555e-05
0.00112844 -7.6726e-05 -1.35924e-06
-7.6726e-05 6.07781e-05 9.40435e-07
-1.35924e-06 9.40435e-07 -4.36034e-05
0.0012526 -8.27079e-05 3.47898e-07
-8.27079e-05 0.000104389 -9.08896e-07
3.47898e-07 -9.08896e-07 -8.00771e-06
0.00125889 -7.53884e-05 -9.1789e-07
-7.53884e-05 0.000165845 1.91654e-06
-9.1789e-07 1.91654e-06 7.50302e-05
0.00124767 -7.94968e-05 -2.5373e-07
-7.94968e-05 0.000148715 5.70793e-07
-2.5373e-07 5.70793e-07 4.54133e-05
0.00130071 -8.61744e-05 8.34233e-07
-8.61744e-05 0.000166264 -1.59773e-06
8.34233e-07 -1.59773e-06 4.83693e-05
0.00100376 -6.10679e-05 -3.48777e-07
-6.10679e-05 6.38086e-05 -6.40895e-07
-3.48777e-07 -6.40895e-07 -1.48648e-05
0.000866093 -6.06052e-05 -1.89661e-07
-6.06052e-05 -8.72777e-06 -7.68439e-07
-1.89661e-07 -7.68439e-07 -9.14444e-05
0.00110344 -7.01193e-05 2.34404e-06
-7.01193e-05 0.000105333 -2.02967e-06
2.34404e-06 -2.02967e-06 1.48347e-05
0.000949733 -2.13451e-05 -5.64873e-07
-2.13451e-05 4.53379e-05 8.03404e-07
-5.64873e-07 8.03404e-07 -2.54321e-05
0.00103858 -5.63244e-05 1.5412e-07
-5.63244e-05 9.10141e-05 3.38202e-07
1.5412e-07 3.38202e-07 1.08281e-05
0.00109015 -6.45256e-05 5.16518e-07
-6.45256e-05 0.000115436 6.52739e-07
5.16518e-07 6.52739e-07 3.20101e-05
0.000864677 3.43488e-05 -1.73599e-06
3.43488e-05 1.14785e-06 2.1158e-06
-1.73599e-06 2.1158e-06 -4.61915e-05
0.000962744 -1.87372e-06 -6.14557e-08
-1.87372e-06 4.98259e-05 7.96838e-09
-6.14557e-08 7.96838e-09 -1.76445e-05
0.000970748 -4.17797e-05 1.45702e-07
-4.17797e-05 6.24112e-05 -1.20239e-07
1.45702e-07 -1.20239e-07 -1.48817e-05
0.00146563 3.08958e-05 -1.08047e-05
3.08958e-05 0.000308846 3.23337e-06
-1.08047e-05 3.23337e-06 0.000300893
0.000874801 1.85931e-05 1.02348e-07
1.85931e-05 1.0588e-06 -4.73566e-08
1.02348e-07 -4.73566e-08 -4.07414e-05
0.000969483 -5.72287e-06 8.31907e-07
-5.72287e-06 4.78851e-05 -1.05112e-06
8.31907e-07 -1.05112e-06 -1.45741e-05
0.00101707 2.28648e-05 -1.6108e-05
2.28648e-05 7.49553e-05 3.75084e-06
-1.6108e-05 3.75084e-06 8.51604e-05
0.00115946 2.67375e-05 -4.0251e-06
2.67375e-05 0.000145823 4.76607e-07
-4.0251e-06 4.76607e-07 0.000138649
0.000875646 2.33565e-05 1.26925e-06
2.33565e-05 -8.12495e-07 -2.08064e-06
1.26925e-06 -2.08064e-06 -3.87279e-05
0.00084663 2.23162e-05 2.43849e-06
2.23162e-05 -2.1258e-05 -3.31531e-06
2.43849e-06 -3.31531e-06 -2.74586e-05
0.00229063 3.17604e-05 5.81724e-07
3.17604e-05 0.00072338 4.83599e-08
5.81724e-07 4.83599e-08 0.00074155
0.00224633 2.74632e-05 1.63204e-05
2.74632e-05 0.00069513 -3.76054e-06
1.63204e-05 -3.76054e-06 0.000714699
0.000965933 2.00516e-05 -7.01636e-07
2.00516e-05 4.0466e-05 -1.315e-06
-7.01636e-07 -1.315e-06 -3.12374e-05
0.000969168 -4.37441e-07 -5.4443e-07
-4.37441e-07 3.65031e-05 -1.575e-06
-5.4443e-07 -1.575e-06 -2.21694e-05
0.00100499 1.5581e-05 -1.05854e-07
1.5581e-05 5.71641e-05 5.60725e-10
-1.05854e-07 5.60725e-10 -1.13325e-05
0.000881141 -2.30085e-05 -8.27297e-07
-2.30085e-05 -6.3715e-06 -2.1753e-06
-8.27297e-07 -2.1753e-06 -4.21462e-05
0.000963872 5.36944e-06 3.20704e-07
5.36944e-06 3.42548e-05 -7.40512e-08
3.20704e-07 -7.40512e-08 -2.14051e-05
0.000847438 -1.89801e-05 -1.93436e-06
-1.89801e-05 -2.74489e-05 -3.42682e-06
-1.93436e-06 -3.42682e-06 -3.31313e-05
0.000896793 -1.3903e-05 -2.38615e-07
-1.3903e-05 -9.52654e-07 -8.35558e-10
-2.38615e-07 -8.35558e-10 -3.44804e-05
0.000965165 1.70603e-05 7.03264e-07
1.70603e-05 3.72166e-05 1.28945e-06
7.03264e-07 1.28945e-06 -1.63156e-05
0.00229344 -2.3252e-05 -1.44957e-05
-2.3252e-05 0.000712703 -3.99505e-06
-1.44957e-05 -3.99505e-06 0.000733025
0.000841875 -1.6415e-05 -1.71429e-07
-1.6415e-05 -3.46485e-05 -1.08425e-08
-1.71429e-07 -1.08425e-08 -3.83208e-05
0.000913738 -1.21327e-05 5.77286e-07
-1.21327e-05 5.83675e-06 1.81969e-06
5.77286e-07 1.81969e-06 -2.55064e-05
0.00222564 -1.86497e-05 -9.90952e-07
-1.86497e-05 0.000672969 3.95588e-08
-9.90952e-07 3.95588e-08 0.000694861
0.000835483 -1.34822e-05 8.92836e-07
-1.34822e-05 -4.23085e-05 3.25841e-06
8.92836e-07 3.25841e-06 -4.36529e-05
0.00216243 -1.37079e-05 8.1931e-06
-1.37079e-05 0.00063634 3.87598e-06
8.1931e-06 3.87598e-06 0.000659658
0.000633942 8.78571e-06 -9.3511e-06
8.78571e-06 -1.04341e-05 -4.20966e-06
-9.3511e-06 -4.20966e-06 -9.02062e-05
0.00098117 1.17968e-05 -1.90555e-06
1.17968e-05 8.84042e-05 -2.3617e-06
-1.90555e-06 -2.3617e-06 -3.43382e-05
0.00110366 5.8852e-07 -2.05642e-07
5.8852e-07 9.82127e-05 -4.09875e-06
-2.05642e-07 -4.09875e-06 -3.73531e-05
0.00103733 4.70449e-05 -8.68504e-07
4.70449e-05 8.43442e-05 -2.82639e-07
-8.68504e-07 -2.82639e-07 5.4482e-06
0.0010156 1.40819e-05 2.52801e-07
1.40819e-05 6.37822e-05 8.46136e-07
2.52801e-07 8.46136e-07 -3.00068e-06
0.00101096 1.90602e-05 2.64166e-07
1.90602e-05 6.10545e-05 1.04126e-06
2.64166e-07 1.04126e-06 -1.33798e-05
0.00102591 1.37056e-05 7.82465e-08
1.37056e-05 7.08417e-05 -2.17401e-07
7.82465e-08 -2.17401e-07 -2.04543e-06
0.00102785 3.40191e-05 -1.12772e-07
3.40191e-05 7.52222e-05 -1.75314e-07
-1.12772e-07 -1.75314e-07 -1.99685e-06
0.00104406 3.84493e-05 7.26595e-08
3.84493e-05 8.32113e-05 4.07759e-07
7.26595e-08 4.07759e-07 3.999e-06
0.00104329 4.74911e-05 -9.46141e-07
4.74911e-05 8.53807e-05 -1.28102e-06
-9.46141e-07 -1.28102e-06 3.10162e-06
0.000932332 3.51635e-05 -2.98463e-07
3.51635e-05 3.02199e-05 -8.98125e-07
-2.98463e-07 -8.98125e-07 -4.99546e-05
0.00100191 4.35775e-05 5.34823e-07
4.35775e-05 6.4049e-05 4.86012e-07
5.34823e-07 4.86012e-07 -9.85477e-06
0.000994271 4.40259e-08 3.67996e-07
4.40259e-08 5.53889e-05 6.16756e-07
3.67996e-07 6.16756e-07 -2.061e-05
0.00105358 2.83573e-05 -1.07833e-07
2.83573e-05 9.1671e-05 2.52618e-09
-1.07833e-07 2.52618e-09 1.2967e-05
0.00149372 3.36358e-05 1.34134e-06
3.36358e-05 0.000312161 -6.84342e-07
1.34134e-06 -6.84342e-07 0.000230781
0.00190497 -9.48546e-05 7.95356e-06
-9.48546e-05 0.000676305 7.82022e-06
7.95356e-06 7.82022e-06 0.000854959
0.000860106 6.15511e-06 2.13523e-06
6.15511e-06 1.10978e-05 4.11364e-06
2.13523e-06 4.11364e-06 -5.29493e-05
0.000961529 2.79137e-05 1.47435e-05
2.79137e-05 6.36368e-05 2.71366e-06
1.47435e-05 2.71366e-06 -3.60645e-05
0.00161534 -0.000125923 -1.84816e-06
-0.000125923 -6.30833e-05 -9.33337e-06
-1.84816e-06 -9.33337e-06 0.000288733
0.00295152 -0.000248684 -3.40023e-06
-0.000248684 -0.000181473 -9.15581e-05
-3.40023e-06 -9.15581e-05 -6.02685e-05
0.00335923 5.23681e-05 -3.35402e-05
5.23681e-05 -0.000497991 0.000105919
-3.35402e-05 0.000105919 -0.000748179
0.00108694 -0.000202676 -5.96426e-05
-0.000202676 -3.91288e-05 7.23525e-05
-5.96426e-05 7.23525e-05 -0.000315352
0.00225812 -5.77547e-05 -1.96637e-05
-5.77547e-05 0.000724672 4.37032e-06
-1.96637e-05 4.37032e-06 0.000446585
0.000366882 -0.000189174 -2.43541e-06
-0.000189174 -0.000507532 -2.42161e-06
-2.43541e-06 -2.42161e-06 -5.24399e-05
0.00532429 -9.43558e-05 1.58305e-05
-9.43558e-05 0.000675425 5.26416e-05
1.58305e-05 5.26416e-05 -6.77906e-05
-0.000607885 -0.000218935 -6.03221e-06
-0.000218935 -0.00098766 -1.08076e-05
-6.03221e-06 -1.08076e-05 -0.000837086
0.00257846 0.00013872 -5.94114e-05
0.00013872 0.000652931 -5.01902e-05
-5.94114e-05 -5.01902e-05 0.000418317
0.00725732 -0.000267112 3.7958e-06
-0.000267112 0.00212179 3.53675e-05
3.7958e-06 3.53675e-05 0.00133786
-0.000118075 -0.000203577 3.06836e-05
-0.000203577 -9.3134e-05 1.95511e-05
3.06836e-05 1.95511e-05 2.92576e-05
0.000793276 7.30743e-05 -3.26616e-06
7.30743e-05 -6.6699e-06 -1.92968e-06
-3.26616e-06 -1.92968e-06 -7.89774e-05
0.00115754 2.74819e-05 2.11515e-06
2.74819e-05 0.000142832 2.61757e-07
2.11515e-06 2.61757e-07 6.85529e-05
0.00105006 1.25985e-05 -2.82331e-07
1.25985e-05 8.55882e-05 9.55502e-09
-2.82331e-07 9.55502e-09 4.54661e-06
-0.00038376 1.22588e-05 -7.78531e-06
1.22588e-05 -8.79927e-05 -1.75085e-05
-7.78531e-06 -1.75085e-05 -0.000410411
0.00027291 -2.76419e-05 -1.19045e-06
-2.76419e-05 -0.000182982 9.02139e-07
-1.19045e-06 9.02139e-07 -0.000307099
0.000879747 7.00855e-06 2.23818e-06
7.00855e-06 3.46513e-06 3.31732e-06
2.23818e-06 3.31732e-06 -8.37222e-05
0.000996376 3.61106e-05 1.91269e-07
3.61106e-05 0.000162465 2.29156e-07
1.91269e-07 2.29156e-07 3.35527e-05
0.000809988 3.29788e-05 9.07708e-07
3.29788e-05 0.000267935 -3.32889e-06
9.07708e-07 -3.32889e-06 9.69488e-05
-0.00107645 5.35994e-05 6.40008e-07
5.35994e-05 -0.000744083 1.45542e-05
6.40008e-07 1.45542e-05 -0.000907751
0.00258304 -2.04871e-05 -1.7716e-06
-2.04871e-05 0.00119148 -3.79804e-07
-1.7716e-06 -3.79804e-07 0.00118125
0.000910969 -3.39826e-06 -3.4613e-07
-3.39826e-06 0.000140427 -1.23356e-06
-3.4613e-07 -1.23356e-06 4.93793e-05
0.000674065 -3.23577e-06 5.69156e-06
-3.23577e-06 -0.000101037 8.03834e-09
5.69156e-06 8.03834e-09 -0.000235811
0.000296087 -2.89704e-05 7.35878e-06
-2.89704e-05 0.000264745 1.20081e-05
7.35878e-06 1.20081e-05 5.35501e-05
0.00129439 -9.9296e-05 -4.58144e-06
-9.9296e-05 0.000119501 -4.69868e-05
-4.58144e-06 -4.69868e-05 -0.000187155
0.00128728 -1.71534e-05 1.89462e-05
-1.71534e-05 0.000312851 -4.31355e-06
1.89462e-05 -4.31355e-06 0.00022712
0.00188905 0.000164617 -2.23094e-05
0.000164617 -5.96061e-05 2.64392e-05
-2.23094e-05 2.64392e-05 -0.00114886
-0.00168165 0.000254518 -5.55136e-05
0.000254518 -0.00113733 2.77781e-05
-5.55136e-05 2.77781e-05 -0.0010792
0.00123228 0.000123091 -8.35834e-06
0.000123091 0.000321434 5.63645e-06
-8.35834e-06 5.63645e-06 0.00054011
0.00163005 -8.46467e-05 7.60428e-06
-8.46467e-05 0.000355663 2.14021e-06
7.60428e-06 2.14021e-06 0.00038471
0.00122336 3.4597e-05 -1.95261e-06
3.4597e-05 0.000366955 1.81884e-07
-1.95261e-06 1.81884e-07 0.000395827
-0.00216433 0.000136408 -3.61849e-06
0.000136408 -0.00103159 3.07885e-06
-3.61849e-06 3.07885e-06 -0.00103521
0.00338938 -0.000168446 -1.17229e-05
-0.000168446 0.00064822 2.02646e-05
-1.17229e-05 2.02646e-05 0.000222599
0.00523786 0.000280665 -7.39641e-06
0.000280665 0.00139473 3.43053e-06
-7.39641e-06 3.43053e-06 0.000524649
0.00054971 -0.000107482 3.39582e-06
-0.000107482 -0.000371342 7.47689e-06
3.39582e-06 7.47689e-06 -0.000314416
-0.0026723 6.14951e-05 5.3114e-05
6.14951e-05 -0.00167415 -1.52994e-05
5.3114e-05 -1.52994e-05 -0.00164214
0.00558249 0.000267141 7.73066e-06
0.000267141 0.00163234 -1.65616e-06
7.73066e-06 -1.65616e-06 0.000940343
0.00355396 6.03062e-06 -1.06678e-05
6.03062e-06 0.000550312 3.08757e-05
-1.06678e-05 3.08757e-05 0.0002733
0.000478973 -9.70605e-05 -2.49038e-06
-9.70605e-05 -5.54022e-06 -1.62656e-06
-2.49038e-06 -1.62656e-06 -0.000306804
0.00109814 -0.000140619 3.38883e-07
-0.000140619 3.43588e-05 7.09675e-07
3.38883e-07 7.09675e-07 -0.000156888
0.00181459 -0.000171943 -1.30702e-06
-0.000171943 0.000246331 2.22189e-06
-1.30702e-06 2.22189e-06 0.000123588
0.000208444 -6.89259e-05 -1.56612e-06
-6.89259e-05 -0.00025665 -1.19522e-06
-1.56612e-06 -1.19522e-06 -0.000453121
0.00121862 -0.00011432 -6.12091e-07
-0.00011432 9.1151e-05 -9.6061e-07
-6.12091e-07 -9.6061e-07 -5.57014e-05
0.00197214 -0.000125505 -5.98949e-06
-0.000125505 0.00030918 -1.00283e-06
-5.98949e-06 -1.00283e-06 0.000207472
0.00126618 -9.563e-05 -9.28542e-07
-9.563e-05 0.000158162 -2.21958e-06
-9.28542e-07 -2.21958e-06 1.01174e-05
0.0013166 -9.95906e-05 7.4691e-07
-9.95906e-05 0.000106876 -8.73353e-07
7.4691e-07 -8.73353e-07 -1.42812e-05
0.00174784 -9.4672e-05 -2.14254e-06
-9.4672e-05 0.000232242 -2.85485e-06
-2.14254e-06 -2.85485e-06 0.00014598
0.00119678 -8.58924e-05 -7.9166e-08
-8.58924e-05 0.000101298 -1.3474e-06
-7.9166e-08 -1.3474e-06 -2.52561e-05
0.00127123 -8.28855e-05 -3.27449e-07
-8.28855e-05 7.17474e-05 -7.75381e-07
-3.27449e-07 -7.75381e-07 -3.65876e-05
0.00146746 -7.76634e-05 -1.33985e-06
-7.76634e-05 9.99051e-05 -2.60473e-06
-1.33985e-06 -2.60473e-06 2.18802e-05
0.00142194 -7.28979e-05 -1.34841e-06
-7.28979e-05 9.68471e-05 -1.68343e-06
-1.34841e-06 -1.68343e-06 2.15022e-05
0.00130265 -7.85213e-05 -1.81994e-06
-7.85213e-05 9.85027e-05 -4.52569e-07
-1.81994e-06 -4.52569e-07 2.86102e-06
0.0013107 -7.73566e-05 6.48376e-07
-7.73566e-05 7.97655e-05 1.25709e-07
6.48376e-07 1.25709e-07 -1.56187e-05
0.000815684 -6.44355e-05 -1.27404e-06
-6.44355e-05 -8.0109e-05 1.44765e-06
-1.27404e-06 1.44765e-06 -0.000174636
0.00126488 -7.9903e-05 7.66317e-07
-7.9903e-05 0.000128636 -7.77913e-07
7.66317e-07 -7.77913e-07 2.53425e-05
0.00115082 -7.91884e-05 1.47155e-06
-7.91884e-05 5.2166e-05 -1.35356e-06
1.47155e-06 -1.35356e-06 -5.90822e-05
0.00104459 -6.56028e-05 -2.77147e-07
-6.56028e-05 7.45117e-05 7.25688e-07
-2.77147e-07 7.25688e-07 -6.78604e-06
0.00103536 -6.87896e-05 2.99965e-07
-6.87896e-05 5.78109e-05 -1.58474e-07
2.99965e-07 -1.58474e-07 -3.30863e-05
0.000959194 -7.15724e-05 8.78669e-07
-7.15724e-05 6.8774e-06 -1.78165e-06
8.78669e-07 -1.78165e-06 -9.82521e-05
0.000992326 -4.41754e-05 -1.27359e-06
-4.41754e-05 6.25746e-05 1.44288e-07
-1.27359e-06 1.44288e-07 -8.8803e-06
0.00105344 -6.21208e-05 -2.023e-07
-6.21208e-05 8.73865e-05 -2.97022e-07
-2.023e-07 -2.97022e-07 8.68249e-06
0.000957284 -6.30166e-05 2.34586e-08
-6.30166e-05 3.76326e-05 -1.07037e-06
2.34586e-08 -1.07037e-06 -4.41292e-05
0.000900275 9.12228e-06 -1.97196e-06
9.12228e-06 2.5353e-05 2.07074e-06
-1.97196e-06 2.07074e-06 -2.67773e-05
0.000985952 -2.28558e-05 4.08802e-07
-2.28558e-05 6.27266e-05 2.50849e-07
4.08802e-07 2.50849e-07 -7.93141e-06
0.000977543 -5.3389e-05 7.09391e-07
-5.3389e-05 6.13112e-05 5.46564e-07
7.09391e-07 5.46564e-07 -1.85068e-05
0.000766792 2.93646e-05 -3.90189e-06
2.93646e-05 -4.35656e-05 3.50251e-06
-3.90189e-06 3.50251e-06 -5.79217e-05
0.000873889 1.31896e-05 -2.01752e-07
1.31896e-05 4.28326e-06 -7.42036e-08
-2.01752e-07 -7.42036e-08 -4.22586e-05
0.00100397 -5.71096e-06 6.53907e-07
-5.71096e-06 7.02869e-05 -1.04809e-06
6.53907e-07 -1.04809e-06 2.60029e-06
0.00239331 4.44772e-05 -8.15849e-06
4.44772e-05 0.000789978 1.53485e-06
-8.15849e-06 1.53485e-06 0.000803999
0.000790495 2.67517e-05 1.7244e-07
2.67517e-05 -3.74937e-05 2.83441e-08
1.7244e-07 2.83441e-08 -4.93239e-05
0.000876806 1.73252e-05 2.07443e-06
1.73252e-05 2.50017e-06 -2.06815e-06
2.07443e-06 -2.06815e-06 -3.9524e-05
0.00235851 3.59144e-05 5.34544e-07
3.59144e-05 0.000764284 4.53186e-08
5.34544e-07 4.53186e-08 0.000780768
0.000833521 2.4968e-05 2.99268e-06
2.4968e-05 -2.15566e-05 -3.44244e-06
2.99268e-06 -3.44244e-06 -3.05837e-05
0.00229954 3.17045e-05 1.86094e-05
3.17045e-05 0.000728756 -3.77762e-06
1.86094e-05 -3.77762e-06 0.000746699
0.00106592 4.42548e-05 -6.759e-07
4.42548e-05 9.72142e-05 -3.11397e-07
-6.759e-07 -3.11397e-07 2.30971e-05
0.000987471 2.03543e-05 -7.99547e-08
2.03543e-05 5.17476e-05 -2.39762e-07
-7.99547e-08 -2.39762e-07 -1.98554e-05
0.000965696 -8.20246e-08 -8.43516e-07
-8.20246e-08 4.02872e-05 -1.63883e-06
-8.43516e-07 -1.63883e-06 -2.27003e-05
0.000875794 -2.19443e-05 -1.33447e-06
-2.19443e-05 -6.27717e-06 -2.4085e-06
-1.33447e-06 -2.4085e-06 -4.44301e-05
0.000961526 -2.10347e-06 1.45323e-07
-2.10347e-06 3.33374e-05 -1.56041e-08
1.45323e-07 -1.56041e-08 -2.53918e-05
0.000978258 2.05279e-05 5.37301e-07
2.05279e-05 4.44754e-05 1.0782e-06
5.37301e-07 1.0782e-06 -2.50624e-05
0.00083764 -2.12486e-05 -2.52708e-06
-2.12486e-05 -2.82535e-05 -3.50908e-06
-2.52708e-06 -3.50908e-06 -3.55538e-05
0.000887753 -1.81115e-05 -1.84428e-07
-1.81115e-05 -3.56383e-06 -9.63296e-09
-1.84428e-07 -9.63296e-09 -3.90735e-05
0.000961784 -1.63622e-06 6.02494e-07
-1.63622e-06 3.28773e-05 1.38625e-06
6.02494e-07 1.38625e-06 -2.24018e-05
0.002337 -2.75717e-05 -1.69207e-05
-2.75717e-05 0.000739924 -3.97372e-06
-1.69207e-05 -3.97372e-06 0.000758947
0.000830853 -1.87909e-05 -1.29752e-07
-1.87909e-05 -3.57419e-05 -1.11606e-08
-1.29752e-07 -1.11606e-08 -4.13475e-05
0.00090381 -1.29431e-05 8.34471e-07
-1.29431e-05 2.46784e-06 1.89232e-06
8.34471e-07 1.89232e-06 -3.09451e-05
0.00228947 -2.32562e-05 -9.78141e-07
-2.32562e-05 0.000710134 4.98753e-08
-9.78141e-07 4.98753e-08 0.000730622
0.000823628 -1.62667e-05 1.18176e-06
-1.62667e-05 -4.38204e-05 3.37664e-06
1.18176e-06 3.37664e-06 -4.73935e-05
0.00221816 -1.85116e-05 1.06642e-05
-1.85116e-05 0.000668628 3.89701e-06
1.06642e-05 3.89701e-06 0.000690724
0.000212636 -3.02193e-05 2.68246e-06
-3.02193e-05 -0.000152233 2.92972e-07
2.68246e-06 2.92972e-07 -0.000180018
0.000582253 1.08547e-05 -1.18263e-07
1.08547e-05 -4.5403e-05 -9.35773e-07
-1.18263e-07 -9.35773e-07 -0.000124746
0.000962892 9.95028e-06 1.25556e-05
9.95028e-06 7.98958e-05 -6.89123e-07
1.25556e-05 -6.89123e-07 -4.37161e-05
0.00101975 4.42922e-05 -5.97833e-08
4.42922e-05 7.4859e-05 2.80048e-07
-5.97833e-08 2.80048e-07 -4.206e-06
0.00115163 6.31983e-05 -7.30562e-07
6.31983e-05 0.000147067 3.21867e-07
-7.30562e-07 3.21867e-07 6.76146e-05
0.0010565 5.48099e-05 -7.62745e-07
5.48099e-05 9.31499e-05 -3.09844e-07
-7.62745e-07 -3.09844e-07 1.11289e-05
0.00110748 1.02499e-05 -2.10331e-08
1.02499e-05 0.000112437 2.97598e-07
-2.10331e-08 2.97598e-07 4.03149e-05
0.00108423 3.43442e-05 4.66869e-07
3.43442e-05 0.0001037 8.44618e-07
4.66869e-07 8.44618e-07 2.71353e-05
0.000968869 2.38041e-05 1.24247e-07
2.38041e-05 4.2312e-05 1.37528e-06
1.24247e-07 1.37528e-06 -3.55519e-05
0.000968231 3.06056e-05 -2.25749e-07
3.06056e-05 4.74676e-05 4.21809e-08
-2.25749e-07 4.21809e-08 -3.23414e-05
0.00103723 3.9901e-05 1.3711e-07
3.9901e-05 8.13119e-05 3.78478e-08
1.3711e-07 3.78478e-08 -2.20332e-07
0.00107017 4.69337e-05 -8.75218e-07
4.69337e-05 0.00011035 -1.33628e-06
-8.75218e-07 -1.33628e-06 2.33929e-05
0.000878308 4.06987e-05 -7.53447e-07
4.06987e-05 7.61842e-06 -1.93875e-06
-7.53447e-07 -1.93875e-06 -7.52881e-05
0.00103779 4.00489e-05 1.63803e-07
4.00489e-05 8.53527e-05 2.74781e-07
1.63803e-07 2.74781e-07 5.59925e-06
0.0012103 3.67415e-05 3.08381e-07
3.67415e-05 0.000173266 1.25362e-08
3.08381e-07 1.25362e-08 9.16729e-05
-0.00302824 -0.000122068 3.82421e-05
-0.000122068 -0.0015877 2.69176e-05
3.82421e-05 2.69176e-05 -0.00158276
0.000986335 -9.42461e-05 1.02333e-06
-9.42461e-05 0.000178103 -1.90176e-08
1.02333e-06 -1.90176e-08 0.000332449
0.000619077 1.11573e-05 7.986e-06
1.11573e-05 -0.000143705 7.54524e-07
7.986e-06 7.54524e-07 -0.000207174
-0.000449244 -0.00019413 -1.74767e-06
-0.00019413 -0.0008969 -8.78344e-06
-1.74767e-06 -8.78344e-06 -0.000465131
0.00400097 -0.000332227 -1.72179e-05
-0.000332227 0.00106086 -5.42068e-05
-1.72179e-05 -5.42068e-05 0.00119499
0.00494359 -9.01499e-05 3.84666e-05
-9.01499e-05 0.000695069 2.8669e-05
3.84666e-05 2.8669e-05 0.000156276
0.000946817 -5.67091e-05 -3.50292e-05
-5.67091e-05 3.70529e-06 7.134e-05
-3.50292e-05 7.134e-05 -0.000554122
0.00206874 0.000116256 -3.88527e-05
0.000116256 0.000233893 -2.70924e-05
-3.88527e-05 -2.70924e-05 -0.000173039
0.00265727 -0.000296857 -1.56376e-06
-0.000296857 0.000814071 -1.72163e-07
-1.56376e-06 -1.72163e-07 0.000869908
0.00307095 -0.000103751 3.13023e-05
-0.000103751 9.51853e-05 4.33448e-05
3.13023e-05 4.33448e-05 -0.000697456
0.00157933 0.000149291 -7.41216e-05
0.000149291 -3.95747e-05 -8.71788e-05
-7.41216e-05 -8.71788e-05 -0.000487694
0.00325174 -7.1208e-06 -4.32159e-05
-7.1208e-06 0.000511147 -8.8359e-06
-4.32159e-05 -8.8359e-06 -0.000308889
0.00227408 0.00016083 8.07969e-06
0.00016083 0.000688541 -6.96289e-06
8.07969e-06 -6.96289e-06 0.000551028
0.000908402 7.45979e-05 -4.72986e-07
7.45979e-05 3.92255e-05 -4.30858e-07
-4.72986e-07 -4.30858e-07 -3.0963e-05
0.0013269 3.69947e-05 1.50826e-06
3.69947e-05 0.000223258 -2.94732e-07
1.50826e-06 -2.94732e-07 0.000148632
-0.000428793 -1.12821e-05 -1.36515e-05
-1.12821e-05 -0.000318657 -7.60316e-06
-1.36515e-05 -7.60316e-06 -0.000475133
0.00163816 5.8484e-05 1.78317e-06
5.8484e-05 0.0004582 -1.47658e-06
1.78317e-06 -1.47658e-06 0.000331695
0.000916624 0.000113354 6.34901e-06
0.000113354 0.000154006 1.15397e-06
6.34901e-06 1.15397e-06 1.76382e-05
2.90683e-07 0.000116755 2.20233e-05
0.000116755 -0.000444411 1.95366e-05
2.20233e-05 1.95366e-05 -0.000568651
-0.000957142 -2.40996e-05 6.56084e-05
-2.40996e-05 -0.000719077 -6.68597e-06
6.56084e-05 -6.68597e-06 -0.000678026
0.000675195 -1.13324e-05 -6.84893e-06
-1.13324e-05 9.2662e-05 6.4221e-07
-6.84893e-06 6.4221e-07 6.01932e-05
-0.000121905 -1.90801e-06 1.39154e-05
-1.90801e-06 -0.000489705 -1.16992e-06
1.39154e-05 -1.16992e-06 -0.000588561
0.00195153 -8.89398e-05 -3.40624e-05
-8.89398e-05 0.000607266 5.24121e-07
-3.40624e-05 5.24121e-07 0.000548172
0.00152472 -0.000128573 -3.82786e-05
-0.000128573 -0.000125087 -7.1102e-06
-3.82786e-05 -7.1102e-06 -0.000309546
0.00107808 1.97079e-05 -7.54695e-06
1.97079e-05 0.000288428 -1.32617e-06
-7.54695e-06 -1.32617e-06 0.000290186
0.00240045 0.000262238 1.46747e-05
0.000262238 0.0002165 -3.04218e-05
1.46747e-05 -3.04218e-05 -0.000732466
0.00419257 0.000218157 -9.72724e-05
0.000218157 0.00188509 2.32978e-05
-9.72724e-05 2.32978e-05 0.00185162
0.00145319 -0.000132143 1.21333e-05
-0.000132143 6.30901e-05 -9.22099e-07
1.21333e-05 -9.22099e-07 0.000104528
-0.000388161 0.000101668 -2.94294e-05
0.000101668 -0.000427227 2.48978e-06
-2.94294e-05 2.48978e-06 -0.00048637
0.00311124 0.00017589 -6.7972e-06
0.00017589 0.000531047 8.07434e-06
-6.7972e-06 8.07434e-06 -0.000340182
0.0015105 1.41595e-05 -8.4985e-06
1.41595e-05 -0.000255171 4.32744e-06
-8.4985e-06 4.32744e-06 -0.000288357
-0.000421366 -7.63456e-05 1.53689e-06
-7.63456e-05 -0.000880896 6.30564e-06
1.53689e-06 6.30564e-06 -0.000812606
0.00501534 9.47674e-05 1.86776e-05
9.47674e-05 0.00143762 6.09953e-06
1.86776e-05 6.09953e-06 0.000749796
0.00147942 7.9337e-05 -7.8138e-07
7.9337e-05 0.000110308 -2.49616e-06
-7.8138e-07 -2.49616e-06 -0.000131709
-0.000718191 -9.16185e-05 1.20091e-06
-9.16185e-05 -0.000812862 -5.19952e-06
1.20091e-06 -5.19952e-06 -0.00101193
0.00163013 -0.000162293 -1.46435e-07
-0.000162293 0.000186018 -5.00053e-07
-1.46435e-07 -5.00053e-07 5.73815e-05
0.0013091 -0.000143072 -1.50148e-05
-0.000143072 -0.000172592 9.28035e-06
-1.50148e-05 9.28035e-06 -0.000259268
0.00125547 -0.0001139 -2.62685e-06
-0.0001139 0.000100904 -2.45491e-06
-2.62685e-06 -2.45491e-06 -4.45144e-05
0.00148584 -0.000115162 -2.86e-06
-0.000115162 6.51539e-05 5.95742e-07
-2.86e-06 5.95742e-07 -3.47996e-05
0.00220545 -0.00010414 -7.76018e-06
-0.00010414 0.000314569 3.14783e-06
-7.76018e-06 3.14783e-06 0.000264958
0.00114463 -9.39019e-05 1.94158e-06
-9.39019e-05 2.53262e-05 -1.03901e-06
1.94158e-06 -1.03901e-06 -9.44795e-05
0.00143335 -8.72823e-05 -4.92534e-07
-8.72823e-05 7.10918e-05 -5.5193e-07
-4.92534e-07 -5.5193e-07 -1.32647e-05
0.00167025 -7.6936e-05 -1.37843e-06
-7.6936e-05 0.000107057 -7.06867e-07
-1.37843e-06 -7.06867e-07 5.90262e-05
0.00109464 -7.74799e-05 1.56629e-06
-7.74799e-05 -2.1054e-05 -1.72898e-08
1.56629e-06 -1.72898e-08 -0.000127626
0.00134321 -7.46964e-05 1.5833e-07
-7.46964e-05 3.59103e-05 2.01972e-07
1.5833e-07 2.01972e-07 -4.13364e-05
0.00137703 -6.74776e-05 -5.58177e-07
-6.74776e-05 1.73212e-05 -7.23707e-07
-5.58177e-07 -7.23707e-07 -3.84721e-05
0.00163181 -6.78627e-05 -4.67869e-07
-6.78627e-05 0.000182408 -6.10288e-07
-4.67869e-07 -6.10288e-07 0.000119506
0.00141028 -7.10839e-05 -6.9894e-07
-7.10839e-05 9.07721e-05 1.34571e-06
-6.9894e-07 1.34571e-06 1.7561e-05
0.00135791 -7.15313e-05 -7.67347e-07
-7.15313e-05 9.01094e-05 -2.32627e-06
-7.67347e-07 -2.32627e-06 1.08407e-05
0.00129162 -7.48899e-05 -1.66421e-06
-7.48899e-05 0.000109621 3.14847e-07
-1.66421e-06 3.14847e-07 1.89738e-05
0.00137961 -7.97778e-05 7.19608e-07
-7.97778e-05 0.000138215 -3.12743e-07
7.19608e-07 -3.12743e-07 4.25245e-05
0.00128439 -7.49861e-05 2.17681e-06
-7.49861e-05 6.67686e-05 1.50482e-06
2.17681e-06 1.50482e-06 -2.65641e-05
0.000858284 -6.23538e-05 -1.47081e-06
-6.23538e-05 -4.49466e-05 1.83309e-06
-1.47081e-06 1.83309e-06 -0.000131071
0.00107176 -7.09541e-05 9.4867e-08
-7.09541e-05 4.82619e-05 -7.1226e-08
9.4867e-08 -7.1226e-08 -4.52644e-05
0.0013939 -8.2849e-05 2.36012e-06
-8.2849e-05 0.000192688 -2.29753e-06
2.36012e-06 -2.29753e-06 9.05151e-05
0.000987609 -5.08847e-05 -9.67336e-07
-5.08847e-05 5.35975e-05 3.97166e-07
-9.67336e-07 3.97166e-07 -1.93592e-05
0.00108124 -6.61765e-05 7.01741e-08
-6.61765e-05 9.16682e-05 -1.75454e-07
7.01741e-08 -1.75454e-07 1.02651e-05
0.00083736 -6.29815e-05 4.85163e-07
-6.29815e-05 -3.79629e-05 -2.12347e-06
4.85163e-07 -2.12347e-06 -0.000128945
0.000884413 -4.05866e-06 -2.54552e-06
-4.05866e-06 2.19676e-05 1.81427e-06
-2.54552e-06 1.81427e-06 -3.46431e-05
0.00102283 -4.57609e-05 -6.59829e-08
-4.57609e-05 7.66049e-05 1.00326e-08
-6.59829e-08 1.00326e-08 5.25024e-06
0.0010976 -6.29548e-05 5.06832e-07
-6.29548e-05 0.000108269 -2.55252e-07
5.06832e-07 -2.55252e-07 2.95447e-05
0.000730547 3.36175e-05 -3.92239e-06
3.36175e-05 -5.30694e-05 3.60926e-06
-3.92239e-06 3.60926e-06 -7.1178e-05
0.000888658 8.21534e-06 -1.93207e-08
8.21534e-06 1.8625e-05 1.81289e-08
-1.93207e-08 1.81289e-08 -3.37748e-05
0.00102582 -2.47234e-05 1.31599e-06
-2.47234e-05 8.19635e-05 -2.97024e-07
1.31599e-06 -2.97024e-07 1.13877e-05
0.00251098 4.50111e-05 -2.34508e-05
4.50111e-05 0.000854914 3.58223e-06
-2.34508e-05 3.58223e-06 0.000867726
0.000783654 3.0361e-05 -6.81521e-09
3.0361e-05 -3.4358e-05 -1.45995e-08
-6.81521e-09 -1.45995e-08 -4.90327e-05
0.000884477 4.18562e-06 2.49872e-06
4.18562e-06 9.16419e-06 -2.08358e-06
2.49872e-06 -2.08358e-06 -3.735e-05
0.00172825 3.54929e-05 8.88872e-06
3.54929e-05 0.000447867 -9.87111e-07
8.88872e-06 -9.87111e-07 0.000458844
0.000818116 2.75731e-05 3.62798e-06
2.75731e-05 -2.35039e-05 -3.51195e-06
3.62798e-06 -3.51195e-06 -3.54371e-05
0.0023773 3.60353e-05 2.08808e-05
3.60353e-05 0.000775093 -3.78845e-06
2.08808e-05 -3.78845e-06 0.000791146
0.00105127 5.02225e-05 -3.85841e-07
5.02225e-05 9.19805e-05 4.42669e-07
-3.85841e-07 4.42669e-07 1.70938e-05
0.00101973 3.74077e-05 1.47015e-07
3.74077e-05 7.24402e-05 4.17617e-07
1.47015e-07 4.17617e-07 -1.5861e-06
0.000964635 -3.2038e-07 -1.10437e-06
-3.2038e-07 4.4559e-05 -1.21893e-06
-1.10437e-06 -1.21893e-06 -2.20214e-05
0.00101128 2.9324e-05 5.28508e-07
2.9324e-05 6.51332e-05 8.76389e-07
5.28508e-07 8.76389e-07 -7.07607e-06
0.000970615 -7.43584e-06 -1.52247e-08
-7.43584e-06 4.22696e-05 4.3119e-08
-1.52247e-08 4.3119e-08 -2.03072e-05
0.000870631 -1.60298e-05 -1.88229e-06
-1.60298e-05 -3.88644e-06 -2.50893e-06
-1.88229e-06 -2.50893e-06 -4.5706e-05
0.00082699 -2.39836e-05 -2.95701e-06
-2.39836e-05 -2.88461e-05 -3.64779e-06
-2.95701e-06 -3.64779e-06 -3.78815e-05
0.000884067 -1.92803e-05 -1.98886e-07
-1.92803e-05 -2.66895e-06 -4.31253e-08
-1.98886e-07 -4.31253e-08 -4.0564e-05
0.000962171 -1.25523e-05 2.80879e-07
-1.25523e-05 3.35271e-05 1.65031e-06
2.80879e-07 1.65031e-06 -2.46941e-05
0.00236256 -3.1722e-05 -1.9021e-05
-3.1722e-05 0.000758392 -3.8943e-06
-1.9021e-05 -3.8943e-06 0.00077617
0.000822613 -2.10212e-05 -1.70246e-07
-2.10212e-05 -3.5624e-05 1.21845e-08
-1.70246e-07 1.21845e-08 -4.28678e-05
0.000897932 -1.18924e-05 1.42551e-06
-1.18924e-05 1.11951e-06 2.07454e-06
1.42551e-06 2.07454e-06 -3.41659e-05
0.0023413 -2.76632e-05 -8.05288e-07
-2.76632e-05 0.000741575 5.48146e-08
-8.05288e-07 5.48146e-08 0.000760704
0.000814787 -1.86275e-05 1.66867e-06
-1.86275e-05 -4.37212e-05 3.44438e-06
1.66867e-06 3.44438e-06 -4.92596e-05
0.00228502 -2.32476e-05 1.30473e-05
-2.32476e-05 0.000707319 3.9205e-06
1.30473e-05 3.9205e-06 0.000727977
0.000276193 5.12327e-05 0.00010141
5.12327e-05 -0.000194851 1.19446e-05
0.00010141 1.19446e-05 -0.000393978
0.00143941 -4.11899e-05 4.03156e-06
-4.11899e-05 0.000544625 2.79656e-07
4.03156e-06 2.79656e-07 0.000539837
0.000568474 1.30353e-05 1.22688e-05
1.30353e-05 -5.66366e-05 2.08336e-06
1.22688e-05 2.08336e-06 -0.000135582
0.000996382 4.20466e-05 1.05443e-06
4.20466e-05 6.24402e-05 6.90088e-07
1.05443e-06 6.90088e-07 -1.68262e-05
0.00100947 4.50926e-05 5.37364e-07
4.50926e-05 7.02718e-05 1.22478e-07
5.37364e-07 1.22478e-07 -1.14999e-05
0.0010659 6.08347e-05 -7.26868e-08
6.08347e-05 0.000105977 -4.89568e-08
-7.26868e-08 -4.89568e-08 2.6999e-05
0.00113594 6.59646e-05 -2.59934e-07
6.59646e-05 0.000143086 2.7805e-07
-2.59934e-07 2.7805e-07 6.32719e-05
0.00107899 5.84431e-05 -1.62634e-06
5.84431e-05 0.000113763 -2.6201e-08
-1.62634e-06 -2.6201e-08 3.07798e-05
0.00100937 3.39448e-05 3.76572e-07
3.39448e-05 6.80438e-05 1.20028e-06
3.76572e-07 1.20028e-06 -1.18783e-05
0.00101962 4.34911e-05 1.01699e-06
4.34911e-05 7.32507e-05 1.06569e-06
1.01699e-06 1.06569e-06 -8.55903e-06
0.000947152 5.31766e-05 -4.21647e-07
5.31766e-05 5.07085e-05 -3.84963e-07
-4.21647e-07 -3.84963e-07 -3.63769e-05
0.000514941 4.85172e-05 -1.38365e-06
4.85172e-05 -0.000160381 4.83271e-07
-1.38365e-06 4.83271e-07 -0.000245328
0.000822348 5.72193e-05 -1.60421e-06
5.72193e-05 -1.59089e-05 -1.45038e-06
-1.60421e-06 -1.45038e-06 -0.000104532
0.00183844 0.000110481 8.47839e-07
0.000110481 0.000444233 -4.07196e-06
8.47839e-07 -4.07196e-06 0.000340944
0.00105649 4.6275e-05 -1.49691e-06
4.6275e-05 0.000106527 -2.6578e-08
-1.49691e-06 -2.6578e-08 2.17038e-05
0.00102719 3.49257e-05 5.98441e-07
3.49257e-05 8.30104e-05 7.70794e-07
5.98441e-07 7.70794e-07 1.55017e-06
0.00758534 -0.000110098 -8.8834e-06
-0.000110098 0.00212163 -9.99541e-06
-8.8834e-06 -9.99541e-06 0.00141649
-0.000213917 -0.000150958 4.46713e-06
-0.000150958 -0.000373055 5.29917e-06
4.46713e-06 5.29917e-06 -0.000445318
0.0020819 -0.000102807 -1.18826e-05
-0.000102807 0.000771734 -6.51074e-06
-1.18826e-05 -6.51074e-06 0.000923328
-0.00215501 -0.000179567 -2.91715e-05
-0.000179567 -0.00138728 -2.74456e-05
-2.91715e-05 -2.74456e-05 -0.00123001
0.00784573 -0.000253241 6.33263e-05
-0.000253241 0.00222869 4.32779e-05
6.33263e-05 4.32779e-05 0.00116682
0.00172145 0.000100092 3.09276e-05
0.000100092 0.000328288 1.29246e-05
3.09276e-05 1.29246e-05 9.03324e-05
0.00167242 0.000143899 -2.98238e-05
0.000143899 8.37441e-05 -2.45126e-05
-2.98238e-05 -2.45126e-05 -0.000255673
0.00535557 -0.000192208 2.7238e-05
-0.000192208 0.0013436 1.69202e-05
2.7238e-05 1.69202e-05 0.000646638
0.00141431 6.93468e-05 -3.89643e-05
6.93468e-05 -9.86404e-05 -4.78814e-05
-3.89643e-05 -4.78814e-05 -0.000410095
0.00222613 0.000190797 1.76466e-05
0.000190797 0.000457813 8.56122e-06
1.76466e-05 8.56122e-06 0.000301179
0.00089503 0.000107945 -1.71612e-07
0.000107945 6.02841e-05 -4.8976e-06
-1.71612e-07 -4.8976e-06 -8.94216e-05
0.000898053 5.7692e-05 5.5197e-07
5.7692e-05 2.3096e-05 2.36576e-06
5.5197e-07 2.36576e-06 -4.26755e-05
0.00195015 0.000149953 -2.33084e-05
0.000149953 0.000631623 -1.90634e-05
-2.33084e-05 -1.90634e-05 0.000507271
-2.54618e-06 0.000134786 -3.71318e-06
0.000134786 -0.000528736 1.27043e-05
-3.71318e-06 1.27043e-05 -0.000637681
0.000391805 2.59457e-05 -1.06183e-06
2.59457e-05 -0.000634809 -5.2577e-06
-1.06183e-06 -5.2577e-06 -0.00111986
0.0015318 4.70871e-06 -3.31646e-07
4.70871e-06 0.000367232 3.08319e-06
-3.31646e-07 3.08319e-06 0.000260124
-0.00113587 -5.91503e-06 -6.27136e-06
-5.91503e-06 -0.000949754 -1.91096e-07
-6.27136e-06 -1.91096e-07 -0.00100283
0.00269653 -0.000162472 -3.65236e-05
-0.000162472 0.000657584 -2.8002e-08
-3.65236e-05 -2.8002e-08 0.000696734
0.00163575 5.51973e-06 3.12134e-05
5.51973e-06 -0.000550826 -2.68396e-05
3.12134e-05 -2.68396e-05 -0.000689005
0.000431224 -1.18885e-06 -0.000114623
-1.18885e-06 -0.000180011 2.27054e-05
-0.000114623 2.27054e-05 -0.000364614
0.00584441 0.000298173 -2.20307e-05
0.000298173 0.00191681 7.67129e-06
-2.20307e-05 7.67129e-06 0.0010678
0.00106578 -0.000109581 1.25158e-06
-0.000109581 -0.000163428 -2.37135e-06
1.25158e-06 -2.37135e-06 -0.000104386
0.00479791 0.000175472 2.80508e-05
0.000175472 0.00135363 3.16006e-06
2.80508e-05 3.16006e-06 0.00074298
0.00230636 8.62826e-05 2.95659e-05
8.62826e-05 0.000133211 -7.0623e-06
2.95659e-05 -7.0623e-06 -0.000157052
0.00252061 -6.31393e-05 -6.63846e-06
-6.31393e-05 0.00046349 1.73138e-06
-6.63846e-06 1.73138e-06 0.000456627
0.000950577 6.67598e-05 -3.10617e-05
6.67598e-05 0.000163683 9.28757e-06
-3.10617e-05 9.28757e-06 -8.37408e-05
0.00122262 -0.000146796 7.86768e-06
-0.000146796 1.58361e-05 -6.51841e-06
7.86768e-06 -6.51841e-06 -0.000117748
0.00165531 -0.000145628 -3.85453e-06
-0.000145628 7.41273e-06 1.06665e-06
-3.85453e-06 1.06665e-06 -7.43741e-05
0.00216957 -9.66346e-05 -1.39396e-05
-9.66346e-05 0.000125761 2.34578e-06
-1.39396e-05 2.34578e-06 8.3865e-05
0.000871492 -0.000102199 3.7623e-06
-0.000102199 -0.000237397 -2.10573e-06
3.7623e-06 -2.10573e-06 -0.000335005
0.00151922 -9.22446e-05 2.23864e-06
-9.22446e-05 -8.6024e-06 1.1592e-06
2.23864e-06 1.1592e-06 -5.60373e-05
0.00174185 -6.51322e-05 -2.21238e-06
-6.51322e-05 5.52132e-05 4.17463e-06
-2.21238e-06 4.17463e-06 2.99564e-05
0.0010851 -7.97188e-05 1.87927e-06
-7.97188e-05 -0.000107617 1.62345e-06
1.87927e-06 1.62345e-06 -0.000189814
0.00146857 -7.46291e-05 5.36106e-08
-7.46291e-05 8.26304e-06 1.73891e-06
5.36106e-08 1.73891e-06 -4.04128e-05
0.00155399 -6.18602e-05 9.25392e-07
-6.18602e-05 3.92984e-05 2.43046e-06
9.25392e-07 2.43046e-06 -7.77336e-07
0.00123309 -7.20904e-05 2.53755e-06
-7.20904e-05 -2.11331e-05 2.55407e-06
2.53755e-06 2.55407e-06 -9.76238e-05
0.00141449 -6.87493e-05 9.26712e-08
-6.87493e-05 3.72848e-05 1.11212e-06
9.26712e-08 1.11212e-06 -1.95865e-05
0.00147883 -6.11234e-05 1.94401e-07
-6.11234e-05 6.79594e-05 4.17076e-07
1.94401e-07 4.17076e-07 1.32755e-05
0.00144069 -6.51431e-05 -1.2809e-06
-6.51431e-05 8.88072e-05 1.09954e-06
-1.2809e-06 1.09954e-06 2.8001e-05
0.0015977 -6.69522e-05 1.05495e-06
-6.69522e-05 0.000181748 -1.44117e-06
1.05495e-06 -1.44117e-06 0.000112724
0.00141525 -6.96476e-05 1.61489e-06
-6.96476e-05 9.32387e-05 3.47237e-06
1.61489e-06 3.47237e-06 2.20965e-05
0.00137067 -7.12071e-05 9.56914e-08
-7.12071e-05 9.6017e-05 -4.91996e-07
9.56914e-08 -4.91996e-07 1.64029e-05
0.00135044 -6.92448e-05 -7.03793e-07
-6.92448e-05 0.000101461 -8.2833e-07
-7.03793e-07 -8.2833e-07 1.97721e-05
0.000966969 -6.37117e-05 -1.81685e-06
-6.37117e-05 -3.02708e-05 1.16575e-06
-1.81685e-06 1.16575e-06 -0.000116302
0.00128489 -7.42745e-05 4.4564e-08
-7.42745e-05 0.000107475 -1.39353e-07
4.4564e-08 -1.39353e-07 1.63791e-05
0.00145941 -8.11209e-05 2.19509e-06
-8.11209e-05 0.000179528 -3.1665e-07
2.19509e-06 -3.1665e-07 8.37565e-05
0.0010257 -5.76099e-05 -1.34814e-06
-5.76099e-05 5.68053e-05 1.06366e-06
-1.34814e-06 1.06366e-06 -1.92452e-05
0.000937601 -6.42171e-05 -4.16414e-07
-6.42171e-05 -3.01254e-06 4.79309e-07
-4.16414e-07 4.79309e-07 -8.85512e-05
0.00129689 -7.65136e-05 1.46047e-06
-7.65136e-05 0.000161582 -1.62565e-06
1.46047e-06 -1.62565e-06 6.908e-05
0.00083454 -7.15682e-06 -2.29778e-06
-7.15682e-06 -1.71273e-06 1.48512e-06
-2.29778e-06 1.48512e-06 -6.12189e-05
0.00103644 -5.27661e-05 -1.1309e-08
-5.27661e-05 7.64734e-05 -1.23406e-07
-1.1309e-08 -1.23406e-07 3.41556e-06
0.001122 -6.68977e-05 6.11071e-07
-6.68977e-05 0.000110905 -1.11669e-06
6.11071e-07 -1.11669e-06 2.93817e-05
0.000686921 3.74638e-05 -3.70526e-06
3.74638e-05 -6.6702e-05 3.74174e-06
-3.70526e-06 3.74174e-06 -8.92275e-05
0.000893894 -6.05306e-06 -9.65627e-09
-6.05306e-06 2.46201e-05 1.2189e-07
-9.65627e-09 1.2189e-07 -3.16351e-05
0.00105301 -4.6957e-05 1.24843e-06
-4.6957e-05 9.05112e-05 -1.97754e-07
1.24843e-06 -1.97754e-07 1.92699e-05
0.00258813 5.00712e-05 -2.45364e-05
5.00712e-05 0.000901194 3.46691e-06
-2.45364e-05 3.46691e-06 0.000912004
0.000760245 3.50268e-05 -2.18172e-08
3.50268e-05 -3.70108e-05 -4.99873e-08
-2.18172e-08 -4.99873e-08 -5.55482e-05
0.000881025 -4.61018e-06 2.52415e-06
-4.61018e-06 1.27804e-05 -1.79907e-06
2.52415e-06 -1.79907e-06 -3.89775e-05
0.00250848 4.51258e-05 2.37607e-07
4.51258e-05 0.000854471 7.24441e-08
2.37607e-07 7.24441e-08 0.000867071
0.00080517 3.15167e-05 3.71002e-06
3.15167e-05 -2.27639e-05 -3.57797e-06
3.71002e-06 -3.57797e-06 -3.77826e-05
0.00244609 4.05155e-05 2.26655e-05
4.05155e-05 0.000816759 -3.70858e-06
2.26655e-05 -3.70858e-06 0.000830978
0.00106173 5.54453e-05 -5.75538e-07
5.54453e-05 0.000101398 1.04529e-07
-5.75538e-07 1.04529e-07 2.41512e-05
0.00101654 4.89578e-05 2.83314e-07
4.89578e-05 7.53025e-05 1.40802e-07
2.83314e-07 1.40802e-07 4.72417e-07
0.000905056 -5.30307e-07 -1.44329e-06
-5.30307e-07 1.63993e-05 -6.63235e-07
-1.44329e-06 -6.63235e-07 -5.25933e-05
0.00097254 2.91685e-05 1.06272e-06
2.91685e-05 4.71043e-05 1.0682e-06
1.06272e-06 1.0682e-06 -2.685e-05
0.000943647 -4.65045e-06 -8.36693e-08
-4.65045e-06 3.33882e-05 1.98048e-07
-8.36693e-08 1.98048e-07 -3.32776e-05
0.000872384 -1.08278e-05 -2.2735e-06
-1.08278e-05 8.69534e-07 -2.24156e-06
-2.2735e-06 -2.24156e-06 -4.57871e-05
0.000965465 -9.07912e-06 6.98586e-07
-9.07912e-06 3.97893e-05 1.68878e-06
6.98586e-07 1.68878e-06 -2.27334e-05
0.000881102 -1.58501e-05 -9.45809e-08
-1.58501e-05 7.13302e-07 -7.38532e-08
-9.45809e-08 -7.38532e-08 -4.0971e-05
0.000817054 -2.75444e-05 -3.35875e-06
-2.75444e-05 -2.7101e-05 -3.77938e-06
-3.35875e-06 -3.77938e-06 -3.87864e-05
0.00238613 -3.58693e-05 -2.07776e-05
-3.58693e-05 0.00077654 -3.82662e-06
-2.07776e-05 -3.82662e-06 0.000792947
0.000815134 -2.3531e-05 -7.10758e-08
-2.3531e-05 -3.4665e-05 -7.24271e-09
-7.10758e-08 -7.24271e-09 -4.36091e-05
0.000889816 -1.72941e-05 1.37306e-06
-1.72941e-05 -2.98095e-07 2.30803e-06
1.37306e-06 2.30803e-06 -3.79865e-05
0.00237736 -3.1861e-05 -6.98665e-07
-3.1861e-05 0.000765303 6.57946e-08
-6.98665e-07 6.57946e-08 0.000783144
0.000808452 -2.07966e-05 2.14701e-06
-2.07966e-05 -4.2594e-05 3.54025e-06
2.14701e-06 3.54025e-06 -4.97793e-05
0.00234385 -2.77097e-05 1.5645e-05
-2.77097e-05 0.000742334 3.92184e-06
1.5645e-05 3.92184e-06 0.000761579
0.00585702 -1.0986e-06 2.9453e-05
-1.0986e-06 0.00173241 5.23664e-07
2.9453e-05 5.23664e-07 0.00117839
-0.000851727 -3.5477e-05 1.28825e-05
-3.5477e-05 -0.000516277 1.11914e-06
1.28825e-05 1.11914e-06 -0.00052806
0.000142771 -2.67946e-05 -8.01937e-07
-2.67946e-05 -0.000230688 -8.42754e-08
-8.01937e-07 -8.42754e-08 -0.000258927
0.000991278 3.88869e-05 1.34591e-06
3.88869e-05 6.2472e-05 5.77542e-07
1.34591e-06 5.77542e-07 -1.95479e-05
0.000983549 5.85396e-05 6.61855e-07
5.85396e-05 6.65192e-05 -8.29074e-09
6.61855e-07 -8.29074e-09 -1.19837e-05
0.00112174 6.11763e-05 1.86209e-07
6.11763e-05 0.000135495 -4.26229e-08
1.86209e-07 -4.26229e-08 5.24948e-05
0.00108297 6.45847e-05 -3.64465e-07
6.45847e-05 0.000116834 -1.83608e-07
-3.64465e-07 -1.83608e-07 3.70261e-05
0.00112389 6.73609e-05 2.36923e-06
6.73609e-05 0.000139874 8.59914e-07
2.36923e-06 8.59914e-07 5.68789e-05
0.0008157 5.72007e-05 -1.65558e-06
5.72007e-05 -1.0028e-05 7.11096e-07
-1.65558e-06 7.11096e-07 -9.18341e-05
0.000806697 4.99684e-05 1.03384e-06
4.99684e-05 -1.93311e-05 7.86192e-07
1.03384e-06 7.86192e-07 -0.000105751
0.00078337 5.65877e-05 6.19061e-07
5.65877e-05 -2.74538e-05 -1.30413e-07
6.19061e-07 -1.30413e-07 -0.000114201
0.000841421 5.48947e-05 7.96722e-07
5.48947e-05 1.99499e-06 9.53896e-08
7.96722e-07 9.53896e-08 -8.78768e-05
0.00045362 5.7504e-05 -5.56047e-08
5.7504e-05 -0.000212116 8.42244e-08
-5.56047e-08 8.42244e-08 -0.00029875
0.00262648 0.000129799 1.23776e-07
0.000129799 0.000814302 -7.78037e-07
1.23776e-07 -7.78037e-07 0.000717726
0.00180352 0.00012643 6.74449e-07
0.00012643 0.000300356 -3.76315e-06
6.74449e-07 -3.76315e-06 0.000181459
0.0012396 9.43337e-05 8.51313e-07
9.43337e-05 0.000154392 -1.1996e-08
8.51313e-07 -1.1996e-08 5.38161e-05
0.00120618 4.77473e-05 -1.17875e-06
4.77473e-05 0.000191049 1.06314e-06
-1.17875e-06 1.06314e-06 0.000104613
0.00113948 -5.20225e-05 -1.7226e-05
-5.20225e-05 -0.000235643 -1.82243e-05
-1.7226e-05 -1.82243e-05 -0.00037482
0.00386487 -0.000101478 -7.59194e-06
-0.000101478 0.000720263 -1.83059e-06
-7.59194e-06 -1.83059e-06 0.000129821
0.0028695 -0.000209184 -3.73438e-05
-0.000209184 0.00120498 -1.71374e-05
-3.73438e-05 -1.71374e-05 0.00114698
0.0043686 -0.000108158 0.00010849
-0.000108158 0.000925552 3.57247e-05
0.00010849 3.57247e-05 0.000126632
0.00292251 0.000170541 2.71549e-05
0.000170541 0.00076557 4.63574e-05
2.71549e-05 4.63574e-05 0.000579206
0.00116737 3.99546e-05 -1.92191e-05
3.99546e-05 -6.29496e-05 -6.84461e-06
-1.92191e-05 -6.84461e-06 -0.000208299
0.00112458 8.13117e-05 1.98956e-05
8.13117e-05 -0.000201229 1.22458e-05
1.98956e-05 1.22458e-05 -0.000251788
0.00193107 0.00018802 1.5334e-07
0.00018802 0.000313924 6.669e-06
1.5334e-07 6.669e-06 0.000177879
0.00028021 8.1219e-05 -1.57804e-06
8.1219e-05 -0.000230771 4.8416e-06
-1.57804e-06 4.8416e-06 -0.000377111
0.00205674 0.000210002 -5.97534e-05
0.000210002 0.000317839 -5.99524e-05
-5.97534e-05 -5.99524e-05 0.000255001
0.00215809 -5.63471e-06 -0.000114333
-5.63471e-06 0.000520066 -5.1466e-06
-0.000114333 -5.1466e-06 0.000228631
0.0056062 4.58376e-05 1.0072e-05
4.58376e-05 0.00183063 -1.60682e-06
1.0072e-05 -1.60682e-06 0.00130788
-0.00308218 -2.58272e-05 -6.21521e-05
-2.58272e-05 -0.00193473 6.25802e-06
-6.21521e-05 6.25802e-06 -0.00191565
0.00278105 -0.000142819 -1.55347e-06
-0.000142819 0.00066983 -2.23801e-06
-1.55347e-06 -2.23801e-06 0.000714547
0.00133652 8.32834e-05 3.69194e-05
8.32834e-05 -0.000259311 -7.92597e-06
3.69194e-05 -7.92597e-06 -0.000419249
0.000815556 -8.05121e-06 2.59032e-05
-8.05121e-06 -0.000329672 -1.54389e-06
2.59032e-05 -1.54389e-06 -0.000836744
0.00172485 -7.88294e-05 7.20161e-07
-7.88294e-05 3.90065e-05 2.71896e-06
7.20161e-07 2.71896e-06 6.25544e-05
0.00132718 9.55581e-05 2.39058e-06
9.55581e-05 0.000170286 -5.34018e-06
2.39058e-06 -5.34018e-06 -3.37379e-05
0.00297155 -6.7747e-06 9.32647e-07
-6.7747e-06 0.000575755 -1.34536e-05
9.32647e-07 -1.34536e-05 0.000546583
0.000995439 5.95651e-05 5.86197e-06
5.95651e-05 -0.000174637 -1.53287e-06
5.86197e-06 -1.53287e-06 -0.000249354
0.00249112 -0.000157002 6.84331e-06
-0.000157002 0.000429947 -3.29088e-06
6.84331e-06 -3.29088e-06 0.000349964
0.00210934 -9.69764e-05 1.85148e-06
-9.69764e-05 9.59895e-05 -1.01781e-06
1.85148e-06 -1.01781e-06 5.75587e-05
0.00216865 -2.32128e-05 -2.53524e-06
-2.32128e-05 0.000220309 2.06647e-06
-2.53524e-06 2.06647e-06 0.000184167
0.000880407 -8.22025e-05 1.00584e-05
-8.22025e-05 -0.0003118 -1.52712e-06
1.00584e-05 -1.52712e-06 -0.000357711
0.0017525 -6.58872e-05 2.88821e-06
-6.58872e-05 7.21533e-05 -1.00102e-07
2.88821e-06 -1.00102e-07 4.46145e-05
0.00176043 -3.80257e-05 -3.44833e-07
-3.80257e-05 9.8855e-05 2.85321e-06
-3.44833e-07 2.85321e-06 5.25819e-05
0.00131826 -7.29537e-05 3.96279e-06
-7.29537e-05 -6.43014e-05 2.16651e-06
3.96279e-06 2.16651e-06 -0.000113913
0.00154762 -6.23021e-05 8.98794e-07
-6.23021e-05 4.42006e-05 8.30979e-07
8.98794e-07 8.30979e-07 2.00311e-06
0.00165665 -5.03952e-05 -1.94048e-07
-5.03952e-05 0.000108902 1.60367e-06
-1.94048e-07 1.60367e-06 5.27264e-05
0.00146584 -7.01084e-05 1.27713e-06
-7.01084e-05 6.41885e-05 2.28305e-06
1.27713e-06 2.28305e-06 6.18873e-06
0.00141331 -6.20832e-05 -7.89547e-08
-6.20832e-05 4.19171e-05 -3.12547e-08
-7.89547e-08 -3.12547e-08 -1.32427e-05
0.00141097 -5.89217e-05 1.62837e-06
-5.89217e-05 6.08167e-05 3.99634e-07
1.62837e-06 3.99634e-07 -6.59112e-06
0.00126761 -6.26656e-05 -2.62823e-07
-6.26656e-05 4.13665e-06 2.50992e-06
-2.62823e-07 2.50992e-06 -5.46126e-05
0.00145534 -6.39548e-05 -8.84746e-07
-6.39548e-05 0.000110381 -6.23829e-07
-8.84746e-07 -6.23829e-07 4.27084e-05
0.00155985 -6.54522e-05 2.74664e-07
-6.54522e-05 0.000178406 -6.49328e-07
2.74664e-07 -6.49328e-07 0.000102532
0.00138193 -7.08614e-05 9.66235e-07
-7.08614e-05 0.000101074 1.22078e-06
9.66235e-07 1.22078e-06 2.11316e-05
0.00135083 -6.87824e-05 1.63827e-07
-6.87824e-05 0.000102104 -3.38278e-07
1.63827e-07 -3.38278e-07 2.00222e-05
0.00138305 -6.74656e-05 -9.46635e-07
-6.74656e-05 0.000139352 -7.26999e-09
-9.46635e-07 -7.26999e-09 5.8428e-05
0.000831779 -5.37762e-05 -2.35159e-06
-5.37762e-05 -7.0247e-05 1.45802e-06
-2.35159e-06 1.45802e-06 -0.000148506
0.00105346 -6.5484e-05 -3.36158e-07
-6.5484e-05 1.6037e-05 3.10466e-07
-3.36158e-07 3.10466e-07 -6.95656e-05
0.00127881 -7.36764e-05 1.47144e-06
-7.36764e-05 0.000105674 -8.38933e-07
1.47144e-06 -8.38933e-07 1.41252e-05
0.000853614 -2.27538e-05 -2.32887e-06
-2.27538e-05 2.08166e-06 1.57623e-06
-2.32887e-06 1.57623e-06 -6.00856e-05
0.00105506 -5.79922e-05 7.34626e-08
-5.79922e-05 7.07394e-05 6.18192e-09
7.34626e-08 6.18192e-09 -5.33106e-06
0.00103663 -6.66522e-05 4.60893e-07
-6.66522e-05 4.84753e-05 -7.58241e-07
4.60893e-07 -7.58241e-07 -3.64876e-05
0.000666933 4.04991e-05 -3.6182e-06
4.04991e-05 -6.78215e-05 3.63996e-06
-3.6182e-06 3.63996e-06 -9.5429e-05
0.000886812 -1.25681e-05 -9.65844e-08
-1.25681e-05 2.2428e-05 5.03899e-08
-9.65844e-08 5.03899e-08 -3.6857e-05
0.00108421 -5.44785e-05 1.30188e-06
-5.44785e-05 9.8886e-05 -7.90101e-07
1.30188e-06 -7.90101e-07 2.57252e-05
0.00269835 5.53658e-05 -2.59868e-05
5.53658e-05 0.000963924 3.38279e-06
-2.59868e-05 3.38279e-06 0.000972435
0.00073579 3.88524e-05 1.45466e-07
3.88524e-05 -4.12775e-05 1.49171e-10
1.45466e-07 1.49171e-10 -6.41847e-05
0.00090039 -7.97947e-06 2.64741e-06
-7.97947e-06 2.58391e-05 -1.49402e-06
2.64741e-06 -1.49402e-06 -3.0067e-05
0.00259172 5.01057e-05 2.29071e-07
5.01057e-05 0.000903719 7.85681e-08
2.29071e-07 7.85681e-08 0.000914254
0.000791007 3.61836e-05 3.41102e-06
3.61836e-05 -2.06205e-05 -3.64949e-06
3.41102e-06 -3.64949e-06 -3.95468e-05
0.00250639 4.5144e-05 2.40392e-05
4.5144e-05 0.000854197 -3.60113e-06
2.40392e-05 -3.60113e-06 0.000866599
0.00107399 6.087e-05 -8.0505e-07
6.087e-05 0.000108547 -5.85772e-07
-8.0505e-07 -5.85772e-07 2.84652e-05
0.00111053 5.72188e-05 1.53921e-07
5.72188e-05 0.000125636 1.07756e-07
1.53921e-07 1.07756e-07 4.87001e-05
0.000963117 2.33222e-05 -1.44712e-06
2.33222e-05 5.0501e-05 -4.30877e-07
-1.44712e-06 -4.30877e-07 -2.04316e-05
0.000985129 4.95157e-05 8.30396e-07
4.95157e-05 6.05073e-05 1.3756e-07
8.30396e-07 1.3756e-07 -1.44145e-05
0.00091167 3.80373e-06 -3.74364e-07
3.80373e-06 2.05853e-05 -2.45124e-08
-3.74364e-07 -2.45124e-08 -4.87312e-05
0.000872781 -1.71239e-06 -2.61953e-06
-1.71239e-06 5.39207e-06 -1.768e-06
-2.61953e-06 -1.768e-06 -4.63627e-05
0.000922844 -9.6048e-06 8.73934e-07
-9.6048e-06 2.29554e-05 1.37631e-06
8.73934e-07 1.37631e-06 -4.4353e-05
0.000876829 -1.2111e-05 -4.48499e-08
-1.2111e-05 3.26828e-06 -4.40255e-08
-4.48499e-08 -4.40255e-08 -4.34339e-05
0.000800918 -3.20602e-05 -3.57136e-06
-3.20602e-05 -2.75593e-05 -3.77729e-06
-3.57136e-06 -3.77729e-06 -4.27403e-05
0.000891192 -1.6164e-05 1.70724e-06
-1.6164e-05 5.15795e-06 2.54998e-06
1.70724e-06 2.54998e-06 -3.64015e-05
0.000800627 -2.66973e-05 -8.16222e-08
-2.66973e-05 -3.57719e-05 -2.6069e-08
-8.16222e-08 -2.6069e-08 -4.72036e-05
0.00244367 -4.03075e-05 -2.25176e-05
-4.03075e-05 0.000812683 -3.76328e-06
-2.25176e-05 -3.76328e-06 0.000827299
0.00240549 -3.60443e-05 -4.59038e-07
-3.60443e-05 0.000785554 6.54311e-08
-4.59038e-07 6.54311e-08 0.000802047
0.00080298 -2.30968e-05 2.77071e-06
-2.30968e-05 -4.07125e-05 3.59729e-06
2.77071e-06 3.59729e-06 -4.95539e-05
0.00238836 -3.20197e-05 1.79414e-05
-3.20197e-05 0.000770351 3.87495e-06
1.79414e-05 3.87495e-06 0.000788255
0.000879377 -2.97959e-05 -5.3731e-05
-2.97959e-05 -0.000169914 -7.15681e-06
-5.3731e-05 -7.15681e-06 -0.000336657
0.00160842 -5.43732e-05 -9.8667e-06
-5.43732e-05 -0.00014026 -5.39446e-06
-9.8667e-06 -5.39446e-06 -0.000666227
0.00314444 -0.000169104 -3.99733e-05
-0.000169104 0.00120047 -4.62381e-06
-3.99733e-05 -4.62381e-06 0.00113596
0.00118387 7.2345e-05 2.97257e-06
7.2345e-05 0.000144142 7.54092e-07
2.97257e-06 7.54092e-07 5.84876e-05
0.00114629 6.09657e-05 1.21671e-06
6.09657e-05 0.00014833 -1.41719e-07
1.21671e-06 -1.41719e-07 6.56179e-05
0.00101853 6.27583e-05 4.09344e-07
6.27583e-05 8.48328e-05 -1.94616e-07
4.09344e-07 -1.94616e-07 5.07382e-06
0.000995319 6.28997e-05 1.37677e-08
6.28997e-05 7.95633e-05 1.50686e-07
1.37677e-08 1.50686e-07 -2.82902e-06
0.00105763 6.57457e-05 -1.04616e-07
6.57457e-05 0.000108876 -3.56186e-07
-1.04616e-07 -3.56186e-07 2.53974e-05
0.000732788 6.03537e-05 -1.38839e-06
6.03537e-05 -5.96109e-05 8.5833e-07
-1.38839e-06 8.5833e-07 -0.000136989
0.00112587 6.73269e-05 2.24238e-06
6.73269e-05 0.000143334 -1.00133e-06
2.24238e-06 -1.00133e-06 5.44557e-05
0.00108441 5.75841e-05 8.68503e-07
5.75841e-05 0.000128634 9.33722e-07
8.68503e-07 9.33722e-07 3.73883e-05
0.0010153 7.43308e-05 -9.81027e-08
7.43308e-05 6.35791e-05 -1.20134e-07
-9.81027e-08 -1.20134e-07 -2.23771e-05
0.00194675 0.00011072 2.83703e-07
0.00011072 0.000491956 1.17649e-06
2.83703e-07 1.17649e-06 0.000398066
0.00153429 0.00010696 4.45295e-07
0.00010696 0.00018082 -1.80867e-06
4.45295e-07 -1.80867e-06 7.64226e-05
0.00194948 0.000109092 -3.87811e-06
0.000109092 0.000185912 -1.03855e-06
-3.87811e-06 -1.03855e-06 7.19293e-05
0.00136228 0.00011347 2.65778e-06
0.00011347 7.49784e-05 8.10226e-07
2.65778e-06 8.10226e-07 -4.30712e-05
0.000745518 7.89783e-05 -6.63741e-07
7.89783e-05 -9.0959e-05 4.1762e-06
-6.63741e-07 4.1762e-06 -0.00018869
0.00131137 -1.43495e-05 -6.11131e-06
-1.43495e-05 -0.000164469 3.58415e-06
-6.11131e-06 3.58415e-06 -0.000188312
0.00228684 -4.61061e-05 -1.01949e-06
-4.61061e-05 0.000110382 8.67294e-07
-1.01949e-06 8.67294e-07 -7.38991e-05
0.000943498 -0.00011546 -1.37114e-05
-0.00011546 -0.000499028 -5.90263e-06
-1.37114e-05 -5.90263e-06 -0.00100364
0.00250298 0.000112468 2.43938e-05
0.000112468 0.000164989 2.26297e-05
2.43938e-05 2.26297e-05 -8.25664e-05
0.00140258 8.42973e-05 1.95553e-06
8.42973e-05 -0.00010035 1.61513e-06
1.95553e-06 1.61513e-06 -0.000151926
0.000204536 0.000139059 -1.02311e-05
0.000139059 -0.000477443 -6.116e-06
-1.02311e-05 -6.116e-06 -0.000614276
0.00240609 -1.59819e-05 8.87534e-06
-1.59819e-05 0.000590992 -4.78823e-06
8.87534e-06 -4.78823e-06 0.000517692
0.000794509 -2.21798e-06 -2.28129e-05
-2.21798e-06 3.35246e-05 1.66027e-06
-2.28129e-05 1.66027e-06 -0.000186406
0.00122472 0.000134882 4.89984e-05
0.000134882 -0.000354035 -2.23415e-06
4.89984e-05 -2.23415e-06 -0.000837631
0.000866629 -9.14376e-05 -1.71615e-06
-9.14376e-05 -0.000419103 8.88133e-06
-1.71615e-06 8.88133e-06 -0.000369893
0.00190949 0.000114147 4.30016e-05
0.000114147 0.000241648 -1.5296e-05
4.30016e-05 -1.5296e-05 8.37884e-06
0.00207484 -1.02203e-05 5.98922e-06
-1.02203e-05 0.000100071 -1.75e-06
5.98922e-06 -1.75e-06 7.23248e-05
0.00144136 6.91009e-05 2.937e-07
6.91009e-05 5.43894e-05 -3.7097e-06
2.937e-07 -3.7097e-06 -1.88806e-05
0.00134365 4.32682e-05 -4.62663e-06
4.32682e-05 -0.00019778 -5.9031e-07
-4.62663e-06 -5.9031e-07 -0.000270468
0.00106885 4.25809e-05 -4.67386e-06
4.25809e-05 -0.000243352 -3.68817e-06
-4.67386e-06 -3.68817e-06 -0.000335635
0.00174894 -9.29709e-05 1.20987e-05
-9.29709e-05 -8.04185e-05 -2.47792e-06
1.20987e-05 -2.47792e-06 -0.00011257
0.00188124 -2.46734e-05 3.69484e-06
-2.46734e-05 8.30198e-05 9.99022e-07
3.69484e-06 9.99022e-07 4.21146e-05
0.00186104 6.7165e-06 -1.18009e-06
6.7165e-06 0.000162328 4.47644e-07
-1.18009e-06 4.47644e-07 9.27521e-05
0.00175356 -6.71096e-05 2.27769e-06
-6.71096e-05 8.3744e-05 -7.10457e-07
2.27769e-06 -7.10457e-07 5.33633e-05
0.00177536 -3.9369e-05 -5.39772e-08
-3.9369e-05 0.000108856 -2.75791e-07
-5.39772e-08 -2.75791e-07 6.07247e-05
0.00177829 -2.44745e-05 -5.38518e-07
-2.44745e-05 0.000145869 1.63285e-06
-5.38518e-07 1.63285e-06 7.71989e-05
0.00153318 -6.25707e-05 2.10198e-07
-6.25707e-05 4.49551e-05 -1.3787e-07
2.10198e-07 -1.3787e-07 6.78941e-07
0.00159697 -5.19649e-05 -8.58407e-07
-5.19649e-05 8.97898e-05 -1.06342e-06
-8.58407e-07 -1.06342e-06 3.41427e-05
0.00144275 -4.77222e-05 2.87692e-07
-4.77222e-05 3.67228e-05 1.97533e-06
2.87692e-07 1.97533e-06 -3.6202e-05
0.00133758 -6.28603e-05 -9.04525e-07
-6.28603e-05 1.06681e-05 -9.49433e-07
-9.04525e-07 -9.49433e-07 -4.49157e-05
0.0013906 -5.83578e-05 1.88312e-07
-5.83578e-05 5.16254e-05 -6.39351e-07
1.88312e-07 -6.39351e-07 -1.58138e-05
0.00138538 -5.87707e-05 4.42891e-07
-5.87707e-05 6.61121e-05 3.26481e-07
4.42891e-07 3.26481e-07 -1.03124e-05
0.00131037 -6.09792e-05 -1.67888e-06
-6.09792e-05 3.76928e-05 1.13971e-06
-1.67888e-06 1.13971e-06 -2.86234e-05
0.00142532 -6.20976e-05 -2.5739e-07
-6.20976e-05 0.000110468 -4.09811e-07
-2.5739e-07 -4.09811e-07 3.53982e-05
0.00134371 -5.96352e-05 -7.61396e-07
-5.96352e-05 9.14312e-05 -6.55337e-08
-7.61396e-07 -6.55337e-08 1.28251e-05
0.00135094 -6.83172e-05 1.02591e-06
-6.83172e-05 0.000102567 1.58231e-07
1.02591e-06 1.58231e-07 2.00981e-05
0.00123152 -6.39887e-05 2.49326e-07
-6.39887e-05 6.44069e-05 -1.86453e-07
2.49326e-07 -1.86453e-07 -1.70574e-05
0.00122479 -5.92554e-05 -2.0147e-06
-5.92554e-05 9.18095e-05 8.55585e-07
-2.0147e-06 8.55585e-07 1.47206e-05
0.000917076 -3.49638e-05 -2.79899e-06
-3.49638e-05 1.5017e-05 1.62097e-06
-2.79899e-06 1.62097e-06 -4.94934e-05
0.00093013 -5.5964e-05 -5.6658e-07
-5.5964e-05 -1.89552e-05 3.93212e-07
-5.6658e-07 3.93212e-07 -9.6663e-05
0.00112278 -6.67278e-05 9.70217e-07
-6.67278e-05 5.40078e-05 -6.15316e-07
9.70217e-07 -6.15316e-07 -3.11543e-05
0.000677248 2.19546e-05 -4.25985e-06
2.19546e-05 -5.65515e-05 3.65572e-06
-4.25985e-06 3.65572e-06 -8.87441e-05
0.000901778 -2.39199e-05 7.08728e-08
-2.39199e-05 2.5689e-05 5.82277e-08
7.08728e-08 5.82277e-08 -3.68274e-05
0.00108585 -5.85245e-05 1.58602e-06
-5.85245e-05 8.53271e-05 -1.08898e-06
1.58602e-06 -1.08898e-06 9.2318e-06
0.00278188 6.00989e-05 -2.77397e-05
6.00989e-05 0.00101507 3.29982e-06
-2.77397e-05 3.29982e-06 0.00102095
0.000731268 3.4049e-05 1.86624e-07
3.4049e-05 -3.72554e-05 -6.39846e-08
1.86624e-07 -6.39846e-08 -6.43921e-05
0.000930918 -1.50777e-05 2.58304e-06
-1.50777e-05 4.28536e-05 -1.60293e-06
2.58304e-06 -1.60293e-06 -1.64437e-05
0.00267846 5.48353e-05 3.80884e-07
5.48353e-05 0.000955032 1.01395e-07
3.80884e-07 1.01395e-07 0.000963262
0.000778572 3.96604e-05 3.5423e-06
3.96604e-05 -1.90206e-05 -3.54223e-06
3.5423e-06 -3.54223e-06 -4.2235e-05
0.00258905 4.98835e-05 2.56248e-05
4.98835e-05 0.000903093 -3.56837e-06
2.56248e-05 -3.56837e-06 0.000913386
0.000928233 6.18917e-05 -7.25926e-07
6.18917e-05 2.2326e-05 -6.96209e-07
-7.25926e-07 -6.96209e-07 -6.10023e-05
0.00103252 5.94306e-05 -3.25428e-08
5.94306e-05 8.75809e-05 -2.91324e-07
-3.25428e-08 -2.91324e-07 7.76899e-06
0.00106641 4.63175e-05 -1.23628e-06
4.63175e-05 0.000101466 -3.74999e-07
-1.23628e-06 -3.74999e-07 2.84523e-05
0.0011619 5.91974e-05 6.06094e-07
5.91974e-05 0.000151127 -2.25724e-07
6.06094e-07 -2.25724e-07 7.44856e-05
0.000981836 2.67651e-05 -4.07752e-07
2.67651e-05 6.0357e-05 -1.54415e-07
-4.07752e-07 -1.54415e-07 -1.02034e-05
0.000886129 4.40922e-06 -2.53005e-06
4.40922e-06 1.95173e-05 -1.53154e-06
-2.53005e-06 -1.53154e-06 -3.68719e-05
0.000916945 1.02289e-05 7.80795e-07
1.02289e-05 2.35274e-05 3.56949e-07
7.80795e-07 3.56949e-07 -4.56303e-05
0.000878293 -8.29682e-06 -1.99607e-08
-8.29682e-06 9.36383e-06 4.63e-08
-1.99607e-08 4.63e-08 -4.24982e-05
0.000778744 -3.70919e-05 -3.47876e-06
-3.70919e-05 -2.93334e-05 -3.65512e-06
-3.47876e-06 -3.65512e-06 -4.85177e-05
0.000881454 -1.41322e-05 2.11895e-06
-1.41322e-05 5.8554e-06 2.50331e-06
2.11895e-06 2.50331e-06 -4.08827e-05
0.000782258 -3.07913e-05 -7.54257e-08
-3.07913e-05 -3.7803e-05 -1.15611e-08
-7.54257e-08 -1.15611e-08 -5.26012e-05
0.00251513 -4.50443e-05 -2.40465e-05
-4.50443e-05 0.000856239 -3.64557e-06
-2.40465e-05 -3.64557e-06 0.000868829
0.000788797 -2.59848e-05 3.25027e-06
-2.59848e-05 -4.21756e-05 3.71056e-06
3.25027e-06 3.71056e-06 -5.3359e-05
0.00245029 -4.03986e-05 -3.70626e-07
-4.03986e-05 0.000815025 6.74192e-08
-3.70626e-07 6.74192e-08 0.000829863
0.00242279 -3.61597e-05 2.00883e-05
-3.61597e-05 0.000793657 3.80489e-06
2.00883e-05 3.80489e-06 0.000810228
0.00105196 -4.5003e-05 -3.62123e-06
-4.5003e-05 -0.000202884 9.49383e-07
-3.62123e-06 9.49383e-07 -0.000236923
0.00236066 -1.06755e-05 -3.7937e-06
-1.06755e-05 0.000336165 7.3854e-06
-3.7937e-06 7.3854e-06 8.1492e-05
0.00479598 4.36802e-05 -6.86156e-05
4.36802e-05 0.00141111 -1.08262e-05
-6.86156e-05 -1.08262e-05 0.000883395
0.000896603 6.35212e-05 1.3842e-06
6.35212e-05 -1.13973e-05 6.9106e-07
1.3842e-06 6.9106e-07 -9.15275e-05
0.00134048 8.06248e-05 2.21663e-06
8.06248e-05 0.000158428 -1.05039e-06
2.21663e-06 -1.05039e-06 6.86329e-05
0.000871183 6.39581e-05 2.67869e-07
6.39581e-05 -3.39972e-06 -3.95973e-07
2.67869e-07 -3.95973e-07 -8.8516e-05
0.00114937 6.78273e-05 8.3649e-07
6.78273e-05 0.000155311 -1.03005e-06
8.3649e-07 -1.03005e-06 7.25307e-05
0.00102478 6.52295e-05 1.64539e-08
6.52295e-05 9.42078e-05 -3.03409e-07
1.64539e-08 -3.03409e-07 1.01895e-05
0.00100692 6.95464e-05 1.03679e-06
6.95464e-05 6.85286e-05 7.8073e-07
1.03679e-06 7.8073e-07 -9.96042e-06
0.00143141 9.52738e-05 -2.3288e-06
9.52738e-05 0.00014209 -3.03403e-06
-2.3288e-06 -3.03403e-06 4.7349e-05
0.00145091 8.72977e-05 2.17269e-06
8.72977e-05 0.000279208 1.87644e-07
2.17269e-06 1.87644e-07 0.000193884
0.000875169 8.06995e-05 -1.30548e-06
8.06995e-05 -1.79072e-05 3.90399e-06
-1.30548e-06 3.90399e-06 -0.000109154
0.00144494 0.0001044 -1.07549e-06
0.0001044 0.000141726 -2.71588e-07
-1.07549e-06 -2.71588e-07 3.87188e-05
0.00123761 8.77943e-05 -3.88269e-06
8.77943e-05 -0.000112669 -2.23863e-06
-3.88269e-06 -2.23863e-06 -0.000222431
0.00190862 3.23831e-05 -4.79202e-06
3.23831e-05 6.67715e-05 4.66936e-06
-4.79202e-06 4.66936e-06 -1.11208e-05
0.00194336 0.000108892 1.15872e-06
0.000108892 0.000178002 1.15027e-06
1.15872e-06 1.15027e-06 6.48315e-05
0.00112662 0.000104946 -5.4944e-07
0.000104946 -5.18246e-05 3.82609e-06
-5.4944e-07 3.82609e-06 -0.000168104
0.00149177 -1.22837e-05 5.03321e-07
-1.22837e-05 -7.04484e-05 2.86102e-07
5.03321e-07 2.86102e-07 -9.39621e-05
0.00318069 -6.63128e-05 4.81535e-05
-6.63128e-05 0.00043292 2.55617e-05
4.81535e-05 2.55617e-05 0.000182039
0.00208959 9.34754e-05 -3.67897e-06
9.34754e-05 0.000204815 -3.04355e-06
-3.67897e-06 -3.04355e-06 0.000150221
0.00200334 1.5125e-05 -3.71719e-06
1.5125e-05 0.000292604 -2.89339e-06
-3.71719e-06 -2.89339e-06 0.000230037
0.0014881 -1.52379e-05 6.1753e-07
-1.52379e-05 0.000142443 -1.2566e-07
6.1753e-07 -1.2566e-07 6.93541e-05
0.000860683 5.4182e-05 5.5883e-05
5.4182e-05 -0.000153127 1.41115e-06
5.5883e-05 1.41115e-06 -0.000432358
0.00101744 -1.94616e-05 4.90997e-06
-1.94616e-05 -0.000449083 2.13261e-06
4.90997e-06 2.13261e-06 -0.000471997
0.00172601 7.55496e-05 -8.0974e-06
7.55496e-05 0.000213028 2.10527e-06
-8.0974e-06 2.10527e-06 0.000142737
0.00159039 4.68025e-05 -2.01141e-06
4.68025e-05 -8.14788e-05 4.07461e-06
-2.01141e-06 4.07461e-06 -0.000151656
0.00159743 5.18686e-05 4.13237e-07
5.18686e-05 1.67624e-05 1.20539e-06
4.13237e-07 1.20539e-06 -7.17351e-05
0.0017066 4.08894e-05 -4.23389e-06
4.08894e-05 9.06307e-05 -9.92552e-08
-4.23389e-06 -9.92552e-08 8.01936e-06
0.00142541 3.6798e-05 -2.43894e-06
3.6798e-05 -1.7706e-05 -1.69008e-06
-2.43894e-06 -1.69008e-06 -9.01482e-05
0.00153877 -2.57772e-05 8.71593e-06
-2.57772e-05 -8.59238e-05 -1.67361e-06
8.71593e-06 -1.67361e-06 -0.00013092
0.00175355 5.58006e-06 -1.10657e-06
5.58006e-06 0.000102532 -8.24593e-07
-1.10657e-06 -8.24593e-07 3.47923e-05
0.00167517 1.70588e-05 -7.68609e-07
1.70588e-05 9.03782e-05 -2.03222e-07
-7.68609e-07 -2.03222e-07 8.91798e-06
0.00184711 -4.06077e-05 -1.68152e-06
-4.06077e-05 0.000147139 -2.16382e-06
-1.68152e-06 -2.16382e-06 9.7782e-05
0.00169117 -2.43702e-05 -1.32519e-07
-2.43702e-05 0.000106 -4.48706e-07
-1.32519e-07 -4.48706e-07 3.81426e-05
0.00148297 -1.83576e-05 -6.00393e-07
-1.83576e-05 2.26523e-05 1.52108e-06
-6.00393e-07 1.52108e-06 -5.68476e-05
0.00153102 -5.33226e-05 -3.02003e-06
-5.33226e-05 6.73169e-05 -2.75922e-06
-3.02003e-06 -2.75922e-06 1.22518e-05
0.00147461 -4.73048e-05 2.93433e-07
-4.73048e-05 5.21011e-05 -5.95053e-08
2.93433e-07 -5.95053e-08 -2.08801e-05
0.00144573 -4.90812e-05 -1.67988e-07
-4.90812e-05 5.81997e-05 1.32255e-06
-1.67988e-07 1.32255e-06 -2.26144e-05
0.00137088 -5.77835e-05 -1.10095e-06
-5.77835e-05 4.27338e-05 -1.69377e-06
-1.10095e-06 -1.69377e-06 -2.4734e-05
0.00138626 -5.80651e-05 5.8643e-08
-5.80651e-05 6.62471e-05 -4.44931e-07
5.8643e-08 -4.44931e-07 -1.01005e-05
0.00134655 -5.71834e-05 -6.38569e-07
-5.71834e-05 6.8724e-05 4.06913e-07
-6.38569e-07 4.06913e-07 -1.13029e-05
0.00128938 -5.87803e-05 -3.80828e-07
-5.87803e-05 4.18231e-05 2.64026e-07
-3.80828e-07 2.64026e-07 -3.24449e-05
0.00124127 -5.75289e-05 -1.85743e-07
-5.75289e-05 4.07692e-05 -1.82266e-07
-1.85743e-07 -1.82266e-07 -3.76456e-05
0.00121084 -5.40816e-05 -2.01343e-06
-5.40816e-05 5.94063e-05 6.00953e-07
-2.01343e-06 6.00953e-07 -1.69373e-05
0.00108376 -6.06119e-05 1.43304e-06
-6.06119e-05 -8.70202e-06 -4.40045e-07
1.43304e-06 -4.40045e-07 -9.07108e-05
0.00106437 -5.52177e-05 9.33205e-08
-5.52177e-05 1.28384e-05 4.69834e-08
9.33205e-08 4.69834e-08 -6.43628e-05
0.000973565 -3.92245e-05 -3.19587e-06
-3.92245e-05 1.65545e-05 1.49584e-06
-3.19587e-06 1.49584e-06 -4.86913e-05
0.000690186 3.41287e-06 -5.50986e-06
3.41287e-06 -5.09415e-05 3.66102e-06
-5.50986e-06 3.66102e-06 -8.7386e-05
0.00093553 -3.65423e-05 6.03941e-08
-3.65423e-05 2.44331e-05 8.27054e-08
6.03941e-08 8.27054e-08 -4.01996e-05
0.00104041 -5.85296e-05 1.13465e-06
-5.85296e-05 3.80817e-05 -6.63385e-07
1.13465e-06 -6.63385e-07 -3.90784e-05
0.00286612 6.50333e-05 -2.87738e-05
6.50333e-05 0.0010704 3.21289e-06
-2.87738e-05 3.21289e-06 0.00107284
0.000737797 1.81962e-05 -1.20973e-08
1.81962e-05 -2.9467e-05 -6.98508e-08
-1.20973e-08 -6.98508e-08 -6.15094e-05
0.000946421 -2.7794e-05 2.84095e-06
-2.7794e-05 4.70161e-05 -1.65557e-06
2.84095e-06 -1.65557e-06 -1.55584e-05
0.00275788 5.96248e-05 3.38545e-07
5.96248e-05 0.00100503 9.77492e-08
3.38545e-07 9.77492e-08 0.00101043
0.000790621 2.9338e-05 4.73548e-06
2.9338e-05 -8.53865e-06 -3.45991e-06
4.73548e-06 -3.45991e-06 -3.55874e-05
0.00266617 5.45433e-05 2.71023e-05
5.45433e-05 0.000949958 -3.48307e-06
2.71023e-05 -3.48307e-06 0.000957867
0.000726884 6.09203e-05 -3.97556e-07
6.09203e-05 -0.000109222 -6.46791e-07
-3.97556e-07 -6.46791e-07 -0.000197818
0.000806359 5.85403e-05 -1.85841e-08
5.85403e-05 -4.03146e-05 -1.03863e-07
-1.85841e-08 -1.03863e-07 -0.000124103
0.00110506 5.52705e-05 -1.48446e-06
5.52705e-05 0.000107497 -4.29652e-07
-1.48446e-06 -4.29652e-07 3.18483e-05
0.000989627 5.79386e-05 3.95449e-07
5.79386e-05 6.59102e-05 -1.59549e-07
3.95449e-07 -1.59549e-07 -1.36261e-05
0.00100774 4.37952e-05 -6.93795e-08
4.37952e-05 7.28952e-05 -7.2706e-08
-6.93795e-08 -7.2706e-08 6.41399e-08
0.000913049 8.74249e-06 -2.6219e-06
8.74249e-06 3.88591e-05 -1.36005e-06
-2.6219e-06 -1.36005e-06 -2.1133e-05
0.00100578 2.95867e-05 8.92701e-07
2.95867e-05 7.28988e-05 1.88847e-08
8.92701e-07 1.88847e-08 2.67521e-06
0.000880579 -7.83034e-07 1.06169e-07
-7.83034e-07 1.87179e-05 5.39869e-08
1.06169e-07 5.39869e-08 -3.7878e-05
0.000768523 -4.16699e-05 -3.31564e-06
-4.16699e-05 -2.40774e-05 -3.54809e-06
-3.31564e-06 -3.54809e-06 -4.77647e-05
0.000883477 -1.34307e-05 2.36148e-06
-1.34307e-05 1.32649e-05 2.13019e-06
2.36148e-06 2.13019e-06 -3.87466e-05
0.000757814 -3.59187e-05 -3.08778e-08
-3.59187e-05 -4.10212e-05 -7.30366e-09
-3.08778e-08 -7.30366e-09 -5.9806e-05
0.0025848 -4.99697e-05 -2.53783e-05
-4.99697e-05 0.000899588 -3.50931e-06
-2.53783e-05 -3.50931e-06 0.000909974
0.00076515 -2.96083e-05 3.72505e-06
-2.96083e-05 -4.73074e-05 3.74568e-06
3.72505e-06 3.74568e-06 -6.17265e-05
0.00252309 -4.51113e-05 -3.12821e-07
-4.51113e-05 0.000859173 7.48849e-08
-3.12821e-07 7.48849e-08 0.000872021
0.00246482 -4.05344e-05 2.1696e-05
-4.05344e-05 0.000821446 3.70306e-06
2.1696e-05 3.70306e-06 0.000836468
0.0016493 -2.60733e-05 6.5862e-07
-2.60733e-05 -7.64025e-06 1.9323e-06
6.5862e-07 1.9323e-06 -6.13938e-05
0.00111949 -4.8179e-05 5.49167e-07
-4.8179e-05 -0.000158506 6.56136e-08
5.49167e-07 6.56136e-08 -0.000195168
0.000874407 -4.25463e-05 4.58553e-05
-4.25463e-05 -0.000195301 1.8019e-05
4.58553e-05 1.8019e-05 -0.000371845
0.00183147 9.21873e-05 6.0966e-07
9.21873e-05 0.000347107 -2.19388e-06
6.0966e-07 -2.19388e-06 0.000258829
0.000888021 6.45628e-05 -7.90409e-07
6.45628e-05 -3.30343e-06 4.0158e-07
-7.90409e-07 4.0158e-07 -8.00093e-05
0.000756206 6.81137e-05 -2.79721e-06
6.81137e-05 -0.000200025 -2.77111e-08
-2.79721e-06 -2.77111e-08 -0.000294718
0.00132394 8.02714e-05 2.03231e-07
8.02714e-05 0.000149197 9.07411e-08
2.03231e-07 9.07411e-08 5.88234e-05
0.00056463 5.55333e-05 -1.29545e-06
5.55333e-05 -0.000146981 7.4426e-07
-1.29545e-06 7.4426e-07 -0.000231671
0.00170648 8.79402e-05 -3.46425e-06
8.79402e-05 0.000149825 -4.02891e-06
-3.46425e-06 -4.02891e-06 4.69086e-05
0.00127364 7.83318e-05 2.20814e-07
7.83318e-05 0.000192842 -1.83636e-07
2.20814e-07 -1.83636e-07 0.000113332
0.00141818 9.35243e-05 -3.22413e-08
9.35243e-05 0.000129276 3.06983e-07
-3.22413e-08 3.06983e-07 3.47055e-05
0.00159705 3.72378e-05 -1.52896e-06
3.72378e-05 -2.35317e-06 2.9901e-06
-1.52896e-06 2.9901e-06 -9.26055e-05
0.00143355 0.000103916 1.72177e-06
0.000103916 0.000140189 3.05481e-06
1.72177e-06 3.05481e-06 3.85247e-05
0.00153606 9.51754e-05 -9.53147e-07
9.51754e-05 2.88992e-05 -7.71203e-07
-9.53147e-07 -7.71203e-07 -8.19729e-05
0.00188354 3.1322e-05 -2.70343e-07
3.1322e-05 6.70924e-05 1.49396e-06
-2.70343e-07 1.49396e-06 -1.31278e-05
0.00173372 0.000102685 3.3304e-06
0.000102685 7.87103e-05 2.10169e-06
3.3304e-06 2.10169e-06 -3.42112e-05
0.00157973 -4.47804e-06 -6.78647e-06
-4.47804e-06 -2.09187e-05 -6.43748e-06
-6.78647e-06 -6.43748e-06 -4.34075e-05
0.00170242 6.88143e-07 -1.77447e-06
6.88143e-07 0.000138966 -1.32883e-06
-1.77447e-06 -1.32883e-06 7.68156e-05
0.00156129 1.1256e-05 8.61571e-07
1.1256e-05 6.16984e-05 3.1977e-07
8.61571e-07 3.1977e-07 -6.6878e-07
0.000538406 -1.20263e-05 4.88889e-07
-1.20263e-05 -0.000319761 2.61072e-06
4.88889e-07 2.61072e-06 -0.000393442
0.00188733 5.14693e-05 1.1917e-06
5.14693e-05 5.7202e-05 -4.94043e-07
1.1917e-06 -4.94043e-07 -1.09228e-05
0.00216847 6.12138e-05 1.42325e-05
6.12138e-05 0.000300618 4.3952e-06
1.42325e-05 4.3952e-06 0.000215694
0.00186436 4.34222e-05 -3.00776e-06
4.34222e-05 0.000158384 -3.98929e-07
-3.00776e-06 -3.98929e-07 7.55979e-05
0.0015812 3.67957e-05 8.81591e-07
3.67957e-05 6.47531e-05 1.8118e-06
8.81591e-07 1.8118e-06 -7.32093e-06
0.00164476 3.57232e-05 -2.45024e-06
3.57232e-05 9.91636e-05 -1.78638e-06
-2.45024e-06 -1.78638e-06 2.08194e-05
0.00171623 4.15258e-06 -1.70256e-06
4.15258e-06 8.01955e-05 -1.71109e-06
-1.70256e-06 -1.71109e-06 1.37249e-05
0.00171567 1.6389e-05 -1.3248e-08
1.6389e-05 0.000108996 -2.22315e-07
-1.3248e-08 -2.22315e-07 2.81853e-05
0.00161394 2.07465e-05 -1.84963e-06
2.07465e-05 7.49937e-05 -7.31881e-07
-1.84963e-06 -7.31881e-07 -9.6844e-06
0.00161315 -2.45076e-05 -5.29849e-07
-2.45076e-05 7.10769e-05 -2.15143e-06
-5.29849e-07 -2.15143e-06 3.94334e-06
0.00154018 -1.85844e-05 2.31418e-07
-1.85844e-05 5.08522e-05 4.3747e-07
2.31418e-07 4.3747e-07 -2.90038e-05
0.00153027 -1.90694e-05 -1.11683e-06
-1.90694e-05 6.43141e-05 7.17737e-07
-1.11683e-06 7.17737e-07 -2.03971e-05
0.00150324 -4.68084e-05 -7.86808e-08
-4.68084e-05 6.59384e-05 -2.02003e-06
-7.86808e-08 -2.02003e-06 -7.09995e-06
0.00146223 -4.81592e-05 2.02943e-07
-4.81592e-05 6.54606e-05 6.567e-08
2.02943e-07 6.567e-08 -1.53932e-05
0.00140962 -4.97952e-05 -1.07868e-06
-4.97952e-05 6.53489e-05 9.1783e-07
-1.07868e-06 9.1783e-07 -1.78713e-05
0.00138733 -5.74203e-05 -3.2448e-07
-5.74203e-05 6.64787e-05 -1.20367e-06
-3.2448e-07 -1.20367e-06 -9.79566e-06
0.00134744 -5.67496e-05 1.05785e-08
-5.67496e-05 6.86892e-05 -2.57832e-07
1.05785e-08 -2.57832e-07 -1.12824e-05
0.00125078 -5.16552e-05 -1.91413e-06
-5.16552e-05 5.34155e-05 6.86314e-07
-1.91413e-06 6.86314e-07 -2.46031e-05
0.00113538 -5.53137e-05 6.20131e-07
-5.53137e-05 -1.15952e-05 -2.59726e-07
6.20131e-07 -2.59726e-07 -8.98113e-05
0.00119856 -5.33644e-05 -1.52608e-08
-5.33644e-05 5.34281e-05 -4.94434e-08
-1.52608e-08 -4.94434e-08 -2.28034e-05
0.0010252 -3.90403e-05 -3.54133e-06
-3.90403e-05 1.66239e-05 1.46251e-06
-3.54133e-06 1.46251e-06 -4.90848e-05
0.00089561 -5.09186e-05 1.78657e-06
-5.09186e-05 -7.01901e-05 -6.80408e-07
1.78657e-06 -6.80408e-07 -0.000147495
0.000976231 -3.96375e-05 7.43409e-08
-3.96375e-05 1.86264e-05 4.1055e-08
7.43409e-08 4.1055e-08 -4.67289e-05
0.0016625 9.40228e-06 -6.82372e-06
9.40228e-06 0.000444347 2.0948e-06
-6.82372e-06 2.0948e-06 0.000409655
0.00112843 3.5294e-05 -2.97045e-05
3.5294e-05 0.000191576 6.12873e-06
-2.97045e-05 6.12873e-06 0.00017884
0.00122592 9.83279e-06 -1.21377e-06
9.83279e-06 0.00021926 -1.58891e-08
-1.21377e-06 -1.58891e-08 0.000185528
0.000959977 -3.79971e-05 3.06636e-06
-3.79971e-05 3.67899e-05 -1.49291e-06
3.06636e-06 -1.49291e-06 -2.79737e-05
0.00288454 6.45762e-05 4.13094e-07
6.45762e-05 0.00108222 1.24277e-07
4.13094e-07 1.24277e-07 0.00108395
0.00080497 1.42497e-05 5.5073e-06
1.42497e-05 8.94231e-07 -3.46015e-06
5.5073e-06 -3.46015e-06 -3.07983e-05
0.00274514 5.88963e-05 2.88799e-05
5.88963e-05 0.00100046 -3.42466e-06
2.88799e-05 -3.42466e-06 0.00100542
0.00118204 7.21975e-05 -1.12197e-06
7.21975e-05 -2.50198e-05 1.94866e-08
-1.12197e-06 1.94866e-08 -0.000111794
0.000818803 6.58843e-05 7.22361e-07
6.58843e-05 -0.000102563 3.25314e-07
7.22361e-07 3.25314e-07 -0.000193951
0.000846939 6.46996e-05 -1.27465e-07
6.46996e-05 -5.47247e-05 -8.24259e-08
-1.27465e-07 -8.24259e-08 -0.000144053
0.00112349 6.10437e-05 -1.51588e-06
6.10437e-05 9.72916e-05 -6.61498e-07
-1.51588e-06 -6.61498e-07 1.91572e-05
0.000673556 5.48472e-05 2.9898e-07
5.48472e-05 -0.000108516 5.17147e-07
2.9898e-07 5.17147e-07 -0.000192723
0.00103577 5.21296e-05 -1.62684e-07
5.21296e-05 7.38828e-05 -4.61264e-08
-1.62684e-07 -4.61264e-08 -1.42892e-06
0.000937553 1.93911e-05 -2.76933e-06
1.93911e-05 5.05155e-05 -1.09543e-06
-2.76933e-06 -1.09543e-06 -1.15311e-05
0.000953633 4.1409e-05 1.21377e-06
4.1409e-05 4.65809e-05 3.06379e-07
1.21377e-06 3.06379e-07 -2.60757e-05
0.000870835 5.55088e-06 9.13322e-08
5.55088e-06 1.94709e-05 1.20238e-07
9.13322e-08 1.20238e-07 -4.06815e-05
0.000772591 -3.56185e-05 -4.22007e-06
-3.56185e-05 -1.42384e-05 -3.32793e-06
-4.22007e-06 -3.32793e-06 -4.20623e-05
0.000874091 -6.33506e-06 2.36696e-06
-6.33506e-06 1.74745e-05 1.66274e-06
2.36696e-06 1.66274e-06 -3.93234e-05
0.000728507 -4.04056e-05 -3.55023e-09
-4.04056e-05 -4.50758e-05 -3.47332e-08
-3.55023e-09 -3.47332e-08 -6.84014e-05
0.00264371 -5.48072e-05 -2.66412e-05
-5.48072e-05 0.000939011 -3.41295e-06
-2.66412e-05 -3.41295e-06 0.000946853
0.000733529 -3.4418e-05 3.95546e-06
-3.4418e-05 -5.44356e-05 3.69513e-06
3.95546e-06 3.69513e-06 -7.2789e-05
0.00259973 -5.01238e-05 -2.76881e-07
-5.01238e-05 0.000905881 8.28643e-08
-2.76881e-07 8.28643e-08 0.000916538
0.00253289 -4.51949e-05 2.33143e-05
-4.51949e-05 0.00086299 3.60813e-06
2.33143e-05 3.60813e-06 0.000876097
0.00159207 -2.03491e-05 4.16388e-07
-2.03491e-05 3.00552e-05 2.34973e-06
4.16388e-07 2.34973e-06 -3.9955e-05
0.0017656 -2.52894e-05 1.13171e-06
-2.52894e-05 7.15684e-05 -1.67665e-06
1.13171e-06 -1.67665e-06 1.66924e-05
0.00143755 -5.73149e-05 1.5535e-06
-5.73149e-05 1.4753e-06 -2.75448e-06
1.5535e-06 -2.75448e-06 -3.89462e-05
0.00152738 7.89207e-05 -4.79433e-06
7.89207e-05 8.3848e-05 -2.68233e-06
-4.79433e-06 -2.68233e-06 -1.16148e-05
0.00154446 8.49985e-05 -1.26188e-07
8.49985e-05 0.000222378 4.13753e-07
-1.26188e-07 4.13753e-07 0.000136739
0.000803845 6.39746e-05 -4.23361e-06
6.39746e-05 -3.27712e-05 4.06858e-07
-4.23361e-06 4.06858e-07 -0.000105954
0.00133897 8.12471e-05 1.08529e-06
8.12471e-05 8.37302e-05 1.06642e-06
1.08529e-06 1.06642e-06 -9.24986e-06
0.00133322 8.05236e-05 -1.59229e-06
8.05236e-05 0.000152758 7.08432e-07
-1.59229e-06 7.08432e-07 6.17713e-05
0.00174205 3.61066e-05 -1.24365e-06
3.61066e-05 8.89843e-05 1.49463e-06
-1.24365e-06 1.49463e-06 -8.77145e-06
0.00163817 8.81575e-05 -1.78303e-06
8.81575e-05 0.000113814 -1.58514e-06
-1.78303e-06 -1.58514e-06 8.92877e-06
0.00141286 9.23075e-05 2.03099e-06
9.23075e-05 0.000121384 4.47338e-06
2.03099e-06 4.47338e-06 2.67644e-05
0.00173185 3.65072e-05 -3.57326e-07
3.65072e-05 6.39311e-05 8.11382e-07
-3.57326e-07 8.11382e-07 -2.70767e-05
0.00191668 0.000104281 3.44713e-06
0.000104281 0.000207807 1.26439e-06
3.44713e-06 1.26439e-06 9.61362e-05
0.00165028 2.8201e-05 2.34708e-06
2.8201e-05 -3.75636e-05 -1.59948e-06
2.34708e-06 -1.59948e-06 -0.000119968
0.00144687 1.27786e-06 -1.17488e-06
1.27786e-06 1.53222e-05 1.23444e-07
-1.17488e-06 1.23444e-07 -5.72842e-05
0.00159388 2.1013e-06 -2.71174e-07
2.1013e-06 8.10694e-05 -5.87792e-07
-2.71174e-07 -5.87792e-07 1.80119e-05
0.00100562 6.64593e-06 5.25261e-06
6.64593e-06 -0.000225819 5.33931e-06
5.25261e-06 5.33931e-06 -0.000287759
0.00205435 4.64077e-05 3.71417e-06
4.64077e-05 0.000240962 -7.51386e-07
3.71417e-06 -7.51386e-07 0.000158162
0.00169499 3.67011e-05 6.86248e-06
3.67011e-05 0.000125442 5.20317e-06
6.86248e-06 5.20317e-06 5.38841e-05
0.00168404 3.5957e-05 -1.12913e-06
3.5957e-05 0.000118544 -3.9224e-07
-1.12913e-06 -3.9224e-07 4.05841e-05
0.00158323 3.04964e-05 -5.98542e-07
3.04964e-05 8.37147e-05 -7.60074e-07
-5.98542e-07 -7.60074e-07 2.43531e-07
0.00174612 1.54931e-05 1.17174e-06
1.54931e-05 0.000122149 -4.67682e-07
1.17174e-06 -4.67682e-07 4.20786e-05
0.00162766 1.87482e-05 -5.16748e-07
1.87482e-05 8.01499e-05 -8.5615e-08
-5.16748e-07 -8.5615e-08 -4.39835e-06
0.00155342 1.19091e-05 -2.23621e-06
1.19091e-05 6.22984e-05 -9.82217e-07
-2.23621e-06 -9.82217e-07 -2.33307e-05
0.00159541 -1.89748e-05 6.95622e-07
-1.89748e-05 7.82297e-05 -4.21575e-07
6.95622e-07 -4.21575e-07 -2.01245e-06
0.00153733 -1.94508e-05 6.99704e-08
-1.94508e-05 6.73108e-05 3.91064e-07
6.99704e-08 3.91064e-07 -1.75082e-05
0.00148511 -2.66871e-05 -1.80195e-06
-2.66871e-05 6.91583e-05 3.87593e-07
-1.80195e-06 3.87593e-07 -1.60396e-05
0.00147933 -4.71753e-05 7.55735e-07
-4.71753e-05 7.30176e-05 -1.17259e-06
7.55735e-07 -1.17259e-06 -7.87174e-06
0.00141731 -4.9387e-05 1.1107e-07
-4.9387e-05 6.84512e-05 1.26227e-07
1.1107e-07 1.26227e-07 -1.48026e-05
0.00131449 -4.6404e-05 -2.24807e-06
-4.6404e-05 5.42565e-05 9.26293e-07
-2.24807e-06 9.26293e-07 -2.64121e-05
0.00134764 -5.63474e-05 7.10882e-07
-5.63474e-05 6.83298e-05 -9.14836e-07
7.10882e-07 -9.14836e-07 -1.15906e-05
0.00125398 -5.12952e-05 2.40715e-09
-5.12952e-05 5.45725e-05 -1.29913e-07
2.40715e-09 -1.29913e-07 -2.33895e-05
0.00107218 -3.82397e-05 -3.91333e-06
-3.82397e-05 1.67196e-05 1.65113e-06
-3.91333e-06 1.65113e-06 -5.08102e-05
0.00118532 -5.26416e-05 1.75319e-06
-5.26416e-05 4.6986e-05 -6.27062e-07
1.75319e-06 -6.27062e-07 -2.91344e-05
0.0010194 -3.88555e-05 1.12563e-07
-3.88555e-05 1.41291e-05 -4.8513e-08
1.12563e-07 -4.8513e-08 -5.16676e-05
0.00171889 3.45692e-06 -7.05624e-06
3.45692e-06 0.000467039 2.19084e-06
-7.05624e-06 2.19084e-06 0.000430216
0.000981365 -4.0279e-05 3.27383e-06
-4.0279e-05 2.19118e-05 -1.33783e-06
3.27383e-06 -1.33783e-06 -4.35631e-05
0.00175199 5.01446e-06 6.90823e-06
5.01446e-06 0.000484726 -9.35104e-07
6.90823e-06 -9.35104e-07 0.000450166
0.00120343 3.2054e-05 -3.54567e-05
3.2054e-05 0.00024463 5.96292e-06
-3.54567e-05 5.96292e-06 0.000227077
0.00208226 5.09767e-05 -2.35367e-05
5.09767e-05 0.000683085 1.66827e-06
-2.35367e-05 1.66827e-06 0.000675629
0.00178573 1.07215e-05 1.76941e-05
1.07215e-05 0.000500946 -2.8294e-06
1.76941e-05 -2.8294e-06 0.000470497
0.002895 6.31916e-05 3.1849e-05
6.31916e-05 0.00108975 -3.35286e-06
3.1849e-05 -3.35286e-06 0.00109091
0.00151956 7.23351e-05 -3.36525e-06
7.23351e-05 7.5726e-05 -2.07781e-06
-3.36525e-06 -2.07781e-06 -1.55392e-05
0.00142399 7.76452e-05 1.78346e-06
7.76452e-05 0.00014766 7.02264e-08
1.78346e-06 7.02264e-08 6.1005e-05
0.00117959 7.23752e-05 1.12325e-06
7.23752e-05 -1.56045e-05 6.98351e-07
1.12325e-06 6.98351e-07 -9.73428e-05
0.00113489 6.58475e-05 -1.54764e-06
6.58475e-05 7.87861e-05 -9.82394e-07
-1.54764e-06 -9.82394e-07 -3.42066e-06
0.00112721 7.488e-05 -3.99823e-07
7.488e-05 4.5721e-05 2.09197e-07
-3.99823e-07 2.09197e-07 -4.58461e-05
0.000999017 6.95841e-05 4.01527e-07
6.95841e-05 1.51761e-05 6.76423e-07
4.01527e-07 6.76423e-07 -7.48934e-05
0.00108382 5.9723e-05 -8.27386e-08
5.9723e-05 8.00909e-05 -1.20257e-07
-8.27386e-08 -1.20257e-07 1.8259e-06
0.000964711 3.18304e-05 -2.6834e-06
3.18304e-05 5.50254e-05 -1.12912e-06
-2.6834e-06 -1.12912e-06 -9.08067e-06
0.000967371 4.9066e-05 1.0362e-06
4.9066e-05 4.07114e-05 2.7168e-07
1.0362e-06 2.7168e-07 -3.42709e-05
0.000884615 1.56794e-05 -8.01746e-08
1.56794e-05 2.45858e-05 9.00953e-08
-8.01746e-08 9.00953e-08 -3.74202e-05
0.000783616 -2.70014e-05 -5.00687e-06
-2.70014e-05 -2.7923e-06 -3.0957e-06
-5.00687e-06 -3.0957e-06 -3.52793e-05
0.000834278 2.49489e-06 2.30902e-06
2.49489e-06 2.84024e-06 1.41189e-06
2.30902e-06 1.41189e-06 -5.74787e-05
0.000715491 -4.36042e-05 -3.0521e-08
-4.36042e-05 -4.15044e-05 -3.75282e-08
-3.0521e-08 -3.75282e-08 -6.9881e-05
0.00270258 -5.93897e-05 -2.81987e-05
-5.93897e-05 0.000981363 -3.30731e-06
-2.81987e-05 -3.30731e-06 0.000986065
0.00068753 -3.90895e-05 3.75476e-06
-3.90895e-05 -6.65602e-05 3.65709e-06
3.75476e-06 3.65709e-06 -8.9514e-05
0.00266965 -5.52125e-05 -2.73444e-07
-5.52125e-05 0.000950415 9.08684e-08
-2.73444e-07 9.08684e-08 0.000958596
0.00261331 -5.02099e-05 2.47694e-05
-5.02099e-05 0.000911445 3.48394e-06
2.47694e-05 3.48394e-06 0.000922389
0.00162607 -1.54405e-05 -1.38636e-06
-1.54405e-05 5.3074e-05 2.51536e-06
-1.38636e-06 2.51536e-06 -2.91534e-05
0.00164922 -1.93998e-05 4.30925e-07
-1.93998e-05 5.69608e-05 -4.50995e-07
4.30925e-07 -4.50995e-07 -1.31885e-05
0.0020404 -2.54319e-05 -3.8244e-07
-2.54319e-05 0.000228791 -5.11653e-06
-3.8244e-07 -5.11653e-06 0.000172733
0.00150779 3.84786e-05 -1.79808e-06
3.84786e-05 -2.75795e-06 6.84635e-07
-1.79808e-06 6.84635e-07 -9.75587e-05
0.00157594 8.02648e-05 2.72944e-07
8.02648e-05 0.0001093 -6.56605e-07
2.72944e-07 -6.56605e-07 1.35674e-05
0.00133665 7.96435e-05 -1.31599e-06
7.96435e-05 0.000135485 1.86105e-06
-1.31599e-06 1.86105e-06 5.25624e-05
0.00185256 9.28457e-05 1.95725e-06
9.28457e-05 0.000332967 8.08953e-07
1.95725e-06 8.08953e-07 0.000241819
0.00185439 3.82424e-05 -3.56968e-07
3.82424e-05 0.000143929 -1.77486e-07
-3.56968e-07 -1.77486e-07 4.64811e-05
0.00161205 8.89223e-05 2.46753e-06
8.89223e-05 9.76597e-05 1.35397e-06
2.46753e-06 1.35397e-06 -9.03344e-06
0.00184866 3.50408e-05 2.0311e-06
3.50408e-05 0.000121653 -9.60773e-07
2.0311e-06 -9.60773e-07 2.98862e-05
0.00156082 9.64939e-07 6.00284e-07
9.64939e-07 6.75841e-05 6.07372e-07
6.00284e-07 6.07372e-07 -1.31465e-05
0.00148292 2.62925e-06 2.02961e-08
2.62925e-06 2.89489e-05 -2.98789e-07
2.02961e-08 -2.98789e-07 -4.53354e-05
0.0015039 4.41233e-06 1.16468e-06
4.41233e-06 3.34954e-05 9.49168e-07
1.16468e-06 9.49168e-07 -3.06346e-05
0.00158775 3.04969e-05 -2.67047e-07
3.04969e-05 9.3102e-05 2.45986e-08
-2.67047e-07 2.45986e-08 5.42685e-06
0.00171983 3.61319e-05 2.11097e-06
3.61319e-05 0.00013668 1.23474e-06
2.11097e-06 1.23474e-06 5.90441e-05
0.00158701 3.08294e-05 2.18873e-07
3.08294e-05 8.50899e-05 2.33711e-07
2.18873e-07 2.33711e-07 1.35678e-06
0.00159308 2.66904e-05 -4.94765e-07
2.66904e-05 9.41992e-05 -5.04401e-07
-4.94765e-07 -5.04401e-07 8.41543e-06
0.00166136 1.69967e-05 1.14671e-06
1.69967e-05 9.50273e-05 5.71566e-07
1.14671e-06 5.71566e-07 1.06155e-05
0.00156622 1.18232e-05 -6.78912e-07
1.18232e-05 6.89447e-05 -8.96019e-08
-6.78912e-07 -8.96019e-08 -1.66681e-05
0.00152062 5.42275e-06 -2.72215e-06
5.42275e-06 7.28005e-05 -4.46234e-07
-2.72215e-06 -4.46234e-07 -1.31797e-05
0.00154541 -1.91862e-05 1.85601e-06
-1.91862e-05 7.07985e-05 4.26366e-08
1.85601e-06 4.26366e-08 -1.41239e-05
0.00147902 -2.5254e-05 5.00692e-08
-2.5254e-05 6.63248e-05 1.81207e-07
5.00692e-08 1.81207e-07 -1.89688e-05
0.00138352 -3.21881e-05 -2.83093e-06
-3.21881e-05 5.92887e-05 5.27329e-07
-2.83093e-06 5.27329e-07 -2.26899e-05
0.00142651 -4.89442e-05 1.5424e-06
-4.89442e-05 7.22813e-05 -6.7458e-07
1.5424e-06 -6.7458e-07 -1.10016e-05
0.00131832 -4.60557e-05 5.8982e-08
-4.60557e-05 5.57372e-05 1.24812e-07
5.8982e-08 1.24812e-07 -2.49348e-05
0.00112788 -3.53053e-05 -4.56449e-06
-3.53053e-05 2.01432e-05 1.85295e-06
-4.56449e-06 1.85295e-06 -4.98429e-05
0.00125676 -5.08728e-05 1.94625e-06
-5.08728e-05 5.55431e-05 -9.22553e-07
1.94625e-06 -9.22553e-07 -2.23606e-05
0.00107091 -3.77201e-05 2.0242e-07
-3.77201e-05 1.54877e-05 -9.23105e-08
2.0242e-07 -9.23105e-08 -5.20953e-05
0.00177308 1.29892e-06 -6.97287e-06
1.29892e-06 0.00048628 2.32334e-06
-6.97287e-06 2.32334e-06 0.000448494
0.00101731 -3.87103e-05 3.48651e-06
-3.87103e-05 1.35262e-05 -1.39906e-06
3.48651e-06 -1.39906e-06 -5.23661e-05
0.00182185 -1.68356e-06 8.09989e-06
-1.68356e-06 0.000514106 -8.16276e-07
8.09989e-06 -8.16276e-07 0.000477636
0.00124655 2.67305e-05 -4.00727e-05
2.67305e-05 0.00027582 5.51035e-06
-4.00727e-05 5.51035e-06 0.000255828
0.00184391 -5.00683e-08 2.18845e-05
-5.00683e-08 0.000526202 -4.21498e-06
2.18845e-05 -4.21498e-06 0.0004919
0.00119365 3.8471e-05 -1.46503e-05
3.8471e-05 0.000243041 2.07133e-06
-1.46503e-05 2.07133e-06 0.000224724
0.00297886 7.68556e-05 1.21205e-05
7.68556e-05 0.0011472 -1.3283e-06
1.21205e-05 -1.3283e-06 0.0011438
0.00180158 4.89949e-05 -2.13023e-06
4.89949e-05 0.000177094 -7.45845e-07
-2.13023e-06 -7.45845e-07 8.24074e-05
0.0015373 7.08834e-05 -1.18914e-06
7.08834e-05 0.000124305 -1.8869e-06
-1.18914e-06 -1.8869e-06 3.60209e-05
0.00158177 7.47366e-05 -1.63755e-06
7.47366e-05 0.000116014 1.19267e-06
-1.63755e-06 1.19267e-06 2.55758e-05
0.00147775 7.34059e-05 -1.07699e-06
7.34059e-05 0.000208098 -2.05637e-07
-1.07699e-06 -2.05637e-07 0.000125939
0.0012784 7.53093e-05 4.32991e-07
7.53093e-05 7.39699e-05 -9.60571e-07
4.32991e-07 -9.60571e-07 -1.24362e-05
0.00125886 7.41489e-05 3.03566e-06
7.41489e-05 3.44493e-05 1.33048e-06
3.03566e-06 1.33048e-06 -4.24266e-05
0.000999373 4.45266e-05 -2.95844e-06
4.45266e-05 5.15217e-05 -1.54098e-06
-2.95844e-06 -1.54098e-06 -1.65748e-05
0.00112774 6.58451e-05 -7.65024e-08
6.58451e-05 7.52084e-05 -8.9622e-08
-7.65024e-08 -8.9622e-08 -7.07466e-06
0.00140837 8.29919e-05 1.64631e-06
8.29919e-05 0.000181389 1.02564e-06
1.64631e-06 1.02564e-06 8.95787e-05
0.00102698 5.7826e-05 1.19321e-06
5.7826e-05 5.43718e-05 3.34157e-07
1.19321e-06 3.34157e-07 -2.3985e-05
0.000918109 3.02764e-05 -6.39894e-08
3.02764e-05 3.2486e-05 -7.93489e-08
-6.39894e-08 -7.93489e-08 -3.14945e-05
0.000797317 -3.25219e-06 -5.72659e-06
-3.25219e-06 5.57236e-06 -3.17458e-06
-5.72659e-06 -3.17458e-06 -3.08709e-05
0.000820999 1.22534e-05 2.22383e-06
1.22534e-05 -6.89484e-06 1.0583e-06
2.22383e-06 1.0583e-06 -6.87896e-05
0.000721936 -2.52026e-05 -1.20303e-07
-2.52026e-05 -3.18667e-05 -4.03206e-08
-1.20303e-07 -4.03206e-08 -6.4131e-05
0.00279845 -6.38155e-05 -3.0566e-05
-6.38155e-05 0.00104601 -3.1424e-06
-3.0566e-05 -3.1424e-06 0.00104689
0.000652158 -4.21412e-05 3.47433e-06
-4.21412e-05 -7.30167e-05 3.59053e-06
3.47433e-06 3.59053e-06 -0.000101172
0.00272456 -6.0027e-05 -3.51146e-07
-6.0027e-05 0.000989883 1.00901e-07
-3.51146e-07 1.00901e-07 0.000995095
0.00269287 -5.54857e-05 2.59768e-05
-5.54857e-05 0.000960444 3.33987e-06
2.59768e-05 3.33987e-06 0.000968983
0.00166682 -4.10067e-06 -1.08185e-06
-4.10067e-06 7.68285e-05 9.47417e-07
-1.08185e-06 9.47417e-07 -7.80082e-06
0.001701 -1.44916e-05 -1.50289e-07
-1.44916e-05 8.28258e-05 6.27225e-07
-1.50289e-07 6.27225e-07 -4.24223e-07
0.00167918 -1.86834e-05 9.28372e-07
-1.86834e-05 7.02658e-05 -3.24601e-06
9.28372e-07 -3.24601e-06 2.71859e-08
0.00163113 3.97162e-05 6.17925e-07
3.97162e-05 5.26161e-05 -6.42209e-08
6.17925e-07 -6.42209e-08 -4.16387e-05
0.00164843 8.22408e-05 1.98487e-06
8.22408e-05 0.000147041 8.39729e-07
1.98487e-06 8.39729e-07 5.09289e-05
0.00190557 3.95501e-05 1.83355e-06
3.95501e-05 0.000169512 -1.1735e-06
1.83355e-06 -1.1735e-06 7.23189e-05
0.00157999 2.64152e-06 -6.11197e-07
2.64152e-06 7.49245e-05 6.65583e-07
-6.11197e-07 6.65583e-07 -1.20897e-05
0.00154614 3.95515e-06 5.59098e-07
3.95515e-06 6.23578e-05 -2.9559e-07
5.59098e-07 -2.9559e-07 -1.88208e-05
0.00155187 4.0699e-06 9.02176e-07
4.0699e-06 5.84334e-05 -2.60666e-07
9.02176e-07 -2.60666e-07 -1.75076e-05
0.00156639 2.19585e-05 -6.87779e-07
2.19585e-05 8.27329e-05 -2.09342e-07
-6.87779e-07 -2.09342e-07 -4.3283e-06
0.00161453 1.9701e-05 8.0443e-08
1.9701e-05 0.000113451 2.66964e-07
8.0443e-08 2.66964e-07 2.3631e-05
0.00158564 3.12055e-05 1.11382e-06
3.12055e-05 8.39021e-05 6.07229e-07
1.11382e-06 6.07229e-07 -8.7433e-08
0.00159591 2.65666e-05 4.13973e-07
2.65666e-05 9.63107e-05 1.71562e-07
4.13973e-07 1.71562e-07 1.05155e-05
0.00155349 2.1616e-05 -6.51019e-07
2.1616e-05 9.18008e-05 -2.84734e-07
-6.51019e-07 -2.84734e-07 5.28203e-06
0.00157918 1.10853e-05 1.34839e-06
1.10853e-05 7.56753e-05 7.61934e-07
1.34839e-06 7.61934e-07 -9.92213e-06
0.00150953 4.29376e-06 -6.91418e-07
4.29376e-06 6.77145e-05 7.95993e-08
-6.91418e-07 7.95993e-08 -1.82373e-05
0.00141884 -3.4325e-06 -3.7277e-06
-3.4325e-06 6.21535e-05 2.04951e-07
-3.7277e-06 2.04951e-07 -2.06681e-05
0.00147542 -2.53556e-05 1.88654e-06
-2.53556e-05 6.46031e-05 -1.83765e-08
1.88654e-06 -1.83765e-08 -2.07776e-05
0.0013771 -3.13904e-05 9.00683e-08
-3.13904e-05 5.61184e-05 1.09445e-07
9.00683e-08 1.09445e-07 -2.5916e-05
0.00116078 -2.49658e-05 -5.22801e-06
-2.49658e-05 1.44209e-05 1.51427e-06
-5.22801e-06 1.51427e-06 -5.65126e-05
0.00132238 -4.56522e-05 2.51232e-06
-4.56522e-05 5.73446e-05 -6.66081e-07
2.51232e-06 -6.66081e-07 -2.33307e-05
0.00112572 -3.44313e-05 2.29774e-07
-3.44313e-05 1.80036e-05 8.67359e-08
2.29774e-07 8.67359e-08 -5.1985e-05
0.00189037 5.16853e-06 -7.10927e-06
5.16853e-06 0.00053269 2.33125e-06
-7.10927e-06 2.33125e-06 0.000494741
0.0010714 -3.7266e-05 3.96087e-06
-3.7266e-05 1.52197e-05 -1.6713e-06
3.96087e-06 -1.6713e-06 -5.24319e-05
0.00189578 -5.48896e-06 9.29337e-06
-5.48896e-06 0.000543371 -7.0691e-07
9.29337e-06 -7.0691e-07 0.000506042
0.00129064 2.00538e-05 -4.40949e-05
2.00538e-05 0.000302146 4.99718e-06
-4.40949e-05 4.99718e-06 0.000281087
0.0019231 -8.26807e-06 2.43125e-05
-8.26807e-06 0.000560011 -4.11872e-06
2.43125e-05 -4.11872e-06 0.000524049
0.00124512 3.66972e-05 -1.68343e-05
3.66972e-05 0.000279424 1.80641e-06
-1.68343e-05 1.80641e-06 0.000258126
0.00118046 4.66894e-05 7.52318e-06
4.66894e-05 0.000239921 -1.76659e-06
7.52318e-06 -1.76659e-06 0.000220637
0.00158059 9.00412e-06 -1.38014e-06
9.00412e-06 4.6508e-05 1.08713e-06
-1.38014e-06 1.08713e-06 -3.90747e-05
0.00155414 5.09336e-05 -2.4922e-06
5.09336e-05 8.73784e-05 -3.93745e-07
-2.4922e-06 -3.93745e-07 -4.37829e-06
0.00169335 4.78146e-05 -1.20627e-06
4.78146e-05 0.000119944 -9.34207e-07
-1.20627e-06 -9.34207e-07 2.49274e-05
0.00145732 6.72405e-05 -2.27038e-06
6.72405e-05 0.000138253 -7.88094e-07
-2.27038e-06 -7.88094e-07 5.49465e-05
0.00160853 7.24802e-05 8.14395e-07
7.24802e-05 0.000164275 6.25804e-07
8.14395e-07 6.25804e-07 7.64749e-05
0.00159305 7.60368e-05 3.86085e-06
7.60368e-05 0.000131313 2.55557e-06
3.86085e-06 2.55557e-06 4.17803e-05
0.000967074 4.86434e-05 -3.57946e-06
4.86434e-05 -9.42553e-07 -1.41679e-06
-3.57946e-06 -1.41679e-06 -7.15724e-05
0.00117392 6.71638e-05 1.01905e-06
6.71638e-05 5.43003e-05 6.27752e-07
1.01905e-06 6.27752e-07 -2.89303e-05
0.00111597 7.26276e-05 1.37366e-06
7.26276e-05 -8.75247e-06 1.16117e-06
1.37366e-06 1.16117e-06 -9.47869e-05
0.000805496 1.5973e-05 -6.63543e-06
1.5973e-05 6.95142e-06 -3.69097e-06
-6.63543e-06 -3.69097e-06 -3.45041e-05
0.000958579 4.23399e-05 -1.74246e-07
4.23399e-05 3.09789e-05 -1.47435e-07
-1.74246e-07 -1.47435e-07 -3.68372e-05
0.00112924 6.61193e-05 1.60506e-06
6.61193e-05 7.59228e-05 8.63287e-07
1.60506e-06 8.63287e-07 -6.45445e-06
0.000866169 2.80221e-05 2.4174e-06
2.80221e-05 7.30046e-06 9.03512e-07
2.4174e-06 9.03512e-07 -5.65511e-05
0.000733751 -6.62694e-06 -3.81114e-08
-6.62694e-06 -2.13828e-05 -4.82132e-08
-3.81114e-08 -4.82132e-08 -5.82732e-05
0.00298257 -6.66929e-05 -3.5383e-05
-6.66929e-05 0.00115655 -2.98174e-06
-3.5383e-05 -2.98174e-06 0.00115335
0.000670653 -3.49499e-05 3.60702e-06
-3.49499e-05 -5.39835e-05 3.41137e-06
3.60702e-06 3.41137e-06 -8.70526e-05
0.0027969 -6.47932e-05 -4.57678e-07
-6.47932e-05 0.00104209 1.18451e-07
-4.57678e-07 1.18451e-07 0.00104359
0.00276032 -6.06558e-05 2.71696e-05
-6.06558e-05 0.00100526 3.21264e-06
2.71696e-05 3.21264e-06 0.00101097
0.00166771 -1.13682e-05 -9.88829e-07
-1.13682e-05 9.46528e-05 -4.13459e-07
-9.88829e-07 -4.13459e-07 9.10048e-06
0.00171511 -4.61324e-06 -3.26873e-07
-4.61324e-06 9.91403e-05 2.39026e-07
-3.26873e-07 2.39026e-07 1.41567e-05
0.00176667 -1.35661e-05 4.47451e-07
-1.35661e-05 0.000108202 -1.7246e-06
4.47451e-07 -1.7246e-06 2.39086e-05
0.00174591 4.0508e-05 2.01575e-06
4.0508e-05 0.000103315 -6.18369e-07
2.01575e-06 -6.18369e-07 9.68109e-06
0.00161745 -1.57921e-06 -6.30061e-07
-1.57921e-06 9.44509e-05 -3.286e-07
-6.30061e-07 -3.286e-07 4.09211e-06
0.00163768 2.60322e-06 -2.59113e-07
2.60322e-06 0.000103512 -1.81787e-07
-2.59113e-07 -1.81787e-07 1.68882e-05
0.00151958 6.72528e-06 2.03189e-07
6.72528e-06 5.12832e-05 -2.33173e-07
2.03189e-07 -2.33173e-07 -3.0342e-05
0.00156112 1.69792e-05 -9.95096e-07
1.69792e-05 8.03419e-05 -6.64886e-07
-9.95096e-07 -6.64886e-07 -6.22583e-06
0.00157239 2.44487e-05 3.08247e-08
2.44487e-05 9.13231e-05 -3.19927e-07
3.08247e-08 -3.19927e-07 1.38625e-06
0.00158936 2.10893e-05 -1.26576e-06
2.10893e-05 0.000112064 6.2644e-07
-1.26576e-06 6.2644e-07 2.31768e-05
0.00160375 2.64979e-05 1.47255e-06
2.64979e-05 0.000100899 8.48968e-07
1.47255e-06 8.48968e-07 1.50881e-05
0.00158066 2.22693e-05 4.98328e-07
2.22693e-05 0.000106856 6.83694e-08
4.98328e-07 6.83694e-08 2.0638e-05
0.00132762 1.8281e-05 -2.74058e-06
1.8281e-05 1.09933e-05 2.4114e-08
-2.74058e-06 2.4114e-08 -7.31459e-05
0.00149131 4.68926e-06 1.19238e-06
4.68926e-06 5.92711e-05 6.16006e-07
1.19238e-06 6.16006e-07 -2.66655e-05
0.00140279 -1.51386e-06 -3.74864e-07
-1.51386e-06 5.43078e-05 1.44137e-07
-3.74864e-07 1.44137e-07 -2.84488e-05
0.0011719 -5.31509e-06 -5.50217e-06
-5.31509e-06 7.03203e-06 1.0268e-06
-5.50217e-06 1.0268e-06 -6.41533e-05
0.00137004 -2.84055e-05 2.88365e-06
-2.84055e-05 5.26944e-05 -2.69773e-07
2.88365e-06 -2.69773e-07 -2.93557e-05
0.00116422 -2.6017e-05 1.18061e-07
-2.6017e-05 1.5425e-05 1.76929e-07
1.18061e-07 1.76929e-07 -5.55457e-05
0.000689039 -1.27992e-05 -8.31545e-06
-1.27992e-05 -9.6006e-05 3.12305e-06
-8.31545e-06 3.12305e-06 -0.000138513
0.00112464 -3.37405e-05 4.71692e-06
-3.37405e-05 1.64541e-05 -1.5912e-06
4.71692e-06 -1.5912e-06 -5.35537e-05
0.0013474 -1.77378e-05 1.11225e-05
-1.77378e-05 0.000250352 -3.53828e-07
1.11225e-05 -3.53828e-07 0.00021054
0.00388061 8.00599e-05 -4.6543e-05
8.00599e-05 0.00162842 2.04834e-06
-4.6543e-05 2.04834e-06 0.00161742
0.00201085 -1.36248e-05 2.67305e-05
-1.36248e-05 0.00059624 -4.00301e-06
2.67305e-05 -4.00301e-06 0.000559535
0.00129682 3.4948e-05 -1.89734e-05
3.4948e-05 0.000310411 1.53007e-06
-1.89734e-05 1.53007e-06 0.00028752
0.00124759 4.91692e-05 7.25864e-06
4.91692e-05 0.00028543 -1.83487e-06
7.25864e-06 -1.83487e-06 0.000262533
0.00167047 -2.93601e-06 -3.97014e-07
-2.93601e-06 0.00010171 3.056e-08
-3.97014e-07 3.056e-08 1.81935e-05
0.00140744 1.81821e-05 -1.6137e-06
1.81821e-05 6.35452e-07 8.43935e-07
-1.6137e-06 8.43935e-07 -8.65294e-05
0.00163202 8.88821e-06 6.07735e-08
8.88821e-06 7.54087e-05 -2.32703e-08
6.07735e-08 -2.32703e-08 -1.01004e-05
0.00110106 4.80411e-05 -3.18936e-06
4.80411e-05 -8.90034e-05 -9.3583e-07
-3.18936e-06 -9.3583e-07 -0.000175462
0.00156863 5.10386e-05 9.11893e-08
5.10386e-05 9.74773e-05 -6.96222e-08
9.11893e-08 -6.96222e-08 6.50582e-06
0.00158572 4.66899e-05 1.15661e-06
4.66899e-05 6.36274e-05 -8.27424e-07
1.15661e-06 -8.27424e-07 -3.17979e-05
0.00068143 4.10275e-05 -5.45911e-06
4.10275e-05 -0.00019019 -1.98337e-06
-5.45911e-06 -1.98337e-06 -0.000263493
0.00145583 6.79964e-05 6.06251e-07
6.79964e-05 0.000136925 -5.20474e-09
6.06251e-07 -5.20474e-09 5.3513e-05
0.00166887 7.40068e-05 2.66997e-06
7.40068e-05 0.00019967 1.69049e-06
2.66997e-06 1.69049e-06 0.000112236
0.000785077 3.16719e-05 -7.87187e-06
3.16719e-05 -1.52107e-05 -3.92281e-06
-7.87187e-06 -3.92281e-06 -6.01948e-05
0.000800577 4.45576e-05 -1.52395e-07
4.45576e-05 -8.7217e-05 8.27137e-08
-1.52395e-07 8.27137e-08 -0.000158726
0.000872096 6.09702e-05 2.93923e-06
6.09702e-05 -9.85285e-05 1.62705e-06
2.93923e-06 1.62705e-06 -0.00018283
0.00330914 -6.1573e-05 -4.35167e-05
-6.1573e-05 0.00133425 -3.08487e-06
-4.35167e-05 -3.08487e-06 0.00132768
0.000723193 1.23143e-05 -1.12816e-07
1.23143e-05 -2.89653e-05 -3.6948e-08
-1.12816e-07 -3.6948e-08 -7.06504e-05
0.000927233 4.03018e-05 2.65124e-06
4.03018e-05 1.5179e-05 1.35817e-06
2.65124e-06 1.35817e-06 -5.23755e-05
0.000666195 -8.81159e-06 4.98203e-06
-8.81159e-06 -5.03363e-05 3.31206e-06
4.98203e-06 3.31206e-06 -8.75413e-05
0.00294196 -7.00066e-05 -7.23721e-07
-7.00066e-05 0.00113325 1.52778e-07
-7.23721e-07 1.52778e-07 0.0011305
0.00280743 -6.53387e-05 2.83974e-05
-6.53387e-05 0.00104374 3.08941e-06
2.83974e-05 3.08941e-06 0.00104597
0.00162135 -1.23841e-05 -1.40809e-06
-1.23841e-05 8.45299e-05 -2.92826e-07
-1.40809e-06 -2.92826e-07 -2.16892e-06
0.00165766 -1.12993e-05 -4.13724e-07
-1.12993e-05 8.96121e-05 -2.17974e-07
-4.13724e-07 -2.17974e-07 4.28975e-06
0.0017639 -5.01654e-06 8.09846e-07
-5.01654e-06 0.00012189 -1.09659e-06
8.09846e-07 -1.09659e-06 3.65298e-05
0.00166637 1.24772e-05 -1.23079e-06
1.24772e-05 0.000125446 1.54044e-07
-1.23079e-06 1.54044e-07 3.34656e-05
0.00160935 2.14234e-06 -4.03096e-07
2.14234e-06 8.94808e-05 -3.30341e-07
-4.03096e-07 -3.30341e-07 -1.37956e-06
0.00169486 -2.89109e-07 -6.65454e-07
-2.89109e-07 0.000131675 -1.86981e-07
-6.65454e-07 -1.86981e-07 4.5547e-05
0.00151615 2.76383e-05 2.54726e-07
2.76383e-05 6.21918e-05 -1.07053e-06
2.54726e-07 -1.07053e-06 -2.77828e-05
0.00157873 2.32377e-05 3.75338e-07
2.32377e-05 0.000106224 6.85577e-08
3.75338e-07 6.85577e-08 1.74054e-05
0.00158694 1.74444e-05 -2.21724e-06
1.74444e-05 0.00013512 7.59498e-07
-2.21724e-06 7.59498e-07 5.08732e-05
0.00161233 2.29521e-05 2.07399e-06
2.29521e-05 0.000124066 5.78454e-07
2.07399e-06 5.78454e-07 3.8155e-05
0.00149592 2.07544e-05 4.51585e-08
2.07544e-05 9.80137e-05 6.28967e-08
4.51585e-08 6.28967e-08 1.50015e-05
0.000911214 1.27491e-05 -6.4247e-06
1.27491e-05 -0.000135827 1.05738e-06
-6.4247e-06 1.05738e-06 -0.000210072
0.00138218 -1.99812e-06 2.57365e-06
-1.99812e-06 4.42422e-05 1.17725e-07
2.57365e-06 1.17725e-07 -3.85071e-05
0.001171 -3.4594e-06 -2.79138e-08
-3.4594e-06 6.08638e-06 2.46967e-08
-2.79138e-08 2.46967e-08 -6.50122e-05
0.000707418 -3.58844e-06 -8.49536e-06
-3.58844e-06 -9.43514e-05 2.45779e-06
-8.49536e-06 2.45779e-06 -0.000136742
0.0011619 -2.52659e-05 5.44123e-06
-2.52659e-05 1.35915e-05 -1.19151e-06
5.44123e-06 -1.19151e-06 -5.73772e-05
0.00069999 -1.02962e-05 -8.38581e-08
-1.02962e-05 -9.03585e-05 1.48135e-07
-8.38581e-08 1.48135e-07 -0.000132974
0.00394427 7.29965e-05 -4.88234e-05
7.29965e-05 0.0016562 1.44323e-06
-4.88234e-05 1.44323e-06 0.00164626
0.000780964 -2.56042e-05 1.05929e-05
-2.56042e-05 -4.17069e-05 -4.37971e-06
1.05929e-05 -4.37971e-06 -8.52831e-05
0.00268185 6.7379e-05 1.80539e-05
6.7379e-05 0.00101606 9.2263e-07
1.80539e-05 9.2263e-07 0.000997908
0.00131371 5.20444e-05 6.64216e-06
5.20444e-05 0.000324732 -1.86801e-06
6.64216e-06 -1.86801e-06 0.000299682
0.00176931 -1.17426e-05 -7.52271e-07
-1.17426e-05 0.000165775 4.71064e-08
-7.52271e-07 4.71064e-08 8.17991e-05
0.00152659 2.63523e-06 -1.11747e-06
2.63523e-06 5.96285e-05 1.75447e-07
-1.11747e-06 1.75447e-07 -2.41969e-05
0.0015841 -3.23584e-06 8.5055e-08
-3.23584e-06 5.95972e-05 1.643e-07
8.5055e-08 1.643e-07 -2.36515e-05
0.00136513 2.65623e-05 -2.70071e-06
2.65623e-05 2.6918e-05 7.18432e-08
-2.70071e-06 7.18432e-08 -5.64533e-05
0.00146088 1.8038e-05 4.1294e-07
1.8038e-05 2.71488e-05 -1.34966e-07
4.1294e-07 -1.34966e-07 -5.9562e-05
0.00167717 8.69108e-06 1.35321e-06
8.69108e-06 0.000100945 -8.49562e-07
1.35321e-06 -8.49562e-07 1.55479e-05
0.000780989 3.59057e-05 -6.17191e-06
3.59057e-05 -0.000178857 -1.95017e-06
-6.17191e-06 -1.95017e-06 -0.000253088
0.00146605 5.45513e-05 -8.81618e-07
5.45513e-05 9.56775e-05 -2.55473e-07
-8.81618e-07 -2.55473e-07 1.05285e-05
0.00161793 5.16242e-05 2.81767e-06
5.16242e-05 0.000124098 -2.48531e-07
2.81767e-06 -2.48531e-07 3.39846e-05
0.000750808 3.79946e-05 -9.03811e-06
3.79946e-05 -4.84612e-05 -3.88312e-06
-9.03811e-06 -3.88312e-06 -9.42647e-05
0.000748687 4.2773e-05 -1.43268e-06
4.2773e-05 -0.000160594 -5.65903e-07
-1.43268e-06 -5.65903e-07 -0.000234305
0.00145851 6.88617e-05 3.33745e-06
6.88617e-05 0.000137703 9.70871e-07
3.33745e-06 9.70871e-07 5.41754e-05
0.00368364 -6.21242e-05 -4.84939e-05
-6.21242e-05 0.00152874 -3.00298e-06
-4.84939e-05 -3.00298e-06 0.00151941
0.000715445 2.77516e-05 -1.46385e-07
2.77516e-05 -4.57206e-05 1.47621e-07
-1.46385e-07 1.47621e-07 -9.08281e-05
0.000635795 4.05082e-05 3.43901e-06
4.05082e-05 -0.00017268 1.82171e-06
3.43901e-06 1.82171e-06 -0.000245065
0.00319014 -7.28238e-05 -1.78569e-06
-7.28238e-05 0.0012735 1.62551e-07
-1.78569e-06 1.62551e-07 0.00126689
0.000645889 9.1124e-06 5.59624e-06
9.1124e-06 -6.25706e-05 3.66221e-06
5.59624e-06 3.66221e-06 -0.000104464
0.00288095 -7.00431e-05 2.96538e-05
-7.00431e-05 0.00109931 2.95805e-06
2.96538e-05 2.95805e-06 0.00109738
0.00165473 1.09326e-06 -1.17285e-06
1.09326e-06 0.00011744 -3.87843e-07
-1.17285e-06 -3.87843e-07 2.90988e-05
0.00163669 -1.13959e-05 2.29353e-07
-1.13959e-05 9.29666e-05 3.33291e-07
2.29353e-07 3.33291e-07 6.25939e-06
0.00164104 -1.10658e-05 3.66931e-07
-1.10658e-05 8.13987e-05 -3.62654e-07
3.66931e-07 -3.62654e-07 -3.69913e-06
0.00162537 1.09194e-06 -2.81853e-06
1.09194e-06 0.000132318 1.92522e-07
-2.81853e-06 1.92522e-07 4.52102e-05
0.00165832 1.22407e-05 3.86951e-07
1.22407e-05 0.000123944 -3.93551e-08
3.86951e-07 -3.93551e-08 3.21119e-05
0.00160481 8.33273e-06 1.03509e-06
8.33273e-06 8.64713e-05 -4.22267e-07
1.03509e-06 -4.22267e-07 -5.02044e-06
0.00157471 2.41624e-05 1.5346e-06
2.41624e-05 0.000103655 -6.75282e-07
1.5346e-06 -6.75282e-07 1.49325e-05
0.0015828 1.783e-05 6.34612e-07
1.783e-05 0.000132819 -6.24712e-08
6.34612e-07 -6.24712e-08 4.86988e-05
0.000937934 1.01113e-05 -6.31291e-06
1.01113e-05 -0.000137 1.19905e-06
-6.31291e-06 1.19905e-06 -0.000213372
0.00167413 2.32377e-05 3.10291e-06
2.32377e-05 0.000189938 -5.19456e-08
3.10291e-06 -5.19456e-08 0.000108057
0.0010441 1.48068e-05 -1.0988e-06
1.48068e-05 -6.67713e-05 2.49851e-07
-1.0988e-06 2.49851e-07 -0.000139915
0.0007238 2.70409e-06 -8.9537e-06
2.70409e-06 -9.31223e-05 2.02652e-06
-8.9537e-06 2.02652e-06 -0.000137274
0.00117203 -3.67531e-06 5.39682e-06
-3.67531e-06 5.97998e-06 -1.04993e-06
5.39682e-06 -1.04993e-06 -6.50484e-05
0.00071016 3.72194e-06 1.9629e-07
3.72194e-06 -9.25923e-05 8.0468e-09
1.9629e-07 8.0468e-09 -0.000135295
0.00404667 7.09439e-05 -5.21697e-05
7.09439e-05 0.001704 8.56128e-07
-5.21697e-05 8.56128e-07 0.00169456
0.000704438 -5.80887e-06 8.24652e-06
-5.80887e-06 -8.81408e-05 -2.85927e-06
8.24652e-06 -2.85927e-06 -0.000130658
0.00399984 7.74751e-05 -5.83398e-07
7.74751e-05 0.00168418 1.40311e-07
-5.83398e-07 1.40311e-07 0.00167382
0.00153305 1.76076e-05 4.61944e-05
1.76076e-05 0.000424854 -2.51757e-06
4.61944e-05 -2.51757e-06 0.000403109
0.00171973 -6.04678e-06 -1.06595e-06
-6.04678e-06 0.000160196 -2.03839e-07
-1.06595e-06 -2.03839e-07 7.61749e-05
0.00164314 -1.19172e-05 4.57463e-07
-1.19172e-05 0.000103036 2.99185e-07
4.57463e-07 2.99185e-07 1.94436e-05
0.00140332 2.99918e-06 -2.45065e-06
2.99918e-06 3.679e-05 -2.62145e-07
-2.45065e-06 -2.62145e-07 -4.54536e-05
0.00154587 2.07083e-06 2.83924e-07
2.07083e-06 6.85709e-05 -1.46879e-07
2.83924e-07 -1.46879e-07 -1.5278e-05
0.00149597 -3.53644e-06 1.75721e-06
-3.53644e-06 1.66012e-05 -3.33324e-08
1.75721e-06 -3.33324e-08 -6.63755e-05
0.00117591 2.36096e-05 -5.60977e-06
2.36096e-05 2.0253e-06 -1.26113e-06
-5.60977e-06 -1.26113e-06 -7.01395e-05
0.00140784 2.69248e-05 -4.81176e-08
2.69248e-05 4.6451e-05 1.4046e-07
-4.81176e-08 1.4046e-07 -3.69035e-05
0.00150493 1.78063e-05 1.59321e-06
1.78063e-05 4.92172e-05 -6.23243e-07
1.59321e-06 -6.23243e-07 -3.70653e-05
0.000729285 3.33262e-05 -9.64201e-06
3.33262e-05 -7.51339e-05 -3.58468e-06
-9.64201e-06 -3.58468e-06 -0.000119787
0.000987831 3.96632e-05 -1.71321e-06
3.96632e-05 -7.45215e-05 -4.3378e-07
-1.71321e-06 -4.3378e-07 -0.00014814
0.00182333 6.08255e-05 2.65314e-06
6.08255e-05 0.000276529 3.43951e-07
2.65314e-06 3.43951e-07 0.000192706
0.00399053 -6.66789e-05 -5.12464e-05
-6.66789e-05 0.00168288 -2.68737e-06
-5.12464e-05 -2.68737e-06 0.00167215
0.000711349 3.49656e-05 4.63762e-08
3.49656e-05 -6.60828e-05 1.59113e-07
4.63762e-08 1.59113e-07 -0.000111912
0.000804212 4.43821e-05 3.33473e-06
4.43821e-05 -0.000136647 1.17067e-06
3.33473e-06 1.17067e-06 -0.000210778
0.00353531 -6.95977e-05 -1.62969e-06
-6.95977e-05 0.00145455 2.10392e-07
-1.62969e-06 2.10392e-07 0.00144536
0.000651396 2.36442e-05 6.61669e-06
2.36442e-05 -7.38551e-05 4.13087e-06
6.61669e-06 4.13087e-06 -0.000119062
0.0030654 -7.59422e-05 3.17078e-05
-7.59422e-05 0.00120933 2.84502e-06
3.17078e-05 2.84502e-06 0.00120315
0.00163194 5.84249e-06 -2.19498e-06
5.84249e-06 0.000139164 -6.06166e-07
-2.19498e-06 -6.06166e-07 5.45851e-05
0.00165626 -1.33945e-06 2.58663e-07
-1.33945e-06 0.000120308 2.15036e-07
2.58663e-07 2.15036e-07 3.21689e-05
0.00165481 -1.09165e-05 1.89954e-06
-1.09165e-05 0.000102784 9.2255e-07
1.89954e-06 9.2255e-07 1.6063e-05
0.000953863 -1.08632e-05 -6.92355e-06
-1.08632e-05 -0.000142816 4.20924e-07
-6.92355e-06 4.20924e-07 -0.000221043
0.00164254 7.95907e-06 6.60601e-07
7.95907e-06 0.000141798 1.19995e-07
6.60601e-07 1.19995e-07 5.45266e-05
0.00164324 1.22631e-05 2.05169e-06
1.22631e-05 0.000118942 -4.97517e-07
2.05169e-06 -4.97517e-07 2.72717e-05
0.00158026 1.78942e-05 3.34494e-06
1.78942e-05 0.000131342 -5.12424e-07
3.34494e-06 -5.12424e-07 4.73437e-05
0.000931107 9.93028e-06 -8.326e-07
9.93028e-06 -0.000138599 2.27478e-07
-8.326e-07 2.27478e-07 -0.000214582
0.000730855 8.65901e-06 -9.37371e-06
8.65901e-06 -0.000100269 1.39311e-06
-9.37371e-06 1.39311e-06 -0.000146293
0.00117007 1.76997e-05 4.36683e-06
1.76997e-05 -1.23124e-06 -8.01802e-07
4.36683e-06 -8.01802e-07 -7.32775e-05
0.000730553 1.18678e-05 2.76696e-07
1.18678e-05 -8.98052e-05 1.74166e-08
2.76696e-07 1.74166e-08 -0.000134144
0.00416398 6.86369e-05 -5.54089e-05
6.86369e-05 0.00175894 2.87557e-07
-5.54089e-05 2.87557e-07 0.00174984
0.000714114 1.20903e-05 8.40851e-06
1.20903e-05 -9.04526e-05 -2.33638e-06
8.40851e-06 -2.33638e-06 -0.000133255
0.00409895 7.32492e-05 1.37704e-07
7.32492e-05 0.00172956 1.52284e-07
1.37704e-07 1.52284e-07 0.00172003
0.00407987 7.96738e-05 5.22067e-05
7.96738e-05 0.00172365 -1.12877e-06
5.22067e-05 -1.12877e-06 0.00171322
0.00147474 -3.42661e-06 -2.63911e-06
-3.42661e-06 6.84361e-05 -6.89717e-07
-2.63911e-06 -6.89717e-07 -1.4785e-05
0.00161605 -7.17597e-06 2.66031e-07
-7.17597e-06 0.000106697 1.18444e-07
2.66031e-07 1.18444e-07 2.26765e-05
0.0015171 -1.19473e-05 1.17295e-06
-1.19473e-05 4.03403e-05 5.70792e-07
1.17295e-06 5.70792e-07 -4.28622e-05
0.00118696 1.36429e-06 -5.56159e-06
1.36429e-06 -3.04428e-06 -1.28965e-06
-5.56159e-06 -1.28965e-06 -7.5154e-05
0.00143028 2.81658e-06 1.35657e-07
2.81658e-06 4.95392e-05 -8.90151e-08
1.35657e-07 -8.90151e-08 -3.27423e-05
0.00156427 1.50492e-06 1.20629e-06
1.50492e-06 7.70694e-05 -4.98546e-07
1.20629e-06 -4.98546e-07 -6.80095e-06
0.000721404 2.00483e-05 -9.63941e-06
2.00483e-05 -9.06722e-05 -3.11953e-06
-9.63941e-06 -3.11953e-06 -0.000134321
0.00118964 2.36327e-05 -1.05735e-07
2.36327e-05 9.07041e-06 1.60939e-07
-1.05735e-07 1.60939e-07 -6.31937e-05
0.00145298 2.72723e-05 2.95776e-06
2.72723e-05 6.71776e-05 2.76844e-07
2.95776e-06 2.76844e-07 -1.61637e-05
0.00414875 -6.58753e-05 -5.39311e-05
-6.58753e-05 0.00175765 -2.1754e-06
-5.39311e-05 -2.1754e-06 0.00174736
0.000710679 3.23113e-05 5.78346e-08
3.23113e-05 -8.31092e-05 1.41809e-07
5.78346e-08 1.41809e-07 -0.000127838
0.00120473 4.37881e-05 4.01175e-06
4.37881e-05 3.50039e-05 1.26349e-06
4.01175e-06 1.26349e-06 -3.80573e-05
0.0038363 -6.65242e-05 -7.61767e-07
-6.65242e-05 0.00160606 1.99771e-07
-7.61767e-07 1.99771e-07 0.00159574
0.000669161 3.26011e-05 7.99824e-06
3.26011e-05 -8.52742e-05 4.03283e-06
7.99824e-06 4.03283e-06 -0.000131063
0.00336967 -7.85482e-05 3.7446e-05
-7.85482e-05 0.00137223 2.76466e-06
3.7446e-05 2.76466e-06 0.00136292
0.00124551 -1.15181e-06 -5.93713e-06
-1.15181e-06 7.84279e-06 -5.99565e-07
-5.93713e-06 -5.99565e-07 -6.7508e-05
0.00150348 8.20133e-07 7.13854e-07
8.20133e-07 7.26702e-05 -1.05745e-07
7.13854e-07 -1.05745e-07 -1.32424e-05
0.00165731 -4.85023e-06 1.912e-06
-4.85023e-06 0.000122832 1.05914e-06
1.912e-06 1.05914e-06 3.4895e-05
0.000740291 1.03088e-05 -9.8869e-06
1.03088e-05 -0.000104131 2.89117e-07
-9.8869e-06 2.89117e-07 -0.000150918
0.00095644 -3.33703e-06 -1.02831e-06
-3.33703e-06 -0.000140938 3.20703e-07
-1.02831e-06 3.20703e-07 -0.000218896
0.0016611 1.43679e-05 4.0406e-06
1.43679e-05 0.000152009 -4.79651e-07
4.0406e-06 -4.79651e-07 6.45645e-05
0.000924307 1.01024e-05 4.31687e-06
1.01024e-05 -0.000140289 -5.67577e-07
4.31687e-06 -5.67577e-07 -0.000215864
0.00074151 1.12616e-05 2.23369e-07
1.12616e-05 -9.50497e-05 1.9063e-07
2.23369e-07 1.9063e-07 -0.000141276
0.00434314 6.76574e-05 -5.83109e-05
6.76574e-05 0.00184346 -2.67919e-07
-5.83109e-05 -2.67919e-07 0.00183442
0.000737252 1.94573e-05 8.86046e-06
1.94573e-05 -8.63063e-05 -1.86809e-06
8.86046e-06 -1.86809e-06 -0.000130974
0.0042285 7.01256e-05 5.87118e-07
7.01256e-05 0.00178994 1.89462e-07
5.87118e-07 1.89462e-07 0.00178078
0.00414601 7.56659e-05 5.64581e-05
7.56659e-05 0.00175249 -5.34997e-07
5.64581e-05 -5.34997e-07 0.00174287
0.00122004 -4.82245e-06 -5.85611e-06
-4.82245e-06 4.28776e-06 -1.326e-06
-5.85611e-06 -1.326e-06 -6.92216e-05
0.00141427 -4.84678e-06 -5.7723e-08
-4.84678e-06 3.62815e-05 -9.644e-08
-5.7723e-08 -9.644e-08 -4.73019e-05
0.00151383 -8.35864e-06 1.35728e-06
-8.35864e-06 5.39946e-05 3.27003e-07
1.35728e-06 3.27003e-07 -3.00367e-05
0.00216388 -4.22845e-06 -3.26263e-05
-4.22845e-06 0.000636061 -1.88386e-06
-3.26263e-05 -1.88386e-06 0.000599838
0.00120461 1.26009e-06 1.26934e-07
1.26009e-06 5.84234e-06 4.78904e-08
1.26934e-07 4.78904e-08 -6.64286e-05
0.00146119 2.45017e-06 2.78207e-06
2.45017e-06 6.42335e-05 1.30753e-07
2.78207e-06 1.30753e-07 -1.80898e-05
0.0042442 -5.3918e-05 -5.89067e-05
-5.3918e-05 0.00179831 -1.51279e-06
-5.89067e-05 -1.51279e-06 0.00178972
0.000718508 2.05371e-05 -5.49936e-08
2.05371e-05 -9.20565e-05 1.0891e-07
-5.49936e-08 1.0891e-07 -0.000135736
0.00120459 2.31904e-05 5.77862e-06
2.31904e-05 1.67609e-05 1.56804e-06
5.77862e-06 1.56804e-06 -5.56366e-05
0.00405457 -5.99307e-05 1.38643e-06
-5.99307e-05 0.00171097 1.48621e-07
1.38643e-06 1.48621e-07 0.00170107
0.000685368 3.06781e-05 8.85149e-06
3.06781e-05 -9.43954e-05 3.71448e-06
8.85149e-06 3.71448e-06 -0.000139221
0.0037083 -7.63461e-05 4.35982e-05
-7.63461e-05 0.00154366 2.71606e-06
4.35982e-05 2.71606e-06 0.00153283
0.000777119 4.97266e-06 -1.27058e-05
4.97266e-06 -8.68414e-05 -1.20982e-06
-1.27058e-05 -1.20982e-06 -0.000134281
0.00109833 -3.91242e-06 1.59949e-07
-3.91242e-06 -6.75038e-05 2.77935e-07
1.59949e-07 2.77935e-07 -0.000143701
0.00136646 -4.04994e-06 3.66983e-06
-4.04994e-06 1.73278e-06 5.79869e-07
3.66983e-06 5.79869e-07 -8.5446e-05
0.00449866 -1.71904e-05 -5.85585e-05
-1.71904e-05 0.00191816 -8.8593e-07
-5.85585e-05 -8.8593e-07 0.00190857
0.000752305 7.40269e-06 9.06601e-08
7.40269e-06 -9.81485e-05 2.1334e-07
9.06601e-08 2.1334e-07 -0.000145257
0.000955745 3.81863e-06 4.68857e-06
3.81863e-06 -0.000140638 -7.84023e-08
4.68857e-06 -7.84023e-08 -0.000218343
0.000751173 1.8043e-05 9.48416e-06
1.8043e-05 -8.9979e-05 -9.57158e-07
9.48416e-06 -9.57158e-07 -0.000136631
0.00440472 7.17139e-05 2.25352e-06
7.17139e-05 0.00187336 2.98974e-07
2.25352e-06 2.98974e-07 0.00186413
0.00429233 7.40314e-05 6.17486e-05
7.40314e-05 0.00182077 3.21392e-08
6.17486e-05 3.21392e-08 0.0018114
0.00224153 -1.99944e-05 -3.6753e-05
-1.99944e-05 0.000666253 -1.76934e-06
-3.6753e-05 -1.76934e-06 0.000628194
0.00122623 -3.41426e-06 -4.04067e-08
-3.41426e-06 7.1411e-06 1.58667e-08
-4.04067e-08 1.58667e-08 -6.63161e-05
0.00135312 -6.10852e-06 2.60925e-06
-6.10852e-06 3.75028e-06 5.10308e-07
2.60925e-06 5.10308e-07 -8.01858e-05
0.00417088 -6.5049e-05 -1.61292e-05
-6.5049e-05 0.00176253 -5.68065e-07
-1.61292e-05 -5.68065e-07 0.00175216
0.000740941 4.84272e-06 -9.57918e-08
4.84272e-06 -8.87894e-05 5.77416e-08
-9.57918e-08 5.77416e-08 -0.000132834
0.00122481 2.37035e-06 5.74694e-06
2.37035e-06 1.57948e-05 1.31568e-06
5.74694e-06 1.31568e-06 -5.65718e-05
0.00417446 -5.12679e-05 5.30173e-07
-5.12679e-05 0.00176465 1.91099e-07
5.30173e-07 1.91099e-07 0.00175603
0.000712476 2.18784e-05 9.60307e-06
2.18784e-05 -9.497e-05 3.29885e-06
9.60307e-06 3.29885e-06 -0.000138644
0.00394426 -5.60529e-05 5.06886e-05
-5.60529e-05 0.00165646 2.33925e-06
5.06886e-05 2.33925e-06 0.00164704
0.00160404 -8.59999e-06 -6.11847e-05
-8.59999e-06 0.000434463 -2.21303e-07
-6.11847e-05 -2.21303e-07 0.000412014
0.00152397 -5.3814e-07 -1.41396e-05
-5.3814e-07 0.000295097 4.0045e-07
-1.41396e-05 4.0045e-07 0.000252449
0.000963372 -2.93819e-06 5.91722e-06
-2.93819e-06 -0.000136727 9.99365e-07
5.91722e-06 9.99365e-07 -0.000213748
0.00451013 -3.28676e-06 2.56882e-06
-3.28676e-06 0.00192356 -4.93105e-07
2.56882e-06 -4.93105e-07 0.00191411
0.000756047 5.90147e-06 1.01163e-05
5.90147e-06 -9.63487e-05 1.37422e-07
1.01163e-05 1.37422e-07 -0.000143526
0.00446214 6.73917e-05 6.43673e-05
6.73917e-05 0.00190065 6.44453e-07
6.43673e-05 6.44453e-07 0.00189164
0.00143021 -2.54033e-05 -9.3835e-06
-2.54033e-05 0.000355463 -9.15513e-07
-9.3835e-06 -9.15513e-07 0.000331386
0.00151233 -2.19167e-06 -1.3375e-05
-2.19167e-06 0.000295881 1.8165e-07
-1.3375e-05 1.8165e-07 0.000254302
0.00123068 -4.47418e-06 5.59949e-06
-4.47418e-06 9.23626e-06 1.29939e-06
5.59949e-06 1.29939e-06 -6.42291e-05
0.0028253 -3.78792e-05 2.4898e-05
-3.78792e-05 0.00107166 5.2733e-08
2.4898e-05 5.2733e-08 0.00105579
0.000744773 1.06792e-05 9.96313e-06
1.06792e-05 -8.76889e-05 2.80757e-06
9.96313e-06 2.80757e-06 -0.000131714
0.00411891 -4.60937e-05 5.5732e-05
-4.60937e-05 0.00173751 1.85778e-06
5.5732e-05 1.85778e-06 0.00172913
0.00452643 -6.31533e-05 -2.08544e-06
-6.31533e-05 0.00192987 3.07017e-07
-2.08544e-06 3.07017e-07 0.00192105
0.000759503 3.99371e-06 1.02133e-05
3.99371e-06 -9.45582e-05 1.38599e-06
1.02133e-05 1.38599e-06 -0.000141387
0.0045319 2.09485e-05 6.35274e-05
2.09485e-05 0.00193305 -6.6146e-07
6.35274e-05 -6.6146e-07 0.00192396
0.00293556 -4.08833e-05 2.5515e-05
-4.08833e-05 0.00112175 -6.01012e-08
2.5515e-05 -6.01012e-08 0.00110525
0.000766262 4.21677e-06 9.98708e-06
4.21677e-06 -8.42131e-05 2.24634e-06
9.98708e-06 2.24634e-06 -0.000129854
0.00423708 -4.61004e-05 5.83663e-05
-4.61004e-05 0.00179182 1.29573e-06
5.83663e-05 1.29573e-06 0.00178381
0.00447922 -8.08521e-05 5.94742e-05
-8.08521e-05 0.001909 -2.67515e-08
5.94742e-05 -2.67515e-08 0.00189874
0.00436867 -4.95841e-05 6.01054e-05
-4.95841e-05 0.00185379 6.57938e-07
6.01054e-05 6.57938e-07 0.00184566
