# vtk DataFile Version 2.0
Wound Healing Simulation
ASCII
DATASET UNSTRUCTURED_GRID
POINTS 3012 float
69.9759 18.75 4
67.2507 60.3285 4
69.976 18.75 2
73.0099 25.446 4
71.1327 20.9142 4
68.6801 16.6661 4
67.8205 19.9256 3.97153
67.2507 60.3286 2
71.1327 54.0858 4
68.6801 58.3339 4
65.6939 62.2254 4
65.3073 58.9988 3.97048
74.6784 42.3946 4
73.7221 47.2057 4
69.9759 18.75 0
73.0099 25.446 2
68.6801 16.6661 2
71.1327 20.9142 2
67.821 19.9298 2
74.6792 32.6053 4
73.7222 27.7943 4
72.1454 23.1494 4
70.6108 26.2218 3.97186
68.8811 21.9574 3.97194
67.2507 14.6715 4
66.6315 17.9726 3.9704
65.7252 21.0507 3.96129
67.2507 60.3285 0
71.1327 54.0858 2
68.6801 58.3339 2
65.694 62.2255 2
65.3087 58.9938 2
72.1454 51.8506 4
69.9759 56.25 4
68.8315 53.1145 3.9718
64.0165 64.0165 4
66.6053 57.1332 3.97149
63.88 60.7612 3.96751
63.4532 57.7488 3.95918
60.3285 67.2507 4
74.6792 42.3947 2
73.7222 47.2057 2
74.9194 39.9526 4
74.2788 44.8158 4
72.1656 42.086 3.97395
73.0099 49.554 4
71.2461 46.5985 3.97239
73.0099 25.446 0
71.1327 20.9142 0
68.6801 16.6661 0
67.8205 19.9256 0.0284703
74.6792 32.6053 2
73.7222 27.7943 2
67.2508 14.6715 2
72.1455 23.1494 2
70.6101 26.2231 2
66.6327 17.9774 2
68.8812 21.9605 2
65.7249 21.0519 2
74.9197 35.0474 4
74.2794 30.1841 4
72.1823 32.9451 3.97407
71.2754 28.4329 3.97235
69.8116 24.0595 3.97202
68.3056 26.9657 3.96419
66.6969 22.9552 3.96245
65.694 12.7746 4
65.3182 16.1059 3.96944
64.6401 19.2232 3.95963
63.6868 22.1149 3.96509
71.1327 54.0858 0
65.6939 62.2254 0
68.6801 58.3339 0
65.3073 58.9988 0.0295164
72.1455 51.8506 2
69.9759 56.25 2
68.8317 53.1112 2
64.0165 64.0165 2
66.6065 57.1281 2
63.8809 60.7556 2
63.4436 57.7475 2
62.2254 65.694 4
58.8897 65.4099 3.97611
69.7646 50.9901 3.9718
67.7784 55.1682 3.97177
66.5721 52.1873 3.96265
62.331 62.4224 3.97023
64.5905 56.0073 3.9606
62.1863 59.3824 3.95678
61.6577 56.603 3.96058
58.3339 68.6801 4
60.3285 67.2508 2
73.7221 47.2057 0
74.6784 42.3946 0
74.9197 39.9526 2
74.2794 44.8159 2
72.1645 42.0851 2
73.0099 49.554 2
71.2452 46.597 2
75 37.5 4
72.4029 39.8029 3.97485
71.7796 44.3532 3.97337
69.7836 41.787 3.96649
70.5713 48.8143 3.97187
68.8699 46.0051 3.96547
74.6792 32.6053 0
73.7222 27.7943 0
67.2507 14.6715 0
72.1454 23.1494 0
70.6108 26.2218 0.0281431
68.8811 21.9574 0.028063
66.6315 17.9726 0.0296012
65.7252 21.0507 0.0387114
74.9197 35.0474 2
74.2794 30.1841 2
72.1811 32.9452 2
71.2743 28.4338 2
65.694 12.7745 2
65.3192 16.1114 2
69.8113 24.0616 2
68.3092 26.9665 2
64.6337 19.2252 2
66.6987 22.9563 2
63.6871 22.1154 2
72.4108 35.2256 3.97486
71.8013 30.6781 3.97356
69.8231 33.2752 3.96591
68.9338 29.0497 3.96451
67.5568 24.9301 3.96353
65.9924 27.6916 3.97346
64.0165 10.9835 4
64.5466 23.9044 3.9677
63.8831 14.3322 3.96604
63.4556 17.4754 3.95691
62.7121 20.406 3.96227
61.7562 23.0789 3.97143
60.6791 11.1033 3.97262
57.6033 11.4893 3.96303
72.1454 51.8506 0
69.9759 56.25 0
68.8315 53.1145 0.0281993
64.0165 64.0165 0
63.88 60.7612 0.0324869
66.6053 57.1332 0.0285069
63.4532 57.7488 0.0408216
62.2255 65.694 2
58.8929 65.404 2
69.7644 50.9878 2
67.7791 55.1639 2
66.5735 52.1864 2
62.3327 62.4146 2
64.585 56.006 2
62.1796 59.3826 2
61.6563 56.6038 2
60.664 63.9722 3.97483
57.0207 66.7322 3.98046
57.5453 63.6494 3.96872
67.438 50.1583 3.96398
65.6262 54.1499 3.96161
64.3005 51.3098 3.96842
60.7642 60.9067 3.96477
62.6283 54.99 3.96387
60.5225 58.0804 3.95563
60.0658 55.6612 3.96651
56.25 69.9759 4
58.3339 68.6801 2
60.3285 67.2507 0
58.9165 9.66079 3.97538
62.2254 9.30607 4
73.0099 49.554 0
74.2788 44.8158 0
71.2461 46.5985 0.0276145
72.1656 42.086 0.0260465
74.9194 39.9526 0
75 37.5 2
72.4023 39.8023 2
71.779 44.3519 2
69.7864 41.7867 2
70.5709 48.8125 2
68.8746 46.0047 2
72.4864 37.5131 3.97467
70.0268 39.6574 3.96658
69.4037 43.9019 3.96625
67.4089 41.4792 3.97671
68.2092 48.0931 3.96492
66.4954 45.3964 3.97561
74.9197 35.0474 0
74.2794 30.1841 0
72.1823 32.9451 0.025932
71.2754 28.4329 0.0276467
65.694 12.7746 0
65.3182 16.1059 0.0305647
69.8116 24.0595 0.027975
68.3056 26.9657 0.0358058
66.6969 22.9552 0.0375482
64.6401 19.2232 0.0403733
63.6868 22.1149 0.0349098
72.4102 35.2253 2
71.8006 30.6788 2
69.8261 33.2755 2
68.9388 29.0501 2
64.0165 10.9835 2
63.8847 14.3392 2
63.4547 17.4747 2
67.5596 24.9311 2
65.9902 27.6928 2
62.7164 20.4053 2
64.5455 23.9054 2
61.7547 23.08 2
60.6821 11.1089 2
57.6029 11.4821 2
70.0446 35.3965 3.96628
69.4439 31.1585 3.96507
67.4815 33.6141 3.97609
66.5827 29.6686 3.97489
65.3111 25.7663 3.97038
63.7665 28.3594 3.97525
62.3353 12.6612 3.96883
62.5012 24.7654 3.97405
62.1779 15.8105 3.95643
61.6252 18.777 3.95932
60.8982 21.4851 3.96763
59.969 23.9163 3.974
59.2358 12.8235 3.96206
55.8646 10.281 3.97231
56.3873 13.1961 3.9637
69.7646 50.9901 0.0281998
62.2254 65.694 0
58.8897 65.4099 0.0238908
67.7784 55.1682 0.0282252
66.5721 52.1873 0.037346
62.331 62.4224 0.0297703
62.1863 59.3824 0.0432221
64.5905 56.0073 0.0394049
61.6577 56.603 0.0394154
60.6674 63.9667 2
57.0245 66.7274 2
57.5478 63.657 2
67.44 50.1573 2
65.6249 54.1488 2
64.2984 51.3091 2
60.7589 60.9081 2
62.6287 54.9907 2
60.513 58.0797 2
60.0656 55.6619 2
55.0664 67.9295 3.98345
59.2122 62.3221 3.96744
55.7923 64.8711 3.97046
56.3124 62.019 3.98005
65.0878 49.3402 3.97091
63.4843 53.2135 3.96609
62.0369 50.5208 3.97323
59.2589 59.4881 3.95514
60.7619 54.18 3.97
59.0196 56.8748 3.96067
58.8937 55.0248 3.97074
48.0979 68.5687 3.97987
50.9444 69.9305 3.98678
54.0858 71.1327 4
56.25 69.976 2
58.3339 68.6801 0
57.0537 8.34121 3.9748
60.3285 7.74928 4
58.9196 9.66654 2
62.2255 9.30602 2
70.5713 48.8143 0.0281318
71.7796 44.3532 0.0266299
68.8699 46.0051 0.0345269
69.7836 41.787 0.0335113
72.4029 39.8029 0.02515
75 37.5 0
72.4852 37.5126 2
70.0296 39.6572 2
69.4061 43.9014 2
67.4056 41.4785 2
68.2109 48.0922 2
66.4917 45.3953 2
70.1154 37.5239 3.96654
67.6568 39.5051 3.9766
67.0214 43.4393 3.97635
65.1917 41.1792 3.97682
65.8378 47.3615 3.9741
64.249 44.7737 3.97618
72.4108 35.2256 0.0251438
71.8013 30.6781 0.0264408
69.8231 33.2752 0.0340869
68.9338 29.0497 0.0354859
64.0165 10.9835 0
63.8831 14.3322 0.0339603
63.4556 17.4754 0.0430864
67.5568 24.9301 0.0364708
65.9924 27.6916 0.0265414
64.5466 23.9044 0.0323011
62.7121 20.406 0.0377344
61.7562 23.0789 0.0285654
60.6791 11.1033 0.0273794
57.6033 11.4893 0.0369668
70.0471 35.3967 2
69.4474 31.1589 2
67.4789 33.6147 2
66.5802 29.6697 2
62.3381 12.6683 2
62.1753 15.8107 2
61.6335 18.7753 2
65.3093 25.7675 2
63.7646 28.36 2
60.8967 21.4862 2
62.4999 24.7666 2
59.9679 23.9173 2
59.2353 12.8223 2
56.3879 13.192 2
55.866 10.2843 2
67.702 35.5605 3.97631
67.0859 31.6566 3.9757
65.352 33.9646 3.97691
64.2819 30.2761 3.9758
63.171 26.5332 3.9751
61.732 28.9179 3.97528
60.7628 14.2573 3.96177
60.5576 25.522 3.97498
60.4792 17.2146 3.95569
59.9027 19.9717 3.96276
59.2165 22.457 3.97052
58.4228 24.5571 3.9742
54.0288 9.17557 3.9678
57.8764 14.4055 3.95418
54.7732 12.0919 3.96579
55.2686 14.7606 3.95462
67.438 50.1583 0.036016
57.0207 66.7322 0.0195443
60.664 63.9722 0.0251686
57.5453 63.6494 0.0312787
65.6262 54.1499 0.0383895
64.3005 51.3098 0.0315753
60.7642 60.9067 0.0352298
60.5225 58.0804 0.0443659
62.6283 54.99 0.0361253
60.0658 55.6612 0.0334871
55.0706 67.9255 2
59.2097 62.3268 2
55.7952 64.8677 2
56.3106 62.0209 2
65.0853 49.3391 2
63.4829 53.2133 2
62.0356 50.5207 2
59.2765 59.497 2
60.7615 54.1804 2
59.0292 56.878 2
58.9031 55.0273 2
53.0382 68.9972 3.98378
53.9586 65.9977 3.97114
57.8501 60.8072 3.95875
54.6615 63.1263 3.96381
55.1792 60.5331 3.97764
62.7783 48.5398 3.97445
61.3763 52.4425 3.97171
59.7109 49.8294 3.97333
57.8324 58.1435 3.95729
58.9198 53.777 3.97272
57.7194 55.6268 3.9635
50.1036 67.8466 3.97662
47.4552 66.5632 3.97515
46.0525 69.1501 3.98223
48.1011 68.5692 2
48.7984 70.7214 3.98824
50.948 69.9278 2
51.8506 72.1454 4
54.0858 71.1327 2
56.25 69.9759 0
55.0986 7.14405 3.98105
58.3339 6.31992 4
57.0574 8.34705 2
60.3286 7.74926 2
58.9165 9.66079 0.0246213
62.2254 9.30607 0
68.2092 48.0931 0.0350825
69.4037 43.9019 0.0337522
66.4954 45.3964 0.0243905
67.4089 41.4792 0.0232897
70.0268 39.6574 0.0334221
72.4864 37.5131 0.0253262
70.1185 37.5239 2
67.6537 39.5048 2
67.019 43.4385 2
65.1904 41.1789 2
65.8352 47.3604 2
64.2473 44.7732 2
67.7611 37.5251 3.97643
65.4341 39.3563 3.97695
64.7961 42.9723 3.97659
63.2564 40.8854 3.97662
63.5464 46.6146 3.97488
62.2505 44.1186 3.97588
70.0446 35.3965 0.0337182
69.4439 31.1585 0.0349315
67.4815 33.6141 0.0239139
66.5827 29.6686 0.0251147
62.3353 12.6612 0.0311726
62.1779 15.8105 0.0435651
61.6252 18.777 0.0406836
65.3111 25.7663 0.0296224
63.7665 28.3594 0.0247489
62.5012 24.7654 0.0259514
60.8982 21.4851 0.0323692
59.969 23.9163 0.0259964
59.2358 12.8235 0.0379366
56.3873 13.1961 0.0362953
55.8646 10.281 0.0276928
67.6993 35.5608 2
67.084 31.6574 2
65.3502 33.9652 2
64.2805 30.2766 2
60.7605 14.2576 2
60.4749 17.2159 2
59.8989 19.9732 2
63.1697 26.5343 2
61.7317 28.9179 2
59.2185 22.4574 2
60.5569 25.5226 2
58.4203 24.5596 2
57.8802 14.4035 2
55.2648 14.7509 2
54.0323 9.16848 2
54.7684 12.0943 2
65.534 35.6879 3.97695
64.8148 32.2116 3.97626
63.8353 34.2948 3.97646
62.0517 30.7461 3.97569
61.1392 27.2342 3.97495
60.2145 29.3076 3.97587
59.2299 15.7487 3.95483
58.7236 26.028 3.97525
58.8605 18.507 3.95912
58.3088 21.0629 3.96482
57.7487 23.3362 3.9712
57.3592 24.9309 3.97582
52.1064 8.16714 3.96845
53.0386 11.0964 3.96499
56.596 15.8601 3.95542
53.7866 13.7857 3.97001
54.2765 16.1445 3.956
55.0664 67.9295 0.0165494
65.0878 49.3402 0.0290916
55.7923 64.8711 0.0295409
59.2122 62.3221 0.0325567
56.3124 62.019 0.019947
63.4843 53.2135 0.0339081
62.0369 50.5208 0.026772
59.2589 59.4881 0.0448594
59.0196 56.8748 0.0393276
60.7619 54.18 0.0300007
58.8937 55.0248 0.0292588
53.0422 68.9947 2
53.9615 65.9958 2
57.8522 60.8109 2
54.6597 63.1268 2
55.1781 60.5327 2
62.7772 48.5395 2
61.3759 52.4427 2
59.7116 49.8293 2
57.8408 58.1478 2
58.9251 53.7781 2
57.7172 55.6258 2
52.0632 66.9847 3.97348
52.9357 64.1653 3.96958
56.5584 59.3932 3.95415
53.6325 61.5033 3.96621
54.1913 59.2103 3.96461
60.3932 47.7086 3.97416
59.2147 51.9211 3.97294
57.3374 49.3737 3.97426
56.5146 56.8296 3.96134
56.5884 53.8955 3.96784
50.1066 67.8436 2
49.3261 65.8894 3.97464
47.4583 66.5554 2
46.8807 64.6882 3.97682
45.554 67.0812 3.97834
43.9706 69.5828 3.98343
46.0557 69.1499 2
46.6056 71.3661 3.98968
48.0979 68.5687 0.0201285
48.802 70.7208 2
49.554 73.0099 4
50.9444 69.9305 0.0132246
51.8506 72.1455 2
54.0858 71.1327 0
53.0613 6.07475 3.98609
55.1026 7.14593 2
56.25 5.02411 4
58.3339 6.3199 2
57.0537 8.34121 0.0251973
60.3285 7.74928 0
65.8378 47.3615 0.0259014
67.0214 43.4393 0.0236522
64.249 44.7737 0.0238176
65.1917 41.1792 0.0231844
67.6568 39.5051 0.0233951
70.1154 37.5239 0.0334633
67.7584 37.5251 2
65.4328 39.3562 2
64.7944 42.9715 2
63.2565 40.8851 2
63.5451 46.614 2
62.2503 44.1186 2
65.5444 37.5057 3.97692
63.4067 39.2487 3.97649
62.8017 42.4844 3.9763
61.8216 40.6462 3.97659
61.3813 45.7834 3.97521
60.7721 43.572 3.97603
67.702 35.5605 0.023692
67.0859 31.6566 0.024296
65.352 33.9646 0.0230878
64.2819 30.2761 0.0241985
60.7628 14.2573 0.0382311
60.4792 17.2146 0.0443073
59.9027 19.9717 0.0372441
63.171 26.5332 0.0249027
61.732 28.9179 0.024723
60.5576 25.522 0.0250163
59.2165 22.457 0.02948
58.4228 24.5571 0.0258005
57.8764 14.4055 0.0458199
55.2686 14.7606 0.0453778
54.0288 9.17557 0.0321963
54.7732 12.0919 0.0342089
65.5325 35.688 2
64.8132 32.2123 2
63.8357 34.2949 2
62.0516 30.7462 2
59.2485 15.7442 2
58.8588 18.5076 2
58.3058 21.0646 2
61.1384 27.2345 2
60.2155 29.3076 2
57.7464 23.3391 2
58.7212 26.0292 2
57.3582 24.9348 2
56.5709 15.8645 2
54.2797 16.134 2
53.7747 13.779 2
52.1084 8.17127 2
53.0422 11.0873 2
63.6184 35.661 3.97636
62.3837 33.1223 3.97609
59.9197 30.7647 3.97553
58.8888 28.1206 3.97528
57.7654 17.1187 3.95617
57.0449 26.0089 3.97541
57.3353 19.6831 3.95966
56.8303 22.1003 3.96515
56.5571 24.2311 3.97316
50.1075 7.29652 3.97929
51.2173 10.1802 3.96781
52.1363 12.9103 3.96728
55.3758 17.1328 3.95642
52.9127 15.3918 3.95738
53.6146 17.1525 3.95516
53.0382 68.9972 0.016224
53.9586 65.9977 0.0288563
62.7783 48.5398 0.0255465
54.6615 63.1263 0.0361888
57.8501 60.8072 0.0412479
55.1792 60.5331 0.0223571
61.3763 52.4425 0.0282888
59.7109 49.8294 0.0266723
57.8324 58.1435 0.0427137
57.7194 55.6268 0.0364991
58.9198 53.777 0.0272785
52.0661 66.9827 2
52.9357 64.1651 2
56.5559 59.3941 2
53.6312 61.5033 2
54.1861 59.2122 2
60.3932 47.7084 2
59.2173 51.9215 2
57.3385 49.3742 2
56.5118 56.8333 2
56.5867 53.8948 2
51.1542 65.0949 3.97073
52.0098 62.4513 3.96425
55.3268 58.1191 3.96148
52.7392 59.9906 3.9647
53.5309 58.3396 3.96302
57.4765 46.612 3.97502
56.9481 51.5482 3.97238
55.4679 49.2699 3.97424
55.1367 55.6011 3.96285
54.7586 53.1313 3.96267
50.1036 67.8466 0.0233786
49.3275 65.892 2
48.601 64.0769 3.97882
47.4552 66.5632 0.0248466
45.5557 67.0843 2
46.8815 64.6895 2
46.3629 62.9921 3.98209
45.1235 65.1689 3.97947
43.629 67.4549 3.97999
41.8585 69.8698 3.98356
43.9726 69.5828 2
44.3734 71.8609 3.99021
46.0525 69.1501 0.0177714
46.6081 71.3656 2
47.2057 73.7222 4
48.7984 70.7214 0.0117611
49.554 73.0099 2
51.8506 72.1454 0
50.9527 5.13488 3.98853
53.0639 6.07586 2
54.0858 3.86728 4
55.0986 7.14405 0.0189503
56.25 5.02406 2
58.3339 6.31992 0
63.5464 46.6146 0.025125
64.7961 42.9723 0.0234106
62.2505 44.1186 0.0241205
63.2564 40.8854 0.0233792
65.4341 39.3563 0.0230538
67.7611 37.5251 0.0235675
65.5432 37.5058 2
63.4071 39.2489 2
62.8023 42.4839 2
61.8217 40.6459 2
61.3811 45.7832 2
60.7724 43.572 2
63.4712 37.4617 3.97647
61.5215 39.326 3.97679
60.5166 41.8693 3.97678
59.4927 44.6096 3.97561
65.534 35.6879 0.0230485
64.8148 32.2116 0.0237424
63.8353 34.2948 0.023542
62.0517 30.7461 0.0243118
59.2299 15.7487 0.0451721
58.8605 18.507 0.040883
58.3088 21.0629 0.0351804
61.1392 27.2342 0.0250466
60.2145 29.3076 0.0241323
58.7236 26.028 0.0247496
57.7487 23.3362 0.0288007
57.3592 24.9309 0.0241789
56.596 15.8601 0.0445811
54.2765 16.1445 0.0439981
53.7866 13.7857 0.02999
52.1064 8.16714 0.0315503
53.0386 11.0964 0.0350095
63.6189 35.6609 2
62.3851 33.1228 2
59.9209 30.7651 2
57.7727 17.1161 2
57.3423 19.6809 2
56.829 22.1036 2
58.8894 28.1197 2
56.5678 24.2337 2
57.0443 26.0077 2
50.1107 7.29284 2
55.3725 17.1355 2
53.6183 17.1437 2
52.9085 15.3954 2
52.1483 12.8999 2
51.2187 10.1767 2
61.5641 35.4018 3.97649
59.5305 32.86 3.97593
57.7859 30.2813 3.9752
56.4942 27.6584 3.97557
56.3837 18.3379 3.95775
55.5568 25.4261 3.97473
55.8956 20.773 3.95763
55.4824 23.171 3.96617
48.0545 6.53588 3.98251
49.3144 9.36652 3.97249
50.4056 12.0868 3.96545
51.3148 14.6321 3.96643
54.2061 18.1191 3.96143
52.2418 17.2239 3.95486
52.0632 66.9847 0.0265243
52.9357 64.1653 0.0304195
60.3932 47.7086 0.0258401
53.6325 61.5033 0.0337902
56.5584 59.3932 0.0458536
54.1913 59.2103 0.0353904
59.2147 51.9211 0.0270599
57.3374 49.3737 0.0257378
56.5146 56.8296 0.0386589
56.5884 53.8955 0.0321574
51.1551 65.0924 2
52.0093 62.4559 2
55.3212 58.1193 2
52.7405 59.9938 2
53.5263 58.3426 2
57.4766 46.611 2
56.9471 51.5475 2
55.4669 49.2692 2
55.1359 55.6021 2
54.7573 53.1312 2
50.3214 63.3338 3.97207
51.1728 60.8206 3.97276
54.0215 57.1132 3.96757
52.1391 58.4718 3.96913
55.657 43.9591 3.97564
54.5638 47.583 3.97551
54.2846 51.0933 3.96596
53.5741 54.324 3.96476
49.3261 65.8894 0.0253577
48.599 64.0852 2
47.9319 62.4255 3.98894
45.554 67.0812 0.0216589
46.8807 64.6882 0.0231782
43.6298 67.4553 2
46.3623 62.9953 2
45.1259 65.1639 2
45.9569 61.5193 3.99391
44.7538 63.3991 3.97473
43.3531 65.484 3.97815
41.6624 67.6731 3.97895
39.701 70.0168 3.98326
41.86 69.871 2
42.1085 72.2048 3.9907
43.9706 69.5828 0.0165717
44.3754 71.8602 2
44.8159 74.2794 4
46.6056 71.3661 0.0103199
47.2057 73.7222 2
49.554 73.0099 0
48.7843 4.32479 3.98928
50.9545 5.13456 2
51.8506 2.85458 4
53.0613 6.07475 0.0139095
54.0858 3.86728 2
56.25 5.02411 0
61.3813 45.7834 0.0247855
62.8017 42.4844 0.0237048
60.7721 43.572 0.0239734
61.8216 40.6462 0.0234077
63.4067 39.2487 0.0235069
65.5444 37.5057 0.0230829
63.4723 37.4617 2
61.5211 39.3263 2
60.5172 41.869 2
59.4937 44.6095 2
61.3416 37.4499 3.97664
59.4427 39.7961 3.9768
58.0909 42.7801 3.97586
63.6184 35.661 0.0236426
62.3837 33.1223 0.0239072
59.9197 30.7647 0.0244723
57.7654 17.1187 0.0438301
57.3353 19.6831 0.0403443
56.8303 22.1003 0.0348487
58.8888 28.1206 0.0247207
57.0449 26.0089 0.0245878
56.5571 24.2311 0.0268417
55.3758 17.1328 0.043575
53.6146 17.1525 0.0448368
52.9127 15.3918 0.042617
50.1075 7.29652 0.0207109
52.1363 12.9103 0.0327209
51.2173 10.1802 0.0321874
61.5642 35.4019 2
59.5296 32.86 2
57.7878 30.2815 2
56.3837 18.3371 2
55.9213 20.7673 2
55.4917 23.175 2
56.4961 27.6583 2
55.5611 25.4293 2
48.0545 6.53671 2
49.3146 9.36304 2
54.2082 18.1216 2
52.2318 17.225 2
51.3192 14.6177 2
50.4084 12.0851 2
59.0656 35.1799 3.97655
57.0358 32.4307 3.97522
55.5987 29.6066 3.97533
54.5756 26.9566 3.97468
55.0405 19.4044 3.96316
54.2473 24.3933 3.97161
54.4692 21.8561 3.96221
45.9615 5.89006 3.98472
43.3729 7.48274 3.98177
47.35 8.64255 3.97402
48.5787 11.361 3.96804
49.6636 13.8447 3.96781
50.5272 16.29 3.95245
52.8978 18.9003 3.9629
51.1542 18.3086 3.9577
51.1542 65.0949 0.0292656
52.0098 62.4513 0.0357451
57.4765 46.612 0.0249801
52.7392 59.9906 0.0353022
55.3268 58.1191 0.0385217
53.5309 58.3396 0.0369752
56.9481 51.5482 0.0276213
55.4679 49.2699 0.0257618
55.1367 55.6011 0.0371479
54.7586 53.1313 0.0373276
50.3184 63.3315 2
51.1728 60.8217 2
54.015 57.1143 2
52.1308 58.474 2
55.6593 43.9602 2
54.5637 47.5836 2
54.2798 51.0918 2
53.5691 54.3251 2
49.5433 61.6904 3.97396
54.3398 41.58 3.97401
50.4405 59.1965 3.96478
51.8826 56.3033 3.96641
53.0039 45.2214 3.97288
52.3727 48.9864 3.96979
52.0466 52.5855 3.95933
48.601 64.0769 0.0211808
47.9309 62.4262 2
47.2837 60.9491 3.99016
43.629 67.4549 0.0200075
45.1235 65.1689 0.0205265
46.3629 62.9921 0.0179098
41.6635 67.6738 2
43.3575 65.4852 2
45.9589 61.5225 2
44.7542 63.3951 2
45.7217 60.5635 3.99956
44.4616 61.7651 3.97945
43.1378 63.6821 3.97806
41.545 65.6231 3.97357
39.6322 67.7524 3.97836
37.5256 70.0413 3.98328
39.702 70.017 2
39.8162 72.402 3.99109
41.8585 69.8698 0.0164417
42.1099 72.2053 2
42.3947 74.6792 4
44.3734 71.8609 0.00978844
44.8159 74.2794 2
47.2057 73.7222 0
43.8512 5.36407 3.98525
46.5705 3.64966 3.99001
48.7848 4.32554 2
49.554 1.99015 4
50.9527 5.13488 0.0114679
51.8506 2.85453 2
54.0858 3.86728 0
59.4927 44.6096 0.0243941
60.5166 41.8693 0.0232159
61.5215 39.326 0.0232091
63.4712 37.4617 0.0235263
61.3418 37.45 2
59.4411 39.7946 2
58.0912 42.7798 2
58.9164 37.5688 3.97696
56.9985 40.5603 3.97752
53.7386 39.6161 3.97614
61.5641 35.4018 0.0235077
59.5305 32.86 0.0240737
57.7859 30.2813 0.0248043
56.3837 18.3379 0.042248
55.8956 20.773 0.0423674
55.4824 23.171 0.0338299
56.4942 27.6584 0.0244341
55.5568 25.4261 0.0252683
54.2061 18.1191 0.0385708
52.2418 17.2239 0.045139
51.3148 14.6321 0.0335697
48.0545 6.53588 0.0174932
49.3144 9.36652 0.0275067
50.4056 12.0868 0.0345511
59.0646 35.1803 2
45.9612 5.88927 2
43.3719 7.48319 2
57.0343 32.4317 2
55.6006 29.6044 2
55.0281 19.4088 2
54.5072 21.8537 2
54.2434 24.3999 2
54.5781 26.9572 2
47.349 8.6402 2
48.5809 11.3518 2
52.8906 18.8661 2
51.1482 18.3093 2
50.5398 16.2872 2
49.6582 13.8567 2
56.3447 34.85 3.97713
54.617 31.7506 3.97453
53.4839 28.7404 3.9761
52.9553 25.8792 3.9738
53.6225 20.3918 3.96435
52.9888 23.0497 3.96469
41.3989 7.08366 3.98324
45.3574 8.00579 3.98541
42.8647 9.43043 3.9727
46.654 10.6995 3.97474
47.7011 13.1778 3.96752
48.8422 15.5095 3.97049
49.8644 17.8992 3.97031
51.4126 19.6057 3.98684
50.3214 63.3338 0.0279308
51.1728 60.8206 0.0272419
55.657 43.9591 0.02436
54.5638 47.583 0.0244874
52.1391 58.4718 0.0308703
54.0215 57.1132 0.0324304
54.2846 51.0933 0.0340387
53.5741 54.324 0.0352423
49.5435 61.684 2
54.3387 41.5772 2
50.4378 59.2042 2
51.8876 56.3075 2
52.9974 45.2183 2
52.3687 48.9842 2
52.05 52.586 2
48.7638 60.139 3.99716
50.9888 42.431 3.98352
49.5877 57.4815 3.96484
50.1533 54.2118 3.9596
50.6647 46.8862 3.97655
50.4345 50.6432 3.95282
46.7301 43.3903 3.96161
47.9319 62.4255 0.0110646
47.2872 60.9498 2
46.5554 59.7315 3.9935
41.6624 67.6731 0.0210516
43.3531 65.484 0.0218459
44.7538 63.3991 0.0252662
45.9569 61.5193 0.00608806
39.6334 67.7532 2
41.548 65.6206 2
45.7216 60.5674 2
43.1366 63.6796 2
44.4617 61.7657 2
44.5816 60.2164 3.99282
42.9329 62.0217 3.9769
41.5927 63.7901 3.97836
39.6461 65.5917 3.9754
37.5632 67.7342 3.97695
31.6985 65.1076 3.97348
33.3928 67.4719 3.97738
35.334 69.9523 3.98344
37.5255 70.0433 2
37.5092 72.4561 3.99164
39.701 70.0168 0.0167414
39.817 72.402 2
39.9526 74.9197 4
42.1085 72.2048 0.00929708
42.3947 74.6792 2
44.8159 74.2794 0
41.736 4.97138 3.98783
43.8507 5.36373 2
44.3263 3.11188 3.99166
46.571 3.64958 2
47.2057 1.27793 4
48.7843 4.32479 0.0107163
49.554 1.99013 2
51.8506 2.85458 0
58.0909 42.7801 0.0241391
59.4427 39.7961 0.0231952
61.3416 37.4499 0.0233629
58.9142 37.57 2
57.0018 40.5596 2
53.7418 39.6167 2
55.6978 37.8804 3.9774
48.0081 41.146 3.96697
51.5477 39.2296 3.97935
39.4417 6.80913 3.98118
59.0656 35.1799 0.0234546
57.0358 32.4307 0.0247771
55.5987 29.6066 0.0246668
55.0405 19.4044 0.0368356
54.4692 21.8561 0.0377923
54.2473 24.3933 0.0283937
54.5756 26.9566 0.0253165
52.8978 18.9003 0.0370987
51.1542 18.3086 0.0423015
50.5272 16.29 0.0475473
45.9615 5.89006 0.0152775
49.6636 13.8447 0.0321853
47.35 8.64255 0.0259838
48.5787 11.361 0.0319572
43.3729 7.48274 0.018231
56.3461 34.8533 2
41.3987 7.08552 2
45.3555 8.00521 2
42.8615 9.43327 2
54.6185 31.7532 2
53.4813 28.7396 2
53.625 20.3993 2
52.9707 23.0531 2
52.9603 25.8788 2
46.6535 10.6899 2
47.7037 13.1747 2
51.4164 19.6064 2
49.8636 17.9021 2
48.8479 15.5434 2
53.5406 34.0789 3.97526
52.2645 30.8232 3.97478
51.6136 27.6049 3.97503
51.4562 24.4968 3.97244
52.0008 21.3581 3.98436
41.0119 9.05488 3.97828
44.7243 10.0119 3.978
42.454 10.9157 4.00461
45.9644 12.7755 3.96627
47.6158 14.7032 3.96713
47.989 17.112 3.97368
49.6481 20.0109 3.98741
49.5433 61.6904 0.026042
50.4405 59.1965 0.0352247
54.3398 41.58 0.0259913
53.0039 45.2214 0.0271204
52.3727 48.9864 0.0302102
51.8826 56.3033 0.0335948
52.0466 52.5855 0.0406711
48.7621 60.1346 2
51.0075 42.4485 2
49.5862 57.4805 2
50.154 54.2141 2
50.6656 46.8855 2
50.438 50.6429 2
46.7386 43.4356 2
47.8672 58.6251 3.9903
48.7319 44.9409 3.98138
48.3061 55.7524 3.95396
48.5736 52.3526 3.98119
48.7516 48.7071 3.97023
44.4135 39.6938 3.82107
44.9592 42.3214 3.86809
45.293 45.3369 3.9796
42.3014 40.9464 3.59352
41.2785 41.5401 3.39222
47.2837 60.9491 0.00983637
46.5509 59.7376 2
45.3938 58.7201 3.995
39.6322 67.7524 0.0216405
41.545 65.6231 0.0264283
43.1378 63.6821 0.0219378
44.4616 61.7651 0.0205536
45.7217 60.5635 0.000438063
41.5948 63.7835 2
37.5638 67.7369 2
39.6491 65.5929 2
44.5831 60.2175 2
42.932 62.021 2
41.7405 62.4355 3.98095
42.4489 59.9142 3.98882
39.8884 63.5266 3.97769
37.6408 65.4886 3.9742
35.4634 67.644 3.9763
33.5758 65.3198 3.97393
31.9638 63.2631 3.98117
29.8885 64.6943 3.97921
31.6964 65.108 2
31.3787 67.1821 3.97806
33.3922 67.4734 2
33.1578 69.7454 3.98324
35.3332 69.9536 2
35.1963 72.3711 3.99182
37.5256 70.0413 0.0167215
37.5095 72.4567 2
37.5 75 4
39.8162 72.402 0.0089057
39.9526 74.9197 2
42.3947 74.6792 0
39.6241 4.71905 3.98803
41.7356 4.9717 2
42.0629 2.71889 3.99231
43.8512 5.36407 0.0147461
44.3264 3.11165 2
44.8158 0.721173 4
46.5705 3.64966 0.00998964
47.2057 1.27779 2
49.554 1.99015 0
56.9985 40.5603 0.0224812
58.9164 37.5688 0.0230437
53.7386 39.6161 0.0238627
48.0415 41.1639 2
55.6917 37.8762 2
51.5573 39.2225 2
52.4516 36.6245 3.9769
45.9369 40.2325 3.88376
48.9104 38.4866 3.97121
37.5156 6.67816 3.98454
39.4422 6.80957 2
39.2093 8.70375 3.98008
35.9424 8.50092 3.98121
56.3447 34.85 0.0228739
54.617 31.7506 0.0254741
53.4839 28.7404 0.0238959
53.6225 20.3918 0.0356499
52.9888 23.0497 0.0353134
52.9553 25.8792 0.0262006
51.4126 19.6057 0.0131576
49.8644 17.8992 0.0296942
48.8422 15.5095 0.029506
45.3574 8.00579 0.014595
47.7011 13.1778 0.0324818
46.654 10.6995 0.0252579
41.3989 7.08366 0.0167586
42.8647 9.43043 0.0272983
53.5376 34.0782 2
41.0104 9.05936 2
44.7204 10.0115 2
42.4537 10.926 2
52.2646 30.819 2
51.6212 27.6038 2
52.0044 21.3627 2
51.4438 24.5009 2
45.9682 12.7687 2
47.6091 14.6837 2
49.661 20.0298 2
47.9889 17.1163 2
50.9648 33.057 3.97661
50.0884 29.5843 3.9766
49.9198 26.1048 3.97075
49.5558 22.5866 3.97958
40.5574 11.6123 3.98444
43.8231 11.9336 3.96202
45.7391 15.5875 3.98895
47.3617 19.6121 3.97944
44.7918 37.491 3.82842
48.7638 60.139 0.00284313
49.5877 57.4815 0.0351554
50.9888 42.431 0.0164818
50.6647 46.8862 0.0234484
50.4345 50.6432 0.0471827
50.1533 54.2118 0.0403971
46.7301 43.3903 0.0383862
47.8609 58.6297 2
48.7455 44.9565 2
48.3022 55.7558 2
48.5736 52.3571 2
48.7562 48.7087 2
44.5406 39.7174 2
44.9931 42.3499 2
45.3009 45.3593 2
42.3677 41.0093 2
41.3207 41.5662 2
46.6684 57.2244 3.99117
42.9469 39.3591 3.58492
41.6614 40.5254 3.37392
46.979 46.944 3.98894
46.7914 54.0394 3.96062
46.9079 50.4874 3.97492
43.9381 46.9645 3.98623
43.6229 41.6936 3.82486
43.8261 44.0988 3.85484
41.5399 42.2081 3.63978
40.3992 41.8177 3.32399
46.5554 59.7315 0.00650499
45.3889 58.7172 2
43.8012 57.5872 3.99007
37.5632 67.7342 0.0230533
39.6461 65.5917 0.0245969
41.5927 63.7901 0.0216395
42.9329 62.0217 0.0230997
44.5816 60.2164 0.00718152
35.4633 67.6459 2
41.7386 62.4359 2
39.8887 63.5295 2
37.6427 65.4925 2
42.4503 59.9144 2
40.6114 61.5812 3.98412
40.4207 58.0969 3.99103
37.8344 63.1825 3.9738
35.5722 65.4109 3.97478
33.5749 65.3178 2
31.967 63.2618 2
33.6306 63.312 3.98129
30.3882 62.8178 3.9804
32.1372 61.9665 3.99009
26.9007 61.4057 3.98795
28.0741 64.1164 3.98355
29.8878 64.6911 2
29.4093 66.7437 3.97787
31.6985 65.1076 0.0265234
31.378 67.1831 2
31.0159 69.4106 3.98288
33.3928 67.4719 0.0226188
33.1567 69.7467 2
32.8946 72.1453 3.99103
35.334 69.9523 0.0165613
35.1957 72.3717 2
35.0474 74.9194 4
37.5092 72.4561 0.0083552
37.5 75 2
39.9526 74.9197 0
35.6201 6.73039 3.98234
37.524 4.61846 3.98877
39.6238 4.71891 2
39.7894 2.47531 3.99253
41.736 4.97138 0.0121651
42.0627 2.71885 2
42.3946 0.32156 4
44.3263 3.11188 0.00833536
44.8159 0.72056 2
47.2057 1.27793 0
48.0081 41.146 0.0330333
55.6978 37.8804 0.022602
51.5477 39.2296 0.0206507
45.9752 40.2328 2
48.9294 38.4532 2
52.4662 36.6243 2
49.7354 35.5611 3.97786
46.5506 37.7111 3.86132
44.4396 35.2484 3.8243
42.3533 33.9831 3.59497
41.3194 33.3886 3.39356
37.4576 8.53879 3.98374
37.5164 6.67849 2
39.4417 6.80913 0.0188235
39.2097 8.70527 2
38.9706 10.139 3.9913
35.898 9.78431 3.9817
34.1526 8.83332 3.97859
35.9431 8.50116 2
53.5406 34.0789 0.0247375
52.2645 30.8232 0.0252241
51.6136 27.6049 0.0249736
52.0008 21.3581 0.0156351
51.4562 24.4968 0.0275607
49.6481 20.0109 0.0125926
47.989 17.112 0.0263164
47.6158 14.7032 0.0328746
44.7243 10.0119 0.0220003
45.9644 12.7755 0.0337307
41.0119 9.05488 0.0217174
42.454 10.9157 -0.00460871
50.9817 33.0409 2
40.5634 11.6252 2
43.825 11.926 2
50.1024 29.5845 2
49.9238 26.1194 2
49.5432 22.5553 2
45.7225 15.5223 2
47.3697 19.6477 2
48.5599 31.6204 3.98134
48.2455 27.8807 3.97484
48.7464 24.7219 3.97392
46.9295 22.4099 3.99292
38.298 12.7633 3.97829
42.0649 14.4025 3.9849
44.6951 18.7021 3.99075
43.2853 37.4745 3.59604
44.9009 37.4777 2
47.8672 58.6251 0.00970434
48.3061 55.7524 0.0460362
48.7319 44.9409 0.0186218
48.7516 48.7071 0.0297692
48.5736 52.3526 0.0188077
44.4135 39.6938 0.178928
44.9592 42.3214 0.131911
45.293 45.3369 0.0204039
42.3014 40.9464 0.406483
41.2785 41.5401 0.607778
46.6644 57.229 2
43.0381 39.3794 2
41.6818 40.5368 2
46.9851 46.9465 2
46.786 54.0432 2
46.9082 50.4991 2
43.981 46.9757 2
43.6941 41.7483 2
43.8834 44.1339 2
41.5976 42.2993 2
40.4572 41.8379 2
45.1829 55.7819 4.00178
41.9901 39.089 3.38299
40.2691 40.4438 3.44727
45.2913 48.5852 4.00345
45.0308 52.275 3.99322
42.7513 47.9417 3.9897
42.607 45.592 3.8619
42.6681 43.4173 3.80902
40.6403 43.1239 3.60245
39.1259 42.0964 3.40704
45.3938 58.7201 0.00499629
43.7938 57.6017 2
42.0268 56.1294 3.99624
35.4634 67.644 0.0237016
37.6408 65.4886 0.0258033
39.8884 63.5266 0.0223136
41.7405 62.4355 0.0190454
42.4489 59.9142 0.0111815
35.5733 65.4141 2
40.6099 61.5773 2
37.8354 63.1822 2
40.4179 58.1034 2
38.9126 56.2788 3.99621
38.2422 60.2692 3.98554
35.6061 63.1778 3.97307
33.5758 65.3198 0.026073
31.9638 63.2631 0.0188315
33.6331 63.3139 2
30.3907 62.816 2
32.1416 61.9653 2
28.6987 62.1499 3.97759
33.3556 61.4754 3.98489
31.0933 61.1838 3.9932
27.6348 59.5032 3.9789
23.8812 58.9594 3.98353
25.0804 60.7648 3.98002
26.9015 61.4074 2
26.2485 63.4395 3.97412
28.074 64.1116 2
27.4687 66.1591 3.9771
29.8885 64.6943 0.0207876
29.4081 66.7454 2
28.9091 68.9349 3.98194
31.3787 67.1821 0.0219403
31.0142 69.411 2
30.6179 71.7769 3.99041
33.1578 69.7454 0.0167617
32.8932 72.1458 2
32.6054 74.6784 4
35.1963 72.3711 0.00818268
35.0474 74.9197 2
37.5 75 0
33.7231 6.98705 3.98058
35.4362 4.68849 3.98808
35.6211 6.7307 2
37.5153 2.38798 3.9927
37.5237 4.61801 2
39.6241 4.71905 0.0119655
39.7891 2.47514 2
39.9526 0.0806499 4
42.0629 2.71889 0.0076861
42.3947 0.320817 2
44.8158 0.721173 0
42.978 35.5825 3.59274
41.698 34.3942 3.35788
45.9369 40.2325 0.11624
48.9104 38.4866 0.0287889
52.4516 36.6245 0.0230979
46.5616 37.7084 2
49.7639 35.6029 2
44.551 35.2348 2
42.4103 33.9188 2
41.3434 33.3623 2
46.8237 34.456 3.9288
43.6805 33.2429 3.81748
41.5852 32.7243 3.64305
40.4222 33.1191 3.32287
37.308 10.6376 3.98114
37.4586 8.54003 2
37.5156 6.67816 0.0154635
39.2093 8.70375 0.0199185
38.9762 10.1431 2
34.7564 10.3962 3.97643
35.903 9.78298 2
32.3808 9.38355 3.97334
34.1524 8.83314 2
35.9424 8.50092 0.0187885
50.9648 33.057 0.0233909
50.0884 29.5843 0.0234047
49.9198 26.1048 0.0292467
49.5558 22.5866 0.0204178
47.3617 19.6121 0.020555
45.7391 15.5875 0.0110471
43.8231 11.9336 0.0379797
40.5574 11.6123 0.0155584
48.5801 31.604 2
38.2999 12.7644 2
42.0745 14.4019 2
48.2447 27.88 2
48.7483 24.7287 2
46.9204 22.3989 2
44.7027 18.7625 2
46.5322 29.9002 3.979
46.4369 25.4283 3.97891
44.1274 21.704 3.98449
36.589 12.9793 3.97815
38.6634 14.9046 3.97865
41.6812 18.0281 3.98835
42.1573 37.4459 3.40759
43.3674 37.4755 2
44.7918 37.491 0.171584
46.6684 57.2244 0.008831
46.7914 54.0394 0.0393777
46.979 46.944 0.0110633
46.9079 50.4874 0.0250766
42.9469 39.3591 0.415077
43.6229 41.6936 0.17514
43.8261 44.0988 0.145161
43.9381 46.9645 0.0137697
41.5399 42.2081 0.36022
41.6614 40.5254 0.626081
40.3992 41.8177 0.676006
45.1789 55.7845 2
42.0108 39.0968 2
40.3468 40.4356 2
45.2905 48.6096 2
45.0249 52.2784 2
42.8013 47.9658 2
42.6786 45.6594 2
42.7132 43.4505 2
40.7076 43.2122 2
39.0989 42.1316 2
43.5018 54.2113 4.00665
40.3394 38.9465 3.47839
39.0253 40.5387 3.43134
43.0852 50.048 4.00319
41.4373 47.0732 3.91388
41.3543 44.6724 3.80691
39.3678 43.7788 3.58651
37.5105 42.2452 3.47106
43.8012 57.5872 0.00993477
42.0286 56.1195 2
40.3278 54.6932 3.99663
35.5722 65.4109 0.0252156
37.8344 63.1825 0.0261958
40.6114 61.5812 0.0158753
40.4207 58.0969 0.00897052
35.6087 63.1737 2
38.2385 60.2645 2
38.9134 56.264 2
37.9854 54.9563 3.99525
36.9326 57.5059 3.99212
35.3663 60.8712 3.98653
33.6306 63.312 0.018715
30.3882 62.8178 0.0196008
32.1372 61.9665 0.00991242
33.3604 61.4729 2
28.6985 62.1581 2
31.0976 61.1844 2
29.4508 60.2381 3.9852
32.3757 59.6422 3.99617
28.1225 58.2946 4.01653
27.6369 59.5022 2
25.4725 58.4885 3.97752
22.8872 58.1095 3.97245
23.457 60.2296 3.97359
23.8833 58.9602 2
25.0822 60.7652 2
24.4597 62.7063 3.97424
26.9007 61.4057 0.0120463
26.2485 63.4401 2
25.5565 65.4656 3.97421
28.0741 64.1164 0.0164487
27.4671 66.159 2
26.8402 68.3227 3.98051
29.4093 66.7437 0.0221348
28.9068 68.9348 2
28.3735 71.2621 3.98905
31.0159 69.4106 0.0171203
30.6159 71.7765 2
30.1842 74.2788 4
32.8946 72.1453 0.00896665
32.6053 74.6792 2
35.0474 74.9194 0
31.7877 7.42887 3.97787
33.3486 4.92837 3.98655
33.724 6.9868 2
35.2458 2.46385 3.9926
35.4355 4.68872 2
35.6201 6.73039 0.0176558
37.5 0 4
37.5145 2.38779 2
37.524 4.61846 0.0112338
39.7894 2.47531 0.00746617
39.9526 0.0802889 2
42.3946 0.32156 0
41.9879 35.8004 3.34165
43.0804 35.5614 2
40.3262 34.4647 3.45802
41.7096 34.3775 2
46.5506 37.7111 0.138681
49.7354 35.5611 0.0221414
44.4396 35.2484 0.175702
42.3533 33.9831 0.405025
41.3194 33.3886 0.606441
46.8631 34.4586 2
43.7401 33.1845 2
41.6354 32.6372 2
40.4673 33.0991 2
44.989 31.9213 3.88225
42.7146 31.5125 3.79935
40.6852 31.8098 3.60625
39.1297 32.8509 3.40494
35.6977 11.7978 3.97508
37.3163 10.6389 2
37.4576 8.53879 0.0162599
38.9706 10.139 0.00869852
33.1046 11.2396 3.9731
34.7593 10.3921 2
35.898 9.78431 0.0183018
30.4881 10.0371 3.97465
32.3803 9.3836 2
34.1526 8.83332 0.0214078
48.5599 31.6204 0.0186641
48.2455 27.8807 0.0251607
48.7464 24.7219 0.0260768
46.9295 22.4099 0.00708278
44.6951 18.7021 0.00925482
42.0649 14.4025 0.0151039
38.298 12.7633 0.0217136
36.586 12.9681 2
46.5209 29.8418 2
38.6689 14.8805 2
41.6743 18.0225 2
46.4434 25.4153 2
44.1147 21.6911 2
44.6147 28.0547 3.99478
43.3744 24.3528 4.01483
41.2281 21.0515 3.99548
35.7746 14.8145 3.9902
38.6303 17.7695 3.98935
40.395 37.4075 3.50644
42.1834 37.4521 2
43.2853 37.4745 0.40396
45.1829 55.7819 -0.00177959
45.0308 52.275 0.00677827
45.2913 48.5852 -0.00345416
41.9901 39.089 0.617012
42.6681 43.4173 0.190978
42.607 45.592 0.138099
42.7513 47.9417 0.0102974
40.6403 43.1239 0.397551
40.2691 40.4438 0.552729
39.1259 42.0964 0.592958
43.4967 54.2091 2
40.382 38.9502 2
39.0076 40.5429 2
43.0743 50.0699 2
41.4297 47.1 2
41.3772 44.7136 2
37.504 42.2714 2
39.3868 43.864 2
41.654 52.6601 4.00204
39.0376 39.0089 3.42096
37.5071 40.5801 3.49551
35.8944 42.1153 3.40307
40.6553 49.1929 3.99028
39.6054 45.3529 3.77276
37.5084 44.0777 3.63535
42.0268 56.1294 0.00376239
40.3254 54.6996 2
38.6973 53.4292 3.99727
35.6061 63.1778 0.0269258
38.2422 60.2692 0.0144554
38.9126 56.2788 0.00379334
35.3671 60.853 2
36.9325 57.5095 2
37.9775 54.9495 2
36.3388 55.0629 3.99693
34.5025 58.4228 3.99601
33.3556 61.4754 0.0151121
28.6987 62.1499 0.0224117
31.0933 61.1838 0.00679764
32.3745 59.6451 2
29.4536 60.2443 2
30.3811 57.7266 3.98791
28.1246 58.2924 2
27.1252 56.7246 3.96558
27.6348 59.5032 0.0210979
25.4755 58.4887 2
24.0562 56.6601 3.95967
21.5572 57.2388 3.95859
22.0667 59.5076 3.9723
22.8883 58.1111 2
22.7715 61.9266 3.97219
23.4591 60.2298 2
23.8812 58.9594 0.0164662
25.0804 60.7648 0.0199848
24.4601 62.7075 2
23.694 64.6761 3.96978
26.2485 63.4395 0.0258825
25.5555 65.4687 2
24.8128 67.5835 3.97644
27.4687 66.1591 0.0229049
26.8375 68.3242 2
26.169 70.603 3.9885
28.9091 68.9349 0.0180645
28.371 71.2616 2
27.7943 73.7221 4
30.6179 71.7769 0.00958756
30.1841 74.2794 2
32.6054 74.6784 0
29.811 8.00727 3.97547
31.2538 5.33652 3.98496
31.7883 7.42802 2
32.9819 2.70201 3.992
33.3477 4.92843 2
33.7231 6.98705 0.0194195
35.0474 0.080333 4
35.2448 2.46407 2
35.4362 4.68849 0.0119234
37.5 0 2
37.5153 2.38798 0.00730143
39.9526 0.0806499 0
40.4505 35.9188 3.50546
42.0214 35.7996 2
42.978 35.5825 0.407263
28.5505 10.7141 3.9747
39.0285 34.4209 3.41856
40.3385 34.4613 2
41.698 34.3942 0.64212
46.8237 34.456 0.0711957
43.6805 33.2429 0.182516
41.5852 32.7243 0.356954
40.4222 33.1191 0.677126
45.0201 31.9003 2
42.764 31.4705 2
40.7471 31.7233 2
39.1153 32.8126 2
43.4757 30.1986 3.8653
41.3817 30.2516 3.80819
39.3805 31.1613 3.59078
37.5228 32.721 3.46908
34.1038 12.9625 3.97917
35.7013 11.7875 2
37.308 10.6376 0.0188636
31.1958 12.0114 3.97565
33.1068 11.2369 2
34.7564 10.3962 0.023567
30.4849 10.0328 2
32.3808 9.38355 0.0266621
46.5322 29.9002 0.0210005
46.4369 25.4283 0.0210911
36.589 12.9793 0.0218463
44.1274 21.704 0.0155131
41.6812 18.0281 0.0116474
38.6634 14.9046 0.0213518
35.7701 14.8272 2
44.614 28.054 2
38.6378 17.752 2
41.2177 21.029 2
43.3714 24.3298 2
33.6324 15.9211 3.98897
42.5181 26.8424 3.97068
40.7476 23.7152 3.99686
38.3653 20.5776 3.99244
35.832 17.6554 3.98364
39.0551 37.4793 3.41454
40.4214 37.4159 2
42.1573 37.4459 0.592406
43.5018 54.2113 -0.00665478
43.0852 50.048 -0.003186
40.3394 38.9465 0.521613
41.3543 44.6724 0.193086
41.4373 47.0732 0.0861197
39.3678 43.7788 0.413494
39.0253 40.5387 0.56866
37.5105 42.2452 0.528938
41.6432 52.6549 2
39.0163 39.0022 2
37.4981 40.583 2
40.6356 49.1984 2
35.916 42.1466 2
39.6401 45.4253 2
37.5005 44.1586 2
39.684 51.4099 3.99867
37.511 39.0058 3.47802
36.014 40.5604 3.42909
34.6212 41.846 3.32374
35.6484 43.7958 3.58586
38.6011 48.0199 3.92188
37.505 45.6454 3.80623
40.3278 54.6932 0.0033749
38.6911 53.4445 2
36.7667 52.7957 3.99761
35.3663 60.8712 0.0134701
36.9326 57.5059 0.00788279
37.9854 54.9563 0.00475101
34.5011 58.4379 2
36.3422 55.0554 2
33.3289 55.2618 3.99981
32.3757 59.6422 0.00382821
29.4508 60.2381 0.0147998
30.3827 57.7167 2
28.9431 55.2319 3.99454
28.1225 58.2946 -0.0165348
27.1284 56.7216 2
25.6298 54.9862 3.9547
22.1797 55.148 3.95876
25.4725 58.4885 0.0224826
24.0581 56.6618 2
20.448 56.8682 3.9616
20.7549 58.6546 3.95885
21.5599 57.2403 2
21.2091 61.0634 3.96896
22.0671 59.507 2
22.8872 58.1095 0.0275505
21.9139 63.7758 3.97167
22.7724 61.9275 2
23.457 60.2296 0.0264087
24.4597 62.7063 0.0257575
23.6933 64.6775 2
22.8411 66.7235 3.97355
25.5565 65.4656 0.0257905
24.8102 67.5807 2
24.0133 69.8045 3.9874
26.8402 68.3227 0.0194937
26.1654 70.6024 2
25.446 73.0099 4
28.3735 71.2621 0.0109519
27.7943 73.7222 2
30.1842 74.2788 0
27.8216 8.66925 3.97545
29.1562 5.88447 3.982
29.8105 8.00376 2
30.7275 3.09942 3.99133
31.2529 5.33548 2
31.7877 7.42887 0.0221262
32.6053 0.320823 4
32.9805 2.70222 2
33.3486 4.92837 0.0134501
35.0474 0.0802903 2
35.2458 2.46385 0.00739761
37.5 0 0
38.9658 35.9547 3.42992
40.4295 35.9145 2
41.9879 35.8004 0.658347
28.5465 10.7108 2
26.6335 11.4137 3.97379
29.2378 12.6655 3.97778
37.5302 34.3904 3.49587
39.0517 34.4318 2
40.3262 34.4647 0.541982
44.989 31.9213 0.117748
42.7146 31.5125 0.200646
40.6852 31.8098 0.393751
39.1297 32.8509 0.59506
43.5063 30.1702 2
41.4204 30.205 2
39.3963 31.0771 2
37.5314 32.6926 2
41.7968 28.9202 3.85307
39.6187 29.5765 3.79541
37.5186 30.8758 3.63628
35.9071 32.8616 3.41021
31.9411 14.5093 3.98405
34.1069 12.9659 2
35.6977 11.7978 0.0249187
31.1961 12.0018 2
33.1046 11.2396 0.0268958
30.4881 10.0371 0.0253523
44.6147 28.0547 0.0052187
43.3744 24.3528 -0.0148262
35.7746 14.8145 0.00980124
41.2281 21.0515 0.00451974
38.6303 17.7695 0.0106502
33.6162 15.9143 2
35.8404 17.5864 2
42.5864 26.8122 2
38.3428 20.613 2
40.7351 23.7219 2
33.571 17.4625 3.99106
40.1986 26.2144 3.96487
38.0139 23.4822 3.99711
35.5229 20.3828 3.99579
37.5307 37.4722 3.49639
39.0223 37.4705 2
40.395 37.4075 0.493556
41.654 52.6601 -0.00203838
40.6553 49.1929 0.0097179
39.0376 39.0089 0.579035
39.6054 45.3529 0.227235
37.5084 44.0777 0.364645
37.5071 40.5801 0.504491
35.8944 42.1153 0.596935
39.6667 51.4034 2
37.5033 39.0076 2
36.002 40.5408 2
38.6226 48.0865 2
34.5708 41.8661 2
35.6257 43.8801 2
37.5011 45.708 2
37.6749 50.3677 3.98987
36.0568 39.0272 3.43413
34.7303 40.4809 3.45957
33.7269 41.5751 3.39533
34.3821 43.1528 3.59805
35.3584 45.4149 3.80079
36.9276 47.6427 3.87835
38.6973 53.4292 0.00272923
36.7792 52.7405 2
34.5147 52.122 4.00074
34.5025 58.4228 0.00398929
36.3388 55.0629 0.00306568
33.3352 55.2707 2
30.8064 53.2105 3.99759
30.3811 57.7266 0.0120852
28.9471 55.2333 2
27.297 53.2443 3.9547
27.1252 56.7246 0.0344216
25.6337 54.9877 2
24.0697 53.241 3.95329
21.0736 52.963 3.95856
20.2859 55.639 3.96056
22.1798 55.1483 2
24.0562 56.6601 0.0403274
19.6035 57.7511 3.96111
20.4425 56.8718 2
19.7486 60.1063 3.96937
20.7446 58.6593 2
21.5572 57.2388 0.0414148
20.2336 62.7725 3.9709
21.2138 61.0641 2
22.0667 59.5076 0.0277025
20.9446 65.7436 3.9709
21.9135 63.7789 2
22.7715 61.9266 0.0278061
23.694 64.6761 0.0302231
22.8392 66.7213 2
21.9161 68.8705 3.98516
24.8128 67.5835 0.0235638
24.0095 69.8019 2
23.1494 72.1454 4
26.169 70.603 0.011499
25.446 73.0099 2
27.7943 73.7221 0
25.8619 9.40025 3.97354
27.0712 6.55018 3.98
27.8195 8.66577 2
28.4901 3.64539 3.99005
29.1545 5.88296 2
29.811 8.00727 0.0245299
30.1841 0.720592 4
30.7253 3.09927 2
31.2538 5.33652 0.0150393
32.6053 0.320817 2
32.9819 2.70201 0.00800022
35.0474 0.080333 0
37.5217 35.9447 3.46739
38.9444 35.9247 2
40.4505 35.9188 0.494537
24.7947 12.0893 3.97019
23.7872 14.478 3.98026
28.5505 10.7141 0.0253009
26.6279 11.4116 2
29.2376 12.6623 2
27.3038 13.425 3.97253
29.812 14.2208 3.99281
36.0032 34.4196 3.43809
37.5461 34.3838 2
39.0285 34.4209 0.581445
37.5228 32.721 0.530924
43.4757 30.1986 0.1347
41.3817 30.2516 0.191808
39.3805 31.1613 0.409224
41.8273 28.8449 2
39.6451 29.5076 2
37.5215 30.7997 2
35.9299 32.8293 2
39.8031 28.201 3.8524
37.4865 29.2965 3.79404
35.6657 31.1841 3.58858
34.6209 33.1385 3.32859
30.9767 16.8685 3.99645
31.9365 14.4945 2
34.1038 12.9625 0.0208255
31.1958 12.0114 0.0243456
42.5181 26.8424 0.0293216
40.7476 23.7152 0.00314217
33.6324 15.9211 0.0110305
35.832 17.6554 0.0163631
38.3653 20.5776 0.00755536
33.5454 17.4933 2
35.5068 20.4321 2
40.2147 26.1887 2
38.0333 23.4745 2
32.9744 19.9605 3.998
37.7429 25.875 3.95917
35.3647 23.136 4.01043
36.0234 37.4691 3.42039
37.5098 37.4718 2
39.0551 37.4793 0.585456
39.684 51.4099 0.0013331
38.6011 48.0199 0.078117
37.511 39.0058 0.521975
37.505 45.6454 0.193766
35.6484 43.7958 0.414142
36.014 40.5604 0.570909
34.6212 41.846 0.676257
37.6475 50.4043 2
36.0998 39.013 2
34.6738 40.4932 2
36.9296 47.708 2
33.6857 41.6034 2
34.317 43.2339 2
35.3259 45.4744 2
35.5781 49.5722 3.98102
34.6259 39.0101 3.50012
33.3465 40.5693 3.36098
33.4691 42.2404 3.64205
33.6955 44.6932 3.79803
34.6469 46.8135 3.85472
36.7667 52.7957 0.00239326
34.4963 52.1547 2
32.3663 50.9354 4.00169
33.3289 55.2618 0.000189644
30.8097 53.2061 2
28.9236 51.3013 3.989
28.9431 55.2319 0.00545522
27.302 53.2466 2
25.6846 51.4655 3.95308
25.6298 54.9862 0.0452995
24.0739 53.2451 2
22.662 51.5154 3.95599
19.9838 51.3406 3.96397
19.4418 54.0773 3.96122
21.0781 52.9614 2
18.7327 56.5564 3.96201
20.2837 55.6414 2
22.1797 55.148 0.0412437
18.4559 59.0044 3.95765
19.6013 57.7539 2
20.448 56.8682 0.0383971
18.6391 61.6882 3.97681
19.7511 60.1102 2
20.7549 58.6546 0.0411471
19.1387 64.6314 3.97059
20.2347 62.7744 2
21.2091 61.0634 0.0310433
19.8901 67.8071 3.98325
20.9425 65.7425 2
21.9139 63.7758 0.0283277
22.8411 66.7235 0.02645
21.9119 68.8678 2
20.9142 71.1327 4
24.0133 69.8045 0.0125953
23.1494 72.1455 2
25.446 73.0099 0
23.1154 12.8851 3.97751
23.976 10.1842 3.97432
25.0248 7.32188 3.97683
25.8595 9.39965 2
26.2822 4.33013 3.98878
27.0682 6.5491 2
27.8216 8.66925 0.0245476
27.7943 1.27781 4
28.4869 3.6461 2
29.1562 5.88447 0.0179961
30.1841 0.720551 2
30.7275 3.09942 0.00867205
32.6053 0.320823 0
36.0017 35.9393 3.42552
37.5596 35.9568 2
38.9658 35.9547 0.570078
24.7832 12.1251 2
23.7852 14.4886 2
22.5313 15.1609 3.9839
25.3804 14.0221 3.97325
24.0971 15.7331 4.00596
26.6335 11.4137 0.0262135
29.2378 12.6655 0.022218
27.3134 13.4014 2
29.8057 14.2202 2
28.4182 15.9874 3.9923
34.7535 34.5049 3.44924
36.024 34.4178 2
37.5302 34.3904 0.504127
35.9071 32.8616 0.589787
37.5186 30.8758 0.363717
41.7968 28.9202 0.146928
39.6187 29.5765 0.204588
39.8556 28.1431 2
37.4947 29.2468 2
35.6473 31.0984 2
34.5693 33.1192 2
37.6323 27.9219 3.85193
35.419 29.5965 3.79306
34.3724 31.8308 3.60428
33.7336 33.4132 3.39492
30.3168 19.5981 3.98143
30.9473 16.8693 2
31.9411 14.5093 0.0159492
40.1986 26.2144 0.0351349
38.0139 23.4822 0.00288813
33.571 17.4625 0.00893728
35.5229 20.3828 0.00420954
32.9855 19.9853 2
35.3178 23.1206 2
37.7271 25.8545 2
32.6016 22.7137 4.00247
35.2315 25.7468 3.98407
34.6121 37.5059 3.52165
36.0181 37.4897 2
37.5307 37.4722 0.503614
37.6749 50.3677 0.0101253
36.9276 47.6427 0.12165
36.0568 39.0272 0.56587
35.3584 45.4149 0.199207
34.3821 43.1528 0.401946
34.7303 40.4809 0.540435
33.7269 41.5751 0.604675
35.5561 49.5853 2
34.6035 39.0178 2
33.3293 40.5783 2
34.5795 46.8897 2
33.4123 42.3309 2
33.6536 44.7395 2
33.5648 48.707 3.97197
33.0348 39.148 3.3469
32.6842 40.9796 3.59358
32.3361 43.4511 3.80504
32.9234 45.818 3.85093
34.5147 52.122 -0.000738662
32.3819 50.9322 2
30.5215 49.4451 4.00417
30.8064 53.2105 0.00240655
28.9313 51.3087 2
27.2458 49.6696 3.97631
27.297 53.2443 0.0453008
25.6882 51.4632 2
24.1464 49.8628 3.96816
24.0697 53.241 0.0467055
22.6677 51.5127 2
21.3494 49.9891 3.96716
18.7181 50.0598 3.97274
18.4903 52.5366 3.96622
19.9777 51.3409 2
17.8778 55.1402 3.96224
19.4393 54.0778 2
21.0736 52.963 0.0414374
17.3281 57.7441 3.95821
18.7335 56.5573 2
20.2859 55.639 0.0394359
17.1649 60.4767 3.95573
18.4541 59.0079 2
19.6035 57.7511 0.038893
17.4182 63.4163 3.97003
18.6395 61.6916 2
19.7486 60.1063 0.03063
17.9462 66.6134 3.97889
19.136 64.6294 2
20.2336 62.7725 0.0291042
18.75 69.9759 4
19.8863 67.8028 2
20.9446 65.7436 0.0291016
21.9161 68.8705 0.014839
20.9142 71.1327 2
23.1494 72.1454 0
21.6179 13.7148 3.96645
22.2002 11.0715 3.96801
23.1154 12.8781 2
23.0417 8.18935 3.97401
23.9747 10.1988 2
24.1202 5.1446 3.98837
25.0209 7.32173 2
25.8619 9.40025 0.026459
25.446 1.99014 4
26.2778 4.33111 2
27.0712 6.55018 0.0200045
27.7943 1.27778 2
28.4901 3.64539 0.0099491
30.1841 0.720592 0
34.6915 35.9839 3.48227
36.0283 35.9497 2
37.5217 35.9447 0.532613
21.3822 15.9621 3.96027
24.7947 12.0893 0.0298076
23.7872 14.478 0.0197393
25.3794 13.9988 2
22.5314 15.1494 2
24.0992 15.7432 2
23.3675 16.3706 3.96408
25.453 16.2153 3.98624
27.3038 13.425 0.0274727
29.812 14.2208 0.00718917
28.4109 16.0068 2
27.5566 19.0115 3.98142
33.3523 34.4247 3.37868
34.677 34.5133 2
36.0032 34.4196 0.561909
34.6209 33.1385 0.671407
35.6657 31.1841 0.411416
37.4865 29.2965 0.20596
39.8031 28.201 0.147602
37.5889 27.888 2
33.6972 33.39 2
35.4056 29.5295 2
34.3176 31.7475 2
35.2995 28.0146 3.86745
33.6792 30.2786 3.8014
33.4639 32.7392 3.64651
29.9241 22.209 4.00833
30.3163 19.5902 2
30.9767 16.8685 0.00355412
37.7429 25.875 0.0408269
35.3647 23.136 -0.0104296
32.9744 19.9605 0.00199737
32.5858 22.6761 2
35.2472 25.7387 2
32.2304 26.0202 4.01078
32.8614 37.4973 3.40008
34.6077 37.4971 2
36.0234 37.4691 0.579608
35.5781 49.5722 0.0189788
34.6469 46.8135 0.14528
34.6259 39.0101 0.499876
33.6955 44.6932 0.20197
33.4691 42.2404 0.357954
33.3465 40.5693 0.639024
33.5538 48.6944 2
33.0323 39.1561 2
32.6271 41.0427 2
32.9137 45.8784 2
32.2921 43.4823 2
31.8947 47.5194 3.98663
32.0608 39.3837 3.59427
31.3616 41.728 3.81991
31.4509 44.4711 3.85653
32.3663 50.9354 -0.00168837
30.5286 49.4713 2
28.7756 47.8628 3.97438
28.9236 51.3013 0.0110046
27.2464 49.6715 2
25.6145 48.1088 3.97456
25.6846 51.4655 0.0469212
24.1497 49.8602 2
22.6706 48.4218 3.97161
22.662 51.5154 0.0440072
21.3499 49.987 2
19.8721 48.7894 3.97521
17.5845 49.0864 3.97622
17.3992 51.1714 3.97198
18.7195 50.0585 2
16.8989 53.6626 3.9671
18.4877 52.5366 2
19.9838 51.3406 0.03603
16.2952 56.321 3.96143
17.8751 55.1412 2
19.4418 54.0773 0.038784
15.826 59.1315 3.95603
17.3262 57.7463 2
18.7327 56.5564 0.0379913
15.7937 62.086 3.97039
17.1661 60.4791 2
18.4559 59.0044 0.0423483
16.0934 65.2943 3.97673
17.4154 63.4259 2
18.6391 61.6882 0.0231927
16.6661 68.6801 4
17.9429 66.6086 2
19.1387 64.6314 0.0294093
18.75 69.9759 2
19.8901 67.8071 0.0167535
20.9142 71.1327 0
20.2586 14.7078 3.97005
21.6203 13.7139 2
20.5474 12.0829 3.97219
21.1457 9.16477 3.97368
22.1946 11.0845 2
23.1154 12.8851 0.0224929
22.0198 6.08366 3.98681
23.0387 8.19322 2
23.976 10.1842 0.0256795
23.1494 2.85457 4
24.1148 5.1471 2
25.0248 7.32188 0.0231666
25.446 1.99012 2
26.2822 4.33013 0.0112223
27.7943 1.27781 0
33.0172 35.8578 3.38372
34.6411 35.9843 2
36.0017 35.9393 0.574477
21.3886 15.9513 2
20.4443 17.0992 3.95906
22.2059 16.7663 3.95524
25.3804 14.0221 0.0267499
22.5313 15.1609 0.0161047
24.0971 15.7331 -0.00596144
25.4525 16.2184 2
23.3716 16.3668 2
24.3406 18.6781 3.98324
27.3687 21.8062 3.99417
28.4182 15.9874 0.00769834
27.5466 19.0328 2
32.7054 33.9967 3.5912
33.3332 34.4169 2
34.7535 34.5049 0.550757
33.7336 33.4132 0.605079
34.3724 31.8308 0.395716
35.419 29.5965 0.20694
37.6323 27.9219 0.148072
35.2842 27.9658 2
33.4175 32.6565 2
33.635 30.2262 2
33.1497 28.646 3.8769
32.3361 31.5187 3.8016
29.3881 24.6742 4.01594
29.8996 22.2022 2
30.3168 19.5981 0.018569
35.2315 25.7468 0.0159273
32.6016 22.7137 -0.00247056
32.2202 25.9857 2
30.4813 27.6998 3.98357
31.7382 37.4817 3.5901
32.8527 37.4975 2
34.6121 37.5059 0.478347
33.5648 48.707 0.0280303
32.9234 45.818 0.149068
33.0348 39.148 0.653099
32.3361 43.4511 0.194965
32.6842 40.9796 0.406424
31.843 47.5491 2
31.9648 39.3954 2
31.2972 41.7861 2
31.3889 44.5233 2
30.2308 46.1372 3.98253
30.5939 39.7274 3.82737
30.051 42.8044 3.8759
30.5215 49.4451 -0.00416764
28.7764 47.8677 2
27.0754 46.2768 3.97972
27.2458 49.6696 0.0236873
25.6175 48.1061 2
23.9628 46.6829 3.97586
24.1464 49.8628 0.0318365
22.6696 48.4205 2
20.9354 47.2923 3.97589
21.3494 49.9891 0.032839
19.8706 48.7882 2
18.4671 47.9122 3.97636
16.8259 48.4542 3.97604
17.5838 49.0864 2
16.4464 49.9536 3.97507
15.8812 52.2223 3.97203
17.4009 51.1705 2
18.7181 50.0598 0.0272598
15.2399 54.8189 3.96502
16.8995 53.6622 2
18.4903 52.5366 0.0337827
14.6171 57.6475 3.95829
16.295 56.3219 2
17.8778 55.1402 0.0377621
14.2769 60.6556 3.96407
15.8235 59.1341 2
17.3281 57.7441 0.0417894
14.3382 63.8533 3.97288
15.797 62.0871 2
17.1649 60.4767 0.0442743
14.6715 67.2507 4
16.0897 65.2903 2
17.4182 63.4163 0.0299704
16.6661 68.6801 2
17.9462 66.6134 0.0211075
18.75 69.9759 0
19.0024 15.896 3.95854
20.2633 14.6975 2
19.0037 13.2033 3.9703
21.6179 13.7148 0.0335513
20.5428 12.0846 2
19.3497 10.2626 3.97119
19.9948 7.1483 3.98482
21.1419 9.16338 2
22.2002 11.0715 0.0319897
20.9142 3.86727 4
22.0138 6.0872 2
23.0417 8.18935 0.025993
23.1494 2.85451 2
24.1202 5.1446 0.0116274
25.446 1.99014 0
32.0816 35.593 3.58311
33.0104 35.8508 2
34.6915 35.9839 0.51773
21.3822 15.9621 0.0397262
22.2118 16.7603 2
20.4497 17.098 2
19.5075 18.59 3.95753
21.9226 18.0611 3.98729
25.453 16.2153 0.013757
23.3675 16.3706 0.0359225
24.3347 18.6937 2
22.6089 20.1315 3.97226
24.9608 21.6572 3.99185
27.0246 23.9625 3.98458
27.3661 21.7189 2
27.5566 19.0115 0.0185844
31.3943 33.2539 3.81909
32.6456 33.9462 2
33.3523 34.4247 0.621325
33.4639 32.7392 0.353489
33.6792 30.2786 0.198595
35.2995 28.0146 0.132548
33.108 28.605 2
32.2736 31.4616 2
31.142 30.0112 3.89535
28.7687 26.8664 4.00954
29.376 24.6861 2
29.9241 22.209 -0.00833277
32.2304 26.0202 -0.0107784
30.4697 27.6768 2
30.2268 37.4692 3.8277
31.6452 37.4803 2
32.8614 37.4973 0.599918
31.8947 47.5194 0.0133724
31.4509 44.4711 0.143467
32.0608 39.3837 0.405729
31.3616 41.728 0.180089
30.2386 46.1453 2
30.4925 39.7353 2
30.02 42.8349 2
28.5823 44.4765 3.96487
28.3389 40.4089 3.92079
28.7756 47.8628 0.0256184
27.0767 46.2758 2
25.3052 44.7983 3.98031
25.6145 48.1088 0.0254399
23.9627 46.6812 2
22.0114 45.6043 3.97726
22.6706 48.4218 0.0283863
20.9358 47.291 2
19.2406 46.4741 3.97579
19.8721 48.7894 0.0247912
18.4674 47.912 2
17.089 47.485 3.97557
16.8272 48.4545 2
15.8109 48.8087 3.97529
17.5845 49.0864 0.0237758
16.4479 49.9528 2
14.9847 50.8064 3.97437
14.1951 53.2898 3.96963
15.8821 52.2217 2
17.3992 51.1714 0.0280165
13.4745 56.0699 3.96101
15.2401 54.8191 2
16.8989 53.6626 0.0328968
12.8748 59.0972 3.95572
14.6161 57.6493 2
16.2952 56.321 0.0385713
12.6841 62.2933 3.96791
14.2803 60.6569 2
15.826 59.1315 0.0439733
12.7746 65.6939 4
14.3347 63.8464 2
15.7937 62.086 0.0296121
14.6714 67.2507 2
16.0934 65.2943 0.0232687
16.6661 68.6801 0
17.8529 17.2979 3.95907
19.0071 15.8876 2
17.5443 14.4548 3.96594
20.2586 14.7078 0.0299508
19.0015 13.1969 2
17.6528 11.5106 3.97132
20.5474 12.0829 0.0278108
19.3454 10.2772 2
18.0544 8.34159 3.98202
18.75 5.0241 4
19.9883 7.15414 2
21.1457 9.16477 0.0263159
20.9142 3.86727 2
22.0198 6.08366 0.013193
23.1494 2.85457 0
30.6013 35.2687 3.82191
31.9844 35.5726 2
33.0172 35.8578 0.616285
22.2059 16.7663 0.0447568
20.4443 17.0992 0.0409365
21.9269 18.056 2
19.5015 18.5875 2
18.4104 20.1602 3.96365
21.1741 19.6063 3.97505
24.3406 18.6781 0.016761
22.6068 20.1276 2
24.9725 21.6226 2
22.8588 21.9967 3.97903
25.3398 23.3103 3.98283
26.3939 26.2464 3.98177
27.0262 23.9622 2
27.3687 21.8062 0.00583404
29.8117 32.6244 3.87578
31.312 33.2059 2
32.7054 33.9967 0.408797
32.3361 31.5187 0.198398
33.1497 28.646 0.1231
31.1213 29.9888 2
28.207 29.481 4.00884
28.7487 26.8808 2
29.3881 24.6742 -0.0159434
30.4813 27.6998 0.0164317
28.5582 37.397 3.86053
30.134 37.482 2
31.7382 37.4817 0.409896
30.2308 46.1372 0.0174682
30.051 42.8044 0.124099
30.5939 39.7274 0.172631
28.5851 44.5347 2
28.2964 40.4198 2
26.7261 42.9494 3.97929
25.6533 39.4036 3.97768
27.0754 46.2768 0.0202825
25.2966 44.8049 2
23.2485 43.6401 3.97536
23.9628 46.6829 0.0241419
22.0095 45.6054 2
20.0645 44.718 3.97507
20.9354 47.2923 0.0241086
19.2404 46.4749 2
17.4695 45.991 3.97545
18.4671 47.9122 0.0236415
17.0894 47.4852 2
15.5919 47.478 3.97521
16.8259 48.4542 0.0239553
15.8127 48.8084 2
14.3022 49.376 3.97502
16.4464 49.9536 0.0249349
14.9857 50.8058 2
13.2621 51.7422 3.97273
12.3666 54.4374 3.96382
14.1958 53.2895 2
15.8812 52.2223 0.0279684
11.6094 57.4245 3.95872
13.4737 56.0705 2
15.2399 54.8189 0.0349792
11.1402 60.6204 3.96737
12.8783 59.0959 2
14.6171 57.6475 0.0417066
10.9835 64.0165 4
12.6825 62.2865 2
14.2769 60.6556 0.0359309
12.7745 65.694 2
14.3382 63.8533 0.0271231
14.6715 67.2507 0
16.6951 18.8132 3.96067
17.8505 17.2915 2
16.1762 15.8659 3.95595
19.0024 15.896 0.0414587
17.5472 14.4513 2
16.0316 12.8622 3.96567
19.0037 13.2033 0.0297044
17.6466 11.5144 2
16.2064 9.66857 3.97576
19.3497 10.2626 0.0288064
18.0491 8.34884 2
16.6661 6.31991 4
18.75 5.02404 2
19.9948 7.1483 0.0151796
20.9142 3.86727 0
29.0005 34.8977 3.8852
30.4856 35.2297 2
32.0816 35.593 0.416888
17.1504 21.5907 3.96996
21.9226 18.0611 0.0127069
19.5075 18.59 0.0424715
21.1667 19.6012 2
18.4017 20.1565 2
20.2856 21.848 3.97385
22.6089 20.1315 0.0277365
24.9608 21.6572 0.00814653
22.8583 21.9931 2
25.3191 23.3711 2
23.7021 24.9057 3.97148
25.7765 28.847 3.98425
26.3811 26.2557 2
27.0246 23.9625 0.0154248
27.6804 31.9804 3.97792
29.765 32.6034 2
31.3943 33.2539 0.180908
31.142 30.0112 0.104652
28.2226 29.4389 2
28.7687 26.8664 -0.00953837
26.3661 36.8808 3.95916
28.5217 37.3886 2
30.2268 37.4692 0.172303
28.5823 44.4765 0.0351325
28.3389 40.4089 0.0792131
26.7021 42.9787 2
25.6123 39.3993 2
24.496 41.6426 3.97749
23.344 38.5129 3.97569
25.3052 44.7983 0.0196908
23.2474 43.6444 2
20.966 42.6841 3.97474
22.0114 45.6043 0.0227406
20.066 44.7187 2
17.8942 44.1839 3.97508
19.2406 46.4741 0.0242092
17.4697 45.9918 2
15.5644 45.9142 3.97532
17.089 47.485 0.0244309
15.5924 47.4781 2
13.838 47.8531 3.97508
15.8109 48.8087 0.0247072
14.3034 49.3754 2
12.4997 50.1292 3.97472
14.9847 50.8064 0.0256279
13.2631 51.7417 2
11.3578 52.7568 3.96637
10.4128 55.6795 3.96057
12.3666 54.4374 2
14.1951 53.2898 0.0303704
9.7063 58.8457 3.96993
11.6135 57.4234 2
13.4745 56.0699 0.038989
9.30605 62.2254 4
11.1386 60.6142 2
12.8748 59.0972 0.0442814
10.9835 64.0165 2
12.6841 62.2933 0.0320923
12.7746 65.6939 0
15.5004 20.3504 3.96513
16.7079 18.812 2
14.904 17.403 3.95771
17.8529 17.2979 0.0409328
16.1743 15.8609 2
14.494 14.3351 3.96618
17.5443 14.4548 0.0340565
16.0336 12.8574 2
14.4502 11.1206 3.97407
17.6528 11.5106 0.0286838
16.2017 9.67674 2
14.6715 7.74927 4
18.0544 8.34159 0.0179833
16.6661 6.31988 2
18.75 5.0241 0
26.9557 34.4146 3.97241
28.9737 34.906 2
30.6013 35.2687 0.178091
18.444 22.579 3.97481
16.052 23.129 3.97256
17.1487 21.5888 2
21.1741 19.6063 0.02495
18.4104 20.1602 0.0363549
20.2847 21.8456 2
20.4482 24.699 3.9723
22.8588 21.9967 0.0209721
25.3398 23.3103 0.0171662
23.6946 24.9001 2
23.1443 28.1969 3.97125
25.2491 31.5044 3.98315
25.7867 28.804 2
26.3939 26.2464 0.018228
27.6471 31.9489 2
29.8117 32.6244 0.124224
28.207 29.481 -0.00884042
24.0957 36.334 3.97796
26.3323 36.8728 2
28.5582 37.397 0.13947
26.7261 42.9494 0.0207087
25.6533 39.4036 0.0223216
24.4677 41.6472 2
23.3437 38.5099 2
22.1255 40.5253 3.97551
21.4253 37.7851 3.97789
23.2485 43.6401 0.0246429
20.9672 42.6833 2
18.3802 41.9596 3.97568
20.0645 44.718 0.0249322
17.8945 44.1842 2
15.6128 44.0497 3.97525
17.4695 45.991 0.0245511
15.564 45.9145 2
13.5392 46.1593 3.97517
15.5919 47.478 0.0247864
13.8385 47.8529 2
11.889 48.4343 3.9752
14.3022 49.376 0.0249841
12.5011 50.1285 2
10.4927 51.0074 3.96868
13.2621 51.7422 0.0272724
11.3586 52.7562 2
9.31761 53.8629 3.96189
8.39043 56.9811 3.97082
10.4144 55.6782 2
12.3666 54.4374 0.0361817
7.74927 60.3285 4
9.70528 58.8406 2
11.6094 57.4245 0.0412835
9.306 62.2255 2
11.1402 60.6204 0.0326277
10.9835 64.0165 0
14.3293 21.9048 3.9702
15.5017 20.3474 2
13.647 19.0003 3.96131
16.6951 18.8132 0.0393289
14.9032 17.3997 2
13.0468 15.9183 3.96028
16.1762 15.8659 0.0440478
14.501 14.332 2
12.7877 12.6948 3.97009
16.0316 12.8622 0.0343256
14.4463 11.1296 2
12.7746 9.30605 4
16.2064 9.66857 0.0242448
14.6715 7.74924 2
16.6661 6.31991 0
24.6279 33.9202 3.98218
26.9302 34.4025 2
29.0005 34.8977 0.1148
18.3285 24.3191 3.97305
18.4518 22.5794 2
14.866 24.6407 3.97408
16.0512 23.1271 2
17.1504 21.5907 0.0300356
20.015 27.5075 3.97319
20.2856 21.848 0.0261479
20.4511 24.6983 2
22.5303 30.9379 3.97393
23.7021 24.9057 0.0285174
23.1409 28.2032 2
25.2024 31.5341 2
25.7765 28.847 0.0157458
27.6804 31.9804 0.0220768
21.5216 35.9798 3.97775
24.0863 36.3333 2
26.3661 36.8808 0.0408395
24.496 41.6426 0.0225138
23.344 38.5129 0.0243112
22.1296 40.5248 2
21.4289 37.7863 2
19.1602 38.961 3.97707
20.966 42.6841 0.0252578
18.3799 41.9596 2
15.5952 41.8223 3.97586
17.8942 44.1839 0.0249195
15.6119 44.05 2
13.2988 44.2816 3.97544
15.5644 45.9142 0.0246764
13.5389 46.1594 2
11.4033 46.6323 3.97527
13.838 47.8531 0.0249241
11.8908 48.4335 2
9.76208 49.1748 3.97128
12.4997 50.1292 0.0252845
10.494 51.0065 2
8.3433 51.9805 3.96298
11.3578 52.7568 0.0336314
9.31608 53.8618 2
7.19912 55.0335 3.97166
6.31991 58.3339 4
8.3892 56.9765 2
10.4128 55.6795 0.0394347
7.74924 60.3285 2
9.7063 58.8457 0.0300704
9.30605 62.2254 0
13.7114 25.5238 3.97598
13.2192 23.4221 3.97365
14.331 21.9024 2
12.4625 20.6443 3.96428
15.5004 20.3504 0.0348681
13.6417 18.9964 2
11.7064 17.5959 3.95853
14.904 17.403 0.0422869
13.0562 15.9158 2
11.2264 14.3814 3.9657
14.494 14.3351 0.0338206
12.7865 12.7038 2
10.9835 10.9835 4
14.4502 11.1206 0.0259277
12.7745 9.306 2
14.6715 7.74927 0
21.8926 33.5678 3.97652
24.6294 33.8988 2
26.9557 34.4146 0.0275858
16.6429 26.6282 3.97426
18.3327 24.3186 2
18.444 22.579 0.0251859
14.8625 24.6399 2
16.052 23.129 0.0274428
19.4145 30.4051 3.9747
20.0176 27.5062 2
20.4482 24.699 0.0277045
22.5467 30.9349 2
23.1443 28.1969 0.0287527
25.2491 31.5044 0.0168486
18.7356 36.018 3.97777
21.5219 35.9806 2
24.0957 36.334 0.0220419
22.1255 40.5253 0.0244851
21.4253 37.7851 0.0221065
19.1607 38.9599 2
15.0768 39.1435 3.97686
18.3802 41.9596 0.0243158
15.5945 41.822 2
12.9852 42.2035 3.97595
15.6128 44.0497 0.0247471
13.2981 44.2815 2
10.9867 44.7227 3.97593
13.5392 46.1593 0.0248328
11.4051 46.6318 2
9.13713 47.2638 3.97399
11.889 48.4343 0.0247955
9.76391 49.1738 2
7.49925 50.0182 3.96402
10.4927 51.0074 0.0313156
8.34113 51.9795 2
6.13937 53.009 3.97186
9.31761 53.8629 0.0381134
7.19852 55.0294 2
5.0241 56.25 4
6.31988 58.3339 2
8.39043 56.9811 0.0291835
7.74927 60.3285 0
14.0135 26.9728 3.97496
12.3257 24.9138 3.97517
13.709 25.5225 2
11.385 22.3214 3.96749
13.2205 23.4205 2
14.3293 21.9048 0.0298011
12.4593 20.6416 2
10.4814 19.3538 3.96038
13.647 19.0003 0.0386856
11.7235 17.5967 2
9.7669 16.1623 3.96933
13.0468 15.9183 0.0397247
11.2262 14.3873 2
9.30607 12.7746 4
12.7877 12.6948 0.0299063
10.9835 10.9835 2
12.7746 9.30605 0
18.9055 33.232 3.97559
21.89 33.5708 2
24.6279 33.9202 0.0178154
16.2729 29.8159 3.97512
16.6416 26.6279 2
18.3285 24.3191 0.0269498
14.866 24.6407 0.0259172
19.4078 30.4046 2
20.015 27.5075 0.0268063
22.5303 30.9379 0.0260716
15.7242 36.051 3.9772
18.7353 36.0185 2
21.5216 35.9798 0.022247
13.2175 37.8268 3.977
19.1602 38.961 0.022929
15.0765 39.1433 2
12.4724 40.1023 3.97645
15.5952 41.8223 0.0241379
12.9841 42.2033 2
10.5791 42.7234 3.97611
13.2988 44.2816 0.0245559
10.9881 44.7222 2
8.60628 45.2768 3.9753
11.4033 46.6323 0.0247255
9.13932 47.2627 2
6.77792 47.9875 3.96451
9.76208 49.1748 0.0287218
7.49672 50.0173 2
5.21554 50.9121 3.97185
8.3433 51.9805 0.0370249
6.13923 53.0059 2
3.86727 54.0858 4
7.19912 55.0335 0.0283379
5.02404 56.25 2
6.31991 58.3339 0
13.4889 29.1586 3.97444
11.7725 26.5986 3.9746
14.012 26.9731 2
10.4285 24.0403 3.97081
12.3278 24.9129 2
13.7114 25.5238 0.0240152
9.33713 21.1678 3.96234
11.3837 22.32 2
13.2192 23.4221 0.0263463
12.4625 20.6443 0.0357217
10.4908 19.3545 2
8.42291 18.0306 3.97078
11.7064 17.5959 0.0414716
9.76598 16.167 2
7.74928 14.6715 4
11.2264 14.3814 0.0342965
9.30602 12.7745 2
10.9835 10.9835 0
15.2457 32.9512 3.97619
18.9063 33.2332 2
21.8926 33.5678 0.0234821
16.2722 29.8156 2
16.6429 26.6282 0.0257398
19.4145 30.4051 0.0253007
13.5288 36.2284 3.97663
15.7245 36.0509 2
18.7356 36.018 0.0222272
13.2165 37.8266 2
11.7825 38.3006 3.9766
15.0768 39.1435 0.0231439
12.4714 40.1024 2
10.1466 40.7225 3.97657
12.9852 42.2035 0.0240525
10.5804 42.7228 2
8.14941 43.2377 3.97597
10.9867 44.7227 0.0240663
8.6096 45.2757 2
6.17481 45.8958 3.96479
9.13713 47.2638 0.0260112
6.77551 47.9866 2
4.4265 48.7521 3.9717
7.49925 50.0182 0.0359848
5.21575 50.9098 2
2.85457 51.8506 4
6.13937 53.009 0.028138
3.86727 54.0858 2
5.0241 56.25 0
12.6086 31.3381 3.97571
11.1802 28.507 3.97513
13.4887 29.1584 2
9.63323 25.8593 3.97359
11.7731 26.5987 2
14.0135 26.9728 0.0250378
8.30499 23.0447 3.96407
10.4306 24.0404 2
12.3257 24.9138 0.0248251
7.20498 19.9782 3.97191
9.34257 21.169 2
11.385 22.3214 0.0325139
10.4814 19.3538 0.0396221
8.42217 18.0352 2
6.31992 16.6661 4
9.7669 16.1623 0.0306735
7.74926 14.6714 2
9.30607 12.7746 0
12.6474 34.3417 3.97662
15.2452 32.9521 2
18.9055 33.232 0.0244082
16.2729 29.8159 0.0248836
11.3068 36.6241 3.97655
13.5283 36.2283 2
15.7242 36.051 0.0227954
13.2175 37.8268 0.0230026
11.7817 38.3003 2
9.71744 38.8117 3.97687
12.4724 40.1023 0.0235478
10.1474 40.7221 2
7.74986 41.1914 3.97613
10.5791 42.7234 0.0238869
8.15182 43.2367 2
5.67628 43.7617 3.96537
8.60628 45.2768 0.0247039
6.17093 45.8952 2
3.77158 46.5372 3.97212
6.77792 47.9875 0.0354878
4.42708 48.7504 2
1.99014 49.554 4
5.21554 50.9121 0.028148
2.85451 51.8506 2
3.86727 54.0858 0
11.3888 32.9759 3.97646
10.4768 30.4483 3.97567
12.6073 31.3385 2
8.93014 27.7817 3.97423
11.1814 28.5075 2
13.4889 29.1586 0.0255628
7.41474 24.998 3.96462
9.63609 25.8597 2
11.7725 26.5986 0.0254032
6.1215 22.0004 3.97245
8.30594 23.0456 2
10.4285 24.0403 0.0291948
5.02411 18.75 4
7.20455 19.9819 2
9.33713 21.1678 0.0376561
8.42291 18.0306 0.0292223
6.3199 16.6661 2
7.74928 14.6715 0
10.8817 35.0269 3.97639
12.646 34.3418 2
15.2457 32.9512 0.0238092
9.36544 36.9897 3.97689
11.306 36.6241 2
13.5288 36.2284 0.0233711
11.7825 38.3006 0.0234026
9.71854 38.8113 2
7.41403 39.1737 3.97611
10.1466 40.7225 0.0234298
7.75328 41.1907 2
5.28447 41.61 3.96579
8.14941 43.2377 0.0240312
5.6735 43.7612 2
3.24897 44.2818 3.973
6.17481 45.8958 0.0352103
3.77242 46.5359 2
1.27781 47.2057 4
4.4265 48.7521 0.0283049
1.99012 49.554 2
2.85457 51.8506 0
10.5022 33.9178 3.97618
9.73694 32.2002 3.97632
11.3884 32.9762 2
8.26149 29.7332 3.97469
10.478 30.4488 2
12.6086 31.3381 0.0242903
6.64469 27.0199 3.96455
8.93327 27.7824 2
11.1802 28.507 0.0248729
5.17622 24.0933 3.97222
7.4129 24.9986 2
9.63323 25.8593 0.026414
3.86728 20.9142 4
6.12148 22.0031 2
8.30499 23.0447 0.0359328
5.02406 18.75 2
7.20498 19.9782 0.0280865
6.31992 16.6661 0
9.17241 35.298 3.97689
10.8811 35.0269 2
12.6474 34.3417 0.0233772
7.18159 37.2072 3.97573
9.36683 36.9896 2
11.3068 36.6241 0.0234545
9.71744 38.8117 0.0231321
7.41721 39.1732 2
5.00604 39.4659 3.96614
7.74986 41.1914 0.0238659
5.28227 41.6096 2
2.85917 42.002 3.97355
5.67628 43.7617 0.034635
3.24964 44.2808 2
0.720592 44.8159 4
3.77158 46.5372 0.0278824
1.27778 47.2057 2
1.99014 49.554 0
9.2078 33.7279 3.97686
10.5024 33.918 2
7.68573 31.636 3.97504
9.73915 32.2009 2
11.3888 32.9759 0.0235408
5.97892 29.0781 3.96472
8.26427 29.7339 2
10.4768 30.4483 0.0243328
4.36313 26.2466 3.97222
6.64143 27.0204 2
8.93014 27.7817 0.0257657
2.85458 23.1494 4
5.17657 24.0952 2
7.41474 24.998 0.0353785
3.86728 20.9142 2
6.1215 22.0004 0.0275473
5.02411 18.75 0
7.1237 35.3156 3.97541
9.17441 35.2982 2
10.8817 35.0269 0.0236122
4.85095 37.3405 3.96621
7.1845 37.207 2
9.36544 36.9897 0.0231076
7.41403 39.1737 0.023885
5.00378 39.4657 2
2.60703 39.7137 3.97395
5.28447 41.61 0.0342092
2.86013 42.0015 2
0.320823 42.3947 4
3.24897 44.2818 0.0269991
0.720551 44.8159 2
1.27781 47.2057 0
7.28699 33.4785 3.97527
9.21004 33.7283 2
10.5022 33.9178 0.0238242
5.43823 31.1396 3.96524
7.68821 31.6366 2
9.73694 32.2002 0.0236848
3.68424 28.4434 3.97257
5.97464 29.0785 2
8.26149 29.7332 0.0253062
1.99015 25.446 4
4.36373 26.248 2
6.64469 27.0199 0.0354547
2.85453 23.1494 2
5.17622 24.0933 0.0277781
3.86728 20.9142 0
4.86332 35.2541 3.966
7.12557 35.3157 2
9.17241 35.298 0.0231104
2.49847 37.4285 3.97477
4.84847 37.3405 2
7.18159 37.2072 0.0242712
5.00604 39.4659 0.0338648
2.60814 39.7138 2
0.080333 39.9526 4
2.85917 42.002 0.0264519
0.320817 42.3947 2
0.720592 44.8159 0
5.0591 33.1944 3.96569
7.28878 33.4789 2
9.2078 33.7279 0.0231432
3.14821 30.6667 3.97324
5.43383 31.14 2
7.68573 31.636 0.0249582
1.27793 27.7943 4
3.68514 28.4445 2
5.97892 29.0781 0.0352751
1.99013 25.446 2
4.36313 26.2466 0.0277781
2.85458 23.1494 0
2.55046 35.1594 3.9746
4.86196 35.2544 2
7.1237 35.3156 0.0245918
0 37.5 4
2.49911 37.4289 2
4.85095 37.3405 0.0337872
2.60703 39.7137 0.0260512
0.0802903 39.9526 2
0.320823 42.3947 0
2.76819 32.9063 3.97431
5.05681 33.1947 2
7.28699 33.4785 0.0247347
0.721173 30.1842 4
3.14929 30.6676 2
5.43823 31.1396 0.0347631
1.27779 27.7943 2
3.68424 28.4434 0.0274274
1.99015 25.446 0
0.0806499 35.0474 4
2.55168 35.1599 2
4.86332 35.2541 0.0340037
0 37.5 2
2.49847 37.4285 0.0252273
0.080333 39.9526 0
0.32156 32.6054 4
2.76892 32.9072 2
5.0591 33.1944 0.0343073
0.72056 30.1841 2
3.14821 30.6667 0.0267579
1.27793 27.7943 0
0.0802889 35.0474 2
2.55046 35.1594 0.0253964
0 37.5 0
0.320817 32.6053 2
2.76819 32.9063 0.0256894
0.721173 30.1842 0
0.0806499 35.0474 0
0.32156 32.6054 0
CELLS 1910 17190
8 18 6 25 56 2 0 5 16
8 57 23 6 18 17 4 0 2
8 78 36 9 29 31 11 1 7
8 31 11 1 7 79 37 10 30
8 110 57 18 50 48 17 2 14
8 50 18 56 111 14 2 16 49
8 116 62 22 55 52 20 3 15
8 56 25 67 118 16 5 24 53
8 119 63 23 57 54 21 4 17
8 55 22 63 119 15 3 21 54
8 58 26 68 121 18 6 25 56
8 122 65 26 58 57 23 6 18
8 73 31 7 27 142 79 30 71
8 143 78 29 72 73 31 7 27
8 83 147 76 34 32 74 28 8
8 84 148 78 36 33 75 29 9
8 76 34 8 28 148 84 33 75
8 37 79 150 86 10 30 77 35
8 151 87 36 78 80 38 11 31
8 80 38 11 31 152 88 37 79
8 175 100 42 94 96 44 12 40
8 44 96 176 101 12 40 95 43
8 101 176 98 46 43 95 41 13
8 46 98 178 103 13 41 97 45
8 178 103 45 97 147 83 32 74
8 189 116 55 109 106 52 15 47
8 111 56 118 191 49 16 53 107
8 192 119 57 110 108 54 17 48
8 109 55 119 192 47 15 54 108
8 194 122 58 112 110 57 18 50
8 112 58 121 195 50 18 56 111
8 115 61 19 51 197 124 59 113
8 115 61 125 198 51 19 60 114
8 198 125 62 116 114 60 20 52
8 200 127 64 120 116 62 22 55
8 118 67 132 202 53 24 66 117
8 121 68 133 203 56 25 67 118
8 120 64 128 204 55 22 63 119
8 204 128 65 122 119 63 23 57
8 206 134 68 121 123 69 26 58
8 123 69 26 58 207 131 65 122
8 226 147 74 138 140 76 28 70
8 229 148 75 139 143 78 29 72
8 140 76 28 70 229 148 75 139
8 142 79 30 71 231 150 77 141
8 144 80 31 73 232 152 79 142
8 233 151 78 143 144 80 31 73
8 150 86 35 77 235 154 81 145
8 235 154 81 145 146 82 39 91
8 146 82 39 91 236 155 90 165
8 238 157 83 147 149 85 34 76
8 239 158 84 148 151 87 36 78
8 149 85 34 76 239 158 84 148
8 152 88 37 79 241 160 86 150
8 242 161 87 151 153 89 38 80
8 153 89 38 80 243 162 88 152
8 171 98 41 92 265 178 97 169
8 265 178 97 169 226 147 74 138
8 172 96 40 93 266 176 95 170
8 266 176 95 170 171 98 41 92
8 269 175 94 173 172 96 40 93
8 271 180 99 174 175 100 42 94
8 197 124 59 113 271 180 99 174
8 272 181 100 175 177 102 44 96
8 273 182 101 176 179 104 46 98
8 177 102 44 96 273 182 101 176
8 179 104 46 98 275 184 103 178
8 275 184 103 178 238 157 83 147
8 188 115 51 105 283 197 113 186
8 188 115 198 284 105 51 114 187
8 284 198 116 189 187 114 52 106
8 286 200 120 193 189 116 55 109
8 191 118 202 288 107 53 117 190
8 195 121 203 289 111 56 118 191
8 193 120 204 290 109 55 119 192
8 290 204 122 194 192 119 57 110
8 196 123 58 112 292 207 122 194
8 293 206 121 195 196 123 58 112
8 199 126 61 115 297 211 124 197
8 298 212 127 200 198 125 62 116
8 199 126 212 298 115 61 125 198
8 205 129 64 120 300 214 127 200
8 301 217 130 201 202 132 66 117
8 209 136 168 264 301 217 130 201
8 302 219 132 202 203 133 67 118
8 303 220 133 203 206 134 68 121
8 205 129 215 304 120 64 128 204
8 304 215 131 207 204 128 65 122
8 306 221 134 206 208 135 69 123
8 208 135 69 123 307 218 131 207
8 210 137 167 263 309 223 136 209
8 328 238 147 226 230 149 76 140
8 228 146 91 166 329 236 165 260
8 231 150 77 141 330 235 145 227
8 330 235 145 227 228 146 91 166
8 332 239 148 229 233 151 78 143
8 230 149 76 140 332 239 148 229
8 232 152 79 142 334 241 150 231
8 234 153 80 144 335 243 152 232
8 336 242 151 233 234 153 80 144
8 236 155 90 165 338 245 164 259
8 241 160 86 150 339 246 154 235
8 339 246 154 235 237 156 82 146
8 237 156 82 146 340 247 155 236
8 342 249 157 238 240 159 85 149
8 343 250 158 239 242 161 87 151
8 240 159 85 149 343 250 158 239
8 243 162 88 152 345 252 160 241
8 244 163 253 346 153 89 161 242
8 244 163 89 153 347 254 162 243
8 311 224 261 371 210 137 167 263
8 263 167 262 372 209 136 168 264
8 267 179 98 171 375 275 178 265
8 375 275 178 265 328 238 147 226
8 376 273 176 266 267 179 98 171
8 268 177 96 172 376 273 176 266
8 379 272 175 269 268 177 96 172
8 380 271 174 270 269 175 94 173
8 283 197 113 186 380 271 174 270
8 381 277 180 271 272 181 100 175
8 297 211 124 197 381 277 180 271
8 382 278 181 272 274 183 102 177
8 274 183 102 177 383 279 182 273
8 383 279 182 273 276 185 104 179
8 385 281 184 275 342 249 157 238
8 276 185 104 179 385 281 184 275
8 285 199 115 188 393 297 197 283
8 394 298 200 286 284 198 116 189
8 285 199 298 394 188 115 198 284
8 291 205 120 193 396 300 200 286
8 397 301 201 287 288 202 117 190
8 295 209 264 374 397 301 201 287
8 398 302 202 288 289 203 118 191
8 399 303 203 289 293 206 121 195
8 291 205 304 400 193 120 204 290
8 400 304 207 292 290 204 122 194
8 294 208 123 196 402 307 207 292
8 403 306 206 293 294 208 123 196
8 296 210 263 373 405 309 209 295
8 408 312 213 299 297 211 126 199
8 299 213 313 409 199 126 212 298
8 409 313 214 300 298 212 127 200
8 305 216 129 205 411 315 214 300
8 412 318 217 301 302 219 132 202
8 309 223 136 209 412 318 217 301
8 413 320 219 302 303 220 133 203
8 306 221 321 414 206 134 220 303
8 307 218 131 207 415 316 215 304
8 305 216 316 415 205 129 215 304
8 417 322 221 306 308 222 135 208
8 308 222 135 208 418 319 218 307
8 310 225 137 210 420 325 223 309
8 423 326 224 311 310 225 137 210
8 329 236 165 260 441 338 259 368
8 442 342 238 328 333 240 149 230
8 331 237 146 228 443 340 236 329
8 334 241 150 231 444 339 235 330
8 444 339 235 330 331 237 146 228
8 446 343 239 332 336 242 151 233
8 333 240 149 230 446 343 239 332
8 335 243 152 232 448 345 241 334
8 337 244 153 234 449 347 243 335
8 337 244 346 450 234 153 242 336
8 338 245 164 259 452 349 258 367
8 340 247 155 236 453 350 245 338
8 345 252 160 241 454 351 246 339
8 454 351 246 339 341 248 156 237
8 341 248 156 237 455 352 247 340
8 240 159 251 344 342 249 354 457
8 242 161 253 346 343 250 355 458
8 343 250 355 458 240 159 251 344
8 347 254 162 243 460 357 252 345
8 348 255 358 461 244 163 253 346
8 348 255 163 244 462 359 254 347
8 473 360 257 365 363 256 364 482
8 452 349 258 367 365 257 366 485
8 422 324 369 488 311 224 261 371
8 371 261 370 490 263 167 262 372
8 407 311 371 491 296 210 263 373
8 373 263 372 492 295 209 264 374
8 493 385 275 375 442 342 238 328
8 377 276 179 267 493 385 275 375
8 378 274 177 268 494 383 273 376
8 494 383 273 376 377 276 179 267
8 497 382 272 379 378 274 177 268
8 498 381 271 380 379 272 175 269
8 393 297 197 283 498 381 271 380
8 499 387 277 381 382 278 181 272
8 408 312 211 297 499 387 277 381
8 500 388 278 382 384 280 183 274
8 501 389 279 383 386 282 185 276
8 384 280 183 274 501 389 279 383
8 386 282 185 276 503 391 281 385
8 503 391 281 385 457 354 249 342
8 511 408 299 395 393 297 199 285
8 395 299 409 512 285 199 298 394
8 512 409 300 396 394 298 200 286
8 401 305 205 291 514 411 300 396
8 515 412 301 397 398 302 202 288
8 405 309 209 295 515 412 301 397
8 516 413 302 398 399 303 203 289
8 403 306 414 517 293 206 303 399
8 402 307 207 292 518 415 304 400
8 401 305 415 518 291 205 304 400
8 404 308 208 294 520 418 307 402
8 521 417 306 403 404 308 208 294
8 406 310 210 296 523 420 309 405
8 526 423 311 407 406 310 210 296
8 410 314 213 299 527 424 312 408
8 528 425 315 411 409 313 214 300
8 410 314 425 528 299 213 313 409
8 416 317 216 305 530 427 315 411
8 531 430 318 412 413 320 219 302
8 420 325 223 309 531 430 318 412
8 532 432 320 413 414 321 220 303
8 417 322 433 533 306 221 321 414
8 418 319 218 307 534 428 316 415
8 416 317 428 534 305 216 316 415
8 419 323 434 536 308 222 322 417
8 419 323 222 308 537 431 319 418
8 421 327 225 310 539 438 325 420
8 421 327 439 541 310 225 326 423
8 543 437 324 422 423 326 224 311
8 441 338 259 368 559 452 367 486
8 443 340 236 329 560 453 338 441
8 333 240 344 447 442 342 457 561
8 445 341 237 331 562 455 340 443
8 448 345 241 334 563 454 339 444
8 563 454 339 444 445 341 237 331
8 336 242 346 450 446 343 458 565
8 446 343 458 565 333 240 344 447
8 449 347 243 335 567 460 345 448
8 451 348 244 337 568 462 347 449
8 451 348 461 569 337 244 346 450
8 570 463 349 452 473 360 257 365
8 453 350 245 338 570 463 349 452
8 455 352 247 340 571 464 350 453
8 460 357 252 345 572 465 351 454
8 572 465 351 454 456 353 248 341
8 456 353 248 341 573 466 352 455
8 344 251 356 459 457 354 468 575
8 458 355 469 576 344 251 356 459
8 346 253 358 461 458 355 469 576
8 462 359 254 347 578 471 357 460
8 348 255 359 462 461 358 472 579
8 591 474 360 473 475 361 256 363
8 475 361 256 363 594 477 362 479
8 363 256 364 482 479 362 480 603
8 590 473 365 484 481 363 482 605
8 482 364 257 365 606 483 366 485
8 559 452 367 486 484 365 485 607
8 542 436 487 609 422 324 369 488
8 525 422 488 611 407 311 371 491
8 488 369 489 612 371 261 370 490
8 491 371 490 613 373 263 372 492
8 495 386 276 377 614 503 385 493
8 614 503 385 493 561 457 342 442
8 615 501 383 494 495 386 276 377
8 496 384 274 378 615 501 383 494
8 618 500 382 497 496 384 274 378
8 619 499 381 498 497 382 272 379
8 511 408 297 393 619 499 381 498
8 620 505 387 499 500 388 278 382
8 527 424 312 408 620 505 387 499
8 502 390 506 621 384 280 388 500
8 622 507 389 501 504 392 282 386
8 502 390 280 384 622 507 389 501
8 504 392 282 386 624 509 391 503
8 624 509 391 503 575 468 354 457
8 513 410 299 395 630 527 408 511
8 631 528 411 514 512 409 300 396
8 513 410 528 631 395 299 409 512
8 519 416 305 401 633 530 411 514
8 634 531 412 515 516 413 302 398
8 523 420 309 405 634 531 412 515
8 635 532 413 516 517 414 303 399
8 521 417 533 636 403 306 414 517
8 520 418 307 402 637 534 415 518
8 519 416 534 637 401 305 415 518
8 522 419 308 404 639 537 418 520
8 522 419 536 640 404 308 417 521
8 524 421 310 406 642 539 420 523
8 524 421 541 644 406 310 423 526
8 646 543 422 525 526 423 311 407
8 529 426 314 410 647 544 424 527
8 528 425 545 648 411 315 427 530
8 529 426 545 648 410 314 425 528
8 535 429 317 416 649 546 427 530
8 650 548 430 531 532 432 320 413
8 539 438 325 420 650 548 430 531
8 533 433 550 651 414 321 432 532
8 536 434 551 652 417 322 433 533
8 537 431 319 418 653 547 428 534
8 535 429 547 653 416 317 428 534
8 538 435 552 654 419 323 434 536
8 538 435 323 419 655 549 431 537
8 540 440 327 421 657 556 438 539
8 540 440 557 659 421 327 439 541
8 541 439 555 660 423 326 437 543
8 661 554 436 542 543 437 324 422
8 676 570 452 559 590 473 365 484
8 560 453 338 441 676 570 452 559
8 562 455 340 443 677 571 453 560
8 447 344 459 566 561 457 575 678
8 564 456 341 445 679 573 455 562
8 567 460 345 448 680 572 454 563
8 680 572 454 563 564 456 341 445
8 565 458 576 682 447 344 459 566
8 450 346 461 569 565 458 576 682
8 568 462 347 449 684 578 460 567
8 451 348 462 568 569 461 579 685
8 686 580 463 570 591 474 360 473
8 571 464 350 453 686 580 463 570
8 573 466 352 455 687 581 464 571
8 572 465 582 688 460 357 471 578
8 574 467 582 688 456 353 465 572
8 574 467 353 456 689 583 466 573
8 459 356 470 577 575 468 585 691
8 576 469 586 692 459 356 470 577
8 461 358 472 579 576 469 586 692
8 462 359 471 578 579 472 588 694
8 704 591 473 590 593 475 363 481
8 595 476 592 705 475 361 474 591
8 593 475 363 481 707 594 479 602
8 594 477 362 479 709 598 478 600
8 595 476 361 475 711 597 477 594
8 479 362 480 603 600 478 601 720
8 481 363 482 605 602 479 603 722
8 603 480 364 482 723 604 483 606
8 605 482 365 484 724 606 485 607
8 656 553 608 726 542 436 487 609
8 645 542 609 728 525 422 488 611
8 609 487 610 729 488 369 489 612
8 611 488 612 730 491 371 490 613
8 616 504 386 495 731 624 503 614
8 731 624 503 614 678 575 457 561
8 732 622 501 615 616 504 386 495
8 617 502 384 496 732 622 501 615
8 617 502 621 735 496 384 500 618
8 736 620 499 619 618 500 382 497
8 630 527 408 511 736 620 499 619
8 621 506 626 737 500 388 505 620
8 647 544 424 527 737 626 505 620
8 623 508 627 738 502 390 506 621
8 623 508 390 502 739 628 507 622
8 625 510 628 739 504 392 507 622
8 740 629 509 624 691 585 468 575
8 625 510 392 504 740 629 509 624
8 632 529 410 513 744 647 527 630
8 631 528 648 745 514 411 530 633
8 632 529 648 745 513 410 528 631
8 638 535 416 519 746 649 530 633
8 747 650 531 634 635 532 413 516
8 642 539 420 523 747 650 531 634
8 636 533 651 748 517 414 532 635
8 640 536 652 749 521 417 533 636
8 639 537 418 520 750 653 534 637
8 638 535 653 750 519 416 534 637
8 641 538 419 522 751 655 537 639
8 641 538 654 752 522 419 536 640
8 643 540 421 524 753 657 539 642
8 643 540 659 755 524 421 541 644
8 644 541 660 757 526 423 543 646
8 758 661 542 645 646 543 422 525
8 529 426 544 647 648 545 662 759
8 530 427 545 648 649 546 663 760
8 535 429 546 649 653 547 664 761
8 762 666 548 650 651 550 432 532
8 657 556 438 539 762 666 548 650
8 652 551 668 763 533 433 550 651
8 654 552 669 764 536 434 551 652
8 655 549 431 537 765 665 547 653
8 538 435 549 655 654 552 667 766
8 661 554 671 768 542 436 553 656
8 658 558 440 540 769 674 556 657
8 658 558 675 770 540 440 557 659
8 659 557 673 771 541 439 555 660
8 660 555 672 772 543 437 554 661
8 788 686 570 676 704 591 473 590
8 677 571 453 560 788 686 570 676
8 679 573 455 562 789 687 571 677
8 566 459 577 683 678 575 691 790
8 681 574 456 564 791 689 573 679
8 680 572 688 792 567 460 578 684
8 681 574 688 792 564 456 572 680
8 682 576 692 794 566 459 577 683
8 569 461 579 685 682 576 692 794
8 568 462 578 684 685 579 694 796
8 687 581 464 571 798 696 580 686
8 798 696 580 686 705 592 474 591
8 689 583 466 573 799 697 581 687
8 688 582 698 800 578 471 588 694
8 690 584 698 800 574 467 582 688
8 690 584 467 574 801 699 583 689
8 693 587 701 803 577 470 585 691
8 693 587 470 577 804 702 586 692
8 695 589 702 804 579 472 586 692
8 695 589 472 579 805 703 588 694
8 708 595 705 813 593 475 591 704
8 710 596 706 814 595 476 592 705
8 707 594 479 602 816 709 600 719
8 708 595 475 593 817 711 594 707
8 709 598 478 600 819 715 599 717
8 711 597 477 594 820 714 598 709
8 710 596 476 595 822 713 597 711
8 600 478 601 720 717 599 718 832
8 602 479 603 722 719 600 720 834
8 720 601 480 603 835 721 604 723
8 722 603 482 605 836 723 606 724
8 767 670 725 839 656 553 608 726
8 756 656 726 841 645 542 609 728
8 726 608 727 842 609 487 610 729
8 728 609 729 843 611 488 612 730
8 844 740 624 731 790 691 575 678
8 733 625 504 616 844 740 624 731
8 734 623 502 617 845 739 622 732
8 733 625 739 845 616 504 622 732
8 734 623 738 846 617 502 621 735
8 735 621 737 847 618 500 620 736
8 744 647 527 630 847 737 620 736
8 621 506 627 738 737 626 741 848
8 647 544 626 737 759 662 741 848
8 623 508 628 739 738 627 742 849
8 740 629 585 691 850 743 700 802
8 625 510 629 740 739 628 743 850
8 632 529 647 744 745 648 759 854
8 633 530 648 745 746 649 760 855
8 638 535 649 746 750 653 761 856
8 857 762 650 747 748 651 532 635
8 753 657 539 642 857 762 650 747
8 749 652 763 858 636 533 651 748
8 752 654 764 859 640 536 652 749
8 751 655 537 639 860 765 653 750
8 641 538 655 751 752 654 766 861
8 754 658 540 643 862 769 657 753
8 754 658 770 863 643 540 659 755
8 755 659 771 864 644 541 660 757
8 758 661 768 866 645 542 656 756
8 757 660 772 867 646 543 661 758
8 759 662 773 868 648 545 663 760
8 649 546 663 760 761 664 774 871
8 765 665 547 653 872 775 664 761
8 873 777 666 762 763 668 550 651
8 769 674 556 657 873 777 666 762
8 764 669 779 874 652 551 668 763
8 654 552 667 766 764 669 778 875
8 655 549 665 765 766 667 776 876
8 768 671 782 877 656 553 670 767
8 772 672 783 878 661 554 671 768
8 658 558 674 769 770 675 786 879
8 659 557 675 770 771 673 785 881
8 882 784 672 772 771 673 555 660
8 789 687 571 677 897 798 686 788
8 897 798 686 788 813 705 591 704
8 791 689 573 679 898 799 687 789
8 795 693 803 900 683 577 691 790
8 793 690 574 681 901 801 689 791
8 792 688 800 902 684 578 694 796
8 793 690 800 902 681 574 688 792
8 795 693 577 683 903 804 692 794
8 797 695 804 903 685 579 692 794
8 797 695 579 685 904 805 694 796
8 905 806 697 799 798 696 581 687
8 814 706 806 905 705 592 696 798
8 689 583 697 799 801 699 808 907
8 800 698 809 908 694 588 703 805
8 690 584 699 801 800 698 809 908
8 803 701 810 909 691 585 700 802
8 693 587 702 804 803 701 811 910
8 695 589 703 805 804 702 812 911
8 818 710 814 919 708 595 705 813
8 821 712 815 920 710 596 706 814
8 816 709 600 719 922 819 717 831
8 817 711 594 707 923 820 709 816
8 818 710 595 708 924 822 711 817
8 819 715 599 717 926 827 716 829
8 820 714 598 709 927 826 715 819
8 929 825 713 822 820 714 597 711
8 821 712 596 710 930 824 713 822
8 717 599 718 832 829 716 830 942
8 719 600 720 834 831 717 832 944
8 832 718 601 720 945 833 721 835
8 834 720 603 722 946 835 723 836
8 869 780 838 950 767 670 725 839
8 865 767 839 952 756 656 726 841
8 839 725 840 953 726 608 727 842
8 841 726 842 954 728 609 729 843
8 844 740 691 790 955 850 802 899
8 733 625 740 844 845 739 850 955
8 734 623 739 845 846 738 849 956
8 735 621 738 846 847 737 848 957
8 744 647 737 847 854 759 848 957
8 738 627 742 849 848 741 851 958
8 848 741 851 958 759 662 773 868
8 850 743 700 802 959 852 807 906
8 849 742 628 739 959 852 743 850
8 854 759 868 965 745 648 760 855
8 746 649 760 855 856 761 871 966
8 860 765 653 750 967 872 761 856
8 968 873 762 857 858 763 651 748
8 862 769 657 753 968 873 762 857
8 859 764 874 969 749 652 763 858
8 752 654 766 861 859 764 875 970
8 751 655 765 860 861 766 876 971
8 754 658 769 862 863 770 879 972
8 755 659 770 863 864 771 881 974
8 976 882 772 867 864 771 660 757
8 866 768 877 977 756 656 767 865
8 867 772 878 978 758 661 768 866
8 760 663 773 868 871 774 883 980
8 870 781 837 948 982 890 780 869
8 982 890 780 869 877 782 670 767
8 761 664 774 871 872 775 884 984
8 876 776 665 765 985 885 775 872
8 873 777 668 763 986 887 779 874
8 769 674 777 873 879 786 887 986
8 764 669 778 875 874 779 888 987
8 766 667 776 876 875 778 886 988
8 878 783 892 989 768 671 782 877
8 878 783 672 772 990 893 784 882
8 880 787 675 770 991 896 786 879
8 880 787 895 992 770 675 785 881
8 881 785 894 993 771 673 784 882
8 1006 905 799 898 897 798 687 789
8 919 814 905 1006 813 705 798 897
8 791 689 799 898 901 801 907 1007
8 900 803 909 1009 790 691 802 899
8 795 693 804 903 900 803 910 1010
8 902 800 908 1011 796 694 805 904
8 793 690 801 901 902 800 908 1011
8 797 695 805 904 903 804 911 1012
8 799 697 806 905 907 808 912 1013
8 920 815 912 1013 814 706 806 905
8 802 700 810 909 906 807 913 1014
8 801 699 808 907 908 809 914 1015
8 805 703 809 908 911 812 915 1016
8 803 701 811 910 909 810 916 1017
8 911 812 917 1018 804 702 811 910
8 925 821 920 1030 818 710 814 919
8 928 823 921 1031 821 712 815 920
8 922 819 717 831 1033 926 829 941
8 923 820 709 816 1034 927 819 922
8 1035 929 822 924 923 820 711 817
8 925 821 710 818 1036 930 822 924
8 1038 933 825 929 927 826 714 820
8 926 827 716 829 1039 935 828 939
8 927 826 715 819 1040 934 827 926
8 928 823 712 821 1041 931 824 930
8 1042 932 824 930 929 825 713 822
8 829 716 830 942 939 828 940 1058
8 831 717 832 944 941 829 942 1060
8 942 830 718 832 1061 943 833 945
8 944 832 720 834 1062 945 835 946
8 981 889 947 1064 870 781 837 948
8 948 837 949 1067 869 780 838 950
8 975 869 950 1069 865 767 839 952
8 950 838 951 1070 839 725 840 953
8 952 839 953 1071 841 726 842 954
8 955 850 802 899 1072 959 906 1008
8 956 849 739 845 1072 959 850 955
8 846 738 849 956 957 848 958 1073
8 957 848 958 1073 854 759 868 965
8 849 742 852 959 958 851 961 1076
8 960 853 961 1076 906 807 852 959
8 958 851 961 1076 868 773 883 980
8 960 853 807 906 1077 963 913 1014
8 855 760 868 965 966 871 980 1085
8 856 761 871 966 967 872 984 1086
8 971 876 765 860 1087 985 872 967
8 968 873 763 858 1088 986 874 969
8 862 769 873 968 972 879 986 1088
8 859 764 875 970 969 874 987 1089
8 861 766 876 971 970 875 988 1090
8 973 880 770 863 1091 991 879 972
8 973 880 992 1092 863 770 881 974
8 974 881 993 1093 864 771 882 976
8 979 870 948 1066 1094 982 869 975
8 1094 982 869 975 977 877 767 865
8 978 878 772 867 1095 990 882 976
8 978 878 989 1096 866 768 877 977
8 871 774 883 980 984 884 994 1099
8 983 891 999 1100 870 781 889 981
8 1101 1000 890 982 989 892 782 877
8 983 891 781 870 1101 1000 890 982
8 872 775 884 984 985 885 995 1103
8 876 776 885 985 988 886 996 1104
8 986 887 779 874 1105 998 888 987
8 879 786 887 986 991 896 998 1105
8 875 778 886 988 987 888 997 1106
8 990 893 1002 1107 878 783 892 989
8 1108 1003 893 990 993 894 784 882
8 880 787 896 991 992 895 1005 1109
8 993 894 785 881 1110 1004 895 992
8 898 799 905 1006 1007 907 1013 1120
8 1030 920 1013 1120 919 814 905 1006
8 901 801 907 1007 1011 908 1015 1121
8 899 802 909 1009 1008 906 1014 1122
8 900 803 910 1010 1009 909 1017 1123
8 1012 911 1018 1124 903 804 910 1010
8 904 805 908 1011 1012 911 1016 1125
8 1013 912 1020 1127 907 808 914 1015
8 1031 921 1020 1127 920 815 912 1013
8 1019 918 962 1075 1128 1021 913 1014
8 1128 1021 913 1014 1017 916 810 909
8 1015 914 1022 1129 908 809 915 1016
8 1016 915 1023 1130 911 812 917 1018
8 1018 917 1024 1131 910 811 916 1017
8 1037 928 1031 1148 925 821 920 1030
8 928 823 931 1041 1031 921 1032 1149
8 1033 926 829 941 1151 1039 939 1057
8 1034 927 819 922 1152 1040 926 1033
8 1153 1038 929 1035 1034 927 820 923
8 1154 1042 930 1036 1035 929 822 924
8 1037 928 821 925 1155 1041 930 1036
8 1039 935 828 939 1156 1047 938 1055
8 1157 1043 932 1042 1038 933 825 929
8 1038 933 826 927 1158 1045 934 1040
8 1040 934 827 926 1159 1046 935 1039
8 930 824 932 1042 1041 931 1044 1160
8 1051 936 1048 1165 1175 1052 937 1053
8 1156 1047 938 1055 1053 937 1054 1178
8 939 828 940 1058 1055 938 1056 1181
8 941 829 942 1060 1057 939 1058 1183
8 942 830 943 1061 1058 940 1059 1184
8 1060 942 832 944 1185 1061 945 1062
8 1082 964 1063 1188 981 889 947 1064
8 1097 981 1064 1190 979 870 948 1066
8 1064 947 1065 1191 948 837 949 1067
8 1066 948 1067 1193 975 869 950 1069
8 1067 949 1068 1194 950 838 951 1070
8 1069 950 1070 1195 952 839 953 1071
8 956 849 959 1072 1073 958 1076 1197
8 1074 960 1076 1197 1008 906 959 1072
8 1073 958 1076 1197 965 868 980 1085
8 1074 960 906 1008 1198 1077 1014 1122
8 1133 1026 1079 1199 1019 918 962 1075
8 1077 963 913 1014 1200 1080 962 1075
8 960 853 963 1077 1076 961 1078 1201
8 980 883 961 1076 1099 994 1078 1201
8 1210 1083 964 1082 1100 999 889 981
8 966 871 980 1085 1086 984 1099 1215
8 967 872 984 1086 1087 985 1103 1216
8 971 876 985 1087 1090 988 1104 1217
8 1088 986 874 969 1218 1105 987 1089
8 972 879 986 1088 1091 991 1105 1218
8 970 875 988 1090 1089 987 1106 1219
8 973 880 991 1091 1092 992 1109 1220
8 1093 993 881 974 1221 1110 992 1092
8 1222 1108 990 1095 1093 993 882 976
8 1223 1101 982 1094 1096 989 877 977
8 1098 983 870 979 1223 1101 982 1094
8 1095 990 1107 1224 978 878 989 1096
8 1098 983 1100 1225 979 870 981 1097
8 984 884 994 1099 1103 995 1111 1227
8 1102 1001 1115 1228 983 891 999 1100
8 1101 1000 892 989 1229 1116 1002 1107
8 1102 1001 891 983 1229 1116 1000 1101
8 985 885 995 1103 1104 996 1112 1230
8 988 886 996 1104 1106 997 1113 1231
8 1105 998 888 987 1232 1114 997 1106
8 991 896 998 1105 1109 1005 1114 1232
8 1108 1003 1117 1233 990 893 1002 1107
8 1108 1003 894 993 1233 1117 1004 1110
8 992 895 1005 1109 1110 1004 1118 1234
8 1120 1013 1127 1244 1007 907 1015 1121
8 1148 1031 1127 1244 1030 920 1013 1120
8 1121 1015 1129 1245 1011 908 1016 1125
8 1126 1019 1075 1196 1246 1128 1014 1122
8 1246 1128 1014 1122 1123 1017 909 1009
8 1124 1018 1131 1247 1010 910 1017 1123
8 1125 1016 1130 1248 1012 911 1018 1124
8 1127 1020 1137 1254 1015 914 1022 1129
8 1031 921 1032 1149 1127 1020 1137 1254
8 1134 1027 918 1019 1257 1140 1021 1128
8 1257 1140 1021 1128 1131 1024 916 1017
8 1129 1022 1141 1258 1016 915 1023 1130
8 1130 1023 1142 1259 1018 917 1024 1131
8 1261 1144 1025 1132 1133 1026 1079 1199
8 1255 1138 1025 1132 1135 1028 1144 1261
8 1133 1026 918 1019 1262 1145 1027 1134
8 1136 1029 1139 1256 1263 1146 1028 1135
8 1037 928 1041 1155 1148 1031 1149 1275
8 1041 931 1044 1160 1149 1032 1150 1276
8 1151 1039 939 1057 1278 1156 1055 1180
8 1152 1040 926 1033 1279 1159 1039 1151
8 1153 1038 927 1034 1280 1158 1040 1152
8 1281 1157 1042 1154 1153 1038 929 1035
8 1036 930 1042 1154 1155 1041 1160 1282
8 1283 1164 1046 1159 1156 1047 935 1039
8 1165 1048 1164 1283 1053 937 1047 1156
8 1157 1043 933 1038 1284 1161 1045 1158
8 1157 1043 1161 1284 1042 932 1044 1160
8 1040 934 1046 1159 1158 1045 1163 1285
8 1166 1049 1167 1292 1051 936 1048 1165
8 1166 1049 936 1051 1293 1168 1050 1172
8 1051 936 1052 1175 1172 1050 1173 1306
8 1174 1051 1165 1290 1308 1175 1053 1177
8 1053 937 1054 1178 1175 1052 1176 1309
8 1278 1156 1055 1180 1177 1053 1178 1311
8 1055 938 1056 1181 1178 1054 1179 1312
8 1057 939 1058 1183 1180 1055 1181 1314
8 1058 940 1059 1184 1181 1056 1182 1315
8 1060 942 1061 1185 1183 1058 1184 1316
8 1208 1081 1187 1321 1082 964 1063 1188
8 1209 1082 1188 1322 1097 981 1064 1190
8 1188 1063 1189 1323 1064 947 1065 1191
8 1190 1064 1191 1325 1066 948 1067 1193
8 1191 1065 1192 1326 1067 949 1068 1194
8 1067 1193 1069 950 1194 1327 1195 1070
8 1250 1133 1199 1330 1126 1019 1075 1196
8 1198 1077 1014 1122 1331 1200 1075 1196
8 1074 960 1077 1198 1197 1076 1201 1332
8 1085 980 1076 1197 1215 1099 1201 1332
8 1199 1079 1203 1333 1075 962 1080 1200
8 1132 1025 1119 1243 1199 1079 1203 1333
8 1201 1078 963 1077 1334 1202 1080 1200
8 1099 994 1078 1201 1227 1111 1202 1334
8 1343 1207 1081 1208 1210 1083 964 1082
8 1214 1084 1186 1319 1343 1207 1081 1208
8 1345 1210 1082 1209 1225 1100 981 1097
8 1346 1211 1083 1210 1228 1115 999 1100
8 1086 984 1099 1215 1216 1103 1227 1352
8 1087 985 1103 1216 1217 1104 1230 1353
8 1090 988 1104 1217 1219 1106 1231 1354
8 1218 1105 987 1089 1355 1232 1106 1219
8 1091 991 1105 1218 1220 1109 1232 1355
8 1092 992 1109 1220 1221 1110 1234 1356
8 1222 1108 1233 1357 1095 990 1107 1224
8 1222 1108 993 1093 1357 1233 1110 1221
8 1223 1101 989 1096 1358 1229 1107 1224
8 1226 1102 983 1098 1358 1229 1101 1223
8 1226 1102 1228 1359 1098 983 1100 1225
8 1103 995 1111 1227 1230 1112 1235 1360
8 1107 1002 1117 1233 1229 1116 1240 1362
8 1102 1001 1116 1229 1228 1115 1240 1362
8 1104 996 1112 1230 1231 1113 1236 1363
8 1364 1237 1114 1232 1231 1113 997 1106
8 1109 1005 1114 1232 1234 1118 1238 1365
8 1110 1004 1118 1234 1233 1117 1241 1366
8 1242 1374 1255 1138 1119 1243 1132 1025
8 1244 1127 1254 1376 1121 1015 1129 1245
8 1148 1031 1149 1275 1244 1127 1254 1376
8 1245 1129 1258 1377 1125 1016 1130 1248
8 1251 1134 1019 1126 1378 1257 1128 1246
8 1378 1257 1128 1246 1247 1131 1017 1123
8 1248 1130 1259 1379 1124 1018 1131 1247
8 1261 1381 1250 1133 1132 1249 1330 1199
8 1255 1380 1252 1135 1132 1249 1381 1261
8 1250 1133 1019 1126 1382 1262 1134 1251
8 1253 1136 1256 1385 1384 1263 1135 1252
8 1254 1137 1265 1387 1129 1022 1141 1258
8 1149 1032 1150 1276 1254 1137 1265 1387
8 1028 1135 1255 1138 1139 1256 1388 1266
8 1136 1029 1147 1264 1256 1139 1267 1389
8 1390 1268 1140 1257 1259 1142 1024 1131
8 1260 1143 1027 1134 1390 1268 1140 1257
8 1258 1141 1269 1391 1130 1023 1142 1259
8 1262 1145 1027 1134 1393 1271 1143 1260
8 1261 1144 1026 1133 1394 1272 1145 1262
8 1135 1028 1144 1261 1263 1146 1272 1394
8 1136 1029 1146 1263 1264 1147 1273 1395
8 1155 1041 1160 1282 1275 1149 1276 1405
8 1276 1150 1044 1160 1406 1277 1162 1286
8 1408 1283 1159 1279 1278 1156 1039 1151
8 1290 1165 1283 1408 1177 1053 1156 1278
8 1152 1040 1159 1279 1280 1158 1285 1409
8 1281 1157 1038 1153 1410 1284 1158 1280
8 1281 1157 1284 1410 1154 1042 1160 1282
8 1159 1046 1164 1283 1285 1163 1289 1412
8 1292 1167 1289 1412 1165 1048 1164 1283
8 1158 1045 1163 1285 1284 1161 1288 1413
8 1284 1161 1288 1413 1160 1044 1162 1286
8 1291 1166 1292 1418 1174 1051 1165 1290
8 1291 1166 1051 1174 1419 1293 1172 1305
8 1294 1169 1296 1421 1166 1049 1167 1292
8 1293 1168 1050 1172 1422 1295 1171 1303
8 1294 1169 1049 1166 1423 1297 1168 1293
8 1422 1295 1171 1303 1301 1170 1302 1435
8 1172 1050 1173 1306 1303 1171 1304 1438
8 1174 1051 1175 1308 1305 1172 1306 1440
8 1175 1052 1176 1309 1306 1173 1307 1441
8 1177 1053 1178 1311 1308 1175 1309 1443
8 1178 1054 1179 1312 1309 1176 1310 1444
8 1180 1055 1181 1314 1311 1178 1312 1446
8 1056 1181 1312 1179 1182 1315 1447 1313
8 1183 1058 1184 1316 1314 1181 1315 1448
8 1319 1186 1084 1214 1451 1317 1213 1350
8 1319 1186 1318 1453 1208 1081 1187 1321
8 1321 1187 1320 1456 1188 1063 1189 1323
8 1344 1208 1321 1457 1209 1082 1188 1322
8 1322 1188 1323 1458 1190 1064 1191 1325
8 1323 1189 1324 1459 1191 1065 1192 1326
8 1191 1325 1193 1067 1326 1460 1327 1194
8 1242 1374 1243 1119 1328 1462 1335 1204
8 1330 1199 1333 1465 1196 1075 1200 1331
8 1132 1249 1330 1199 1243 1375 1465 1333
8 1332 1201 1077 1198 1466 1334 1200 1331
8 1215 1099 1201 1332 1352 1227 1334 1466
8 1119 1243 1333 1203 1204 1335 1470 1338
8 1333 1203 1338 1470 1200 1080 1202 1334
8 1227 1111 1202 1334 1360 1235 1338 1470
8 1328 1462 1335 1204 1205 1336 1471 1339
8 1337 1206 1340 1472 1464 1329 1205 1336
8 1346 1211 1342 1479 1210 1083 1207 1343
8 1346 1211 1115 1228 1479 1342 1239 1361
8 1348 1212 1084 1214 1479 1342 1207 1343
8 1480 1343 1208 1344 1345 1210 1082 1209
8 1351 1214 1319 1454 1480 1343 1208 1344
8 1481 1346 1210 1345 1359 1228 1100 1225
8 1348 1212 1347 1483 1214 1084 1213 1350
8 1216 1103 1227 1352 1353 1230 1360 1488
8 1217 1104 1230 1353 1354 1231 1363 1489
8 1490 1364 1232 1355 1354 1231 1106 1219
8 1220 1109 1232 1355 1356 1234 1365 1491
8 1221 1110 1234 1356 1357 1233 1366 1492
8 1224 1107 1233 1357 1358 1229 1362 1493
8 1226 1102 1229 1358 1359 1228 1362 1493
8 1230 1112 1235 1360 1363 1236 1367 1496
8 1361 1239 1115 1228 1497 1371 1240 1362
8 1366 1241 1372 1498 1233 1117 1240 1362
8 1364 1237 1113 1231 1499 1368 1236 1363
8 1364 1237 1368 1499 1232 1114 1238 1365
8 1234 1118 1238 1365 1366 1241 1369 1500
8 1507 1373 1242 1374 1388 1266 1138 1255
8 1508 1374 1243 1375 1380 1255 1132 1249
8 1376 1254 1387 1509 1245 1129 1258 1377
8 1275 1149 1276 1405 1376 1254 1387 1509
8 1377 1258 1391 1510 1248 1130 1259 1379
8 1511 1390 1257 1378 1379 1259 1131 1247
8 1383 1260 1134 1251 1511 1390 1257 1378
8 1252 1135 1256 1385 1380 1255 1388 1512
8 1261 1381 1513 1394 1133 1250 1382 1262
8 1135 1252 1384 1263 1261 1381 1513 1394
8 1382 1262 1134 1251 1514 1393 1260 1383
8 1253 1136 1263 1384 1386 1264 1395 1516
8 1253 1136 1264 1386 1385 1256 1389 1517
8 1387 1265 1397 1519 1258 1141 1269 1391
8 1276 1150 1277 1406 1387 1265 1397 1519
8 1256 1139 1267 1389 1388 1266 1398 1520
8 1264 1147 1274 1396 1389 1267 1399 1521
8 1392 1270 1143 1260 1522 1400 1268 1390
8 1390 1268 1142 1259 1522 1400 1269 1391
8 1392 1270 1401 1523 1260 1143 1271 1393
8 1272 1394 1524 1402 1145 1262 1393 1271
8 1395 1273 1146 1263 1524 1402 1272 1394
8 1273 1395 1264 1147 1403 1526 1396 1274
8 1405 1276 1160 1282 1534 1406 1286 1411
8 1414 1287 1407 1535 1286 1162 1277 1406
8 1279 1159 1283 1408 1409 1285 1412 1537
8 1418 1292 1412 1537 1290 1165 1283 1408
8 1280 1158 1285 1409 1410 1284 1413 1538
8 1410 1284 1413 1538 1282 1160 1286 1411
8 1285 1163 1289 1412 1413 1288 1417 1540
8 1421 1296 1417 1540 1292 1167 1289 1412
8 1414 1287 1162 1286 1541 1416 1288 1413
8 1420 1294 1421 1545 1291 1166 1292 1418
8 1419 1293 1172 1305 1546 1422 1303 1437
8 1420 1294 1166 1291 1547 1423 1293 1419
8 1294 1169 1297 1423 1421 1296 1425 1548
8 1423 1297 1168 1293 1549 1424 1295 1422
8 1301 1170 1298 1427 1422 1295 1424 1549
8 1432 1300 1428 1554 1301 1170 1298 1427
8 1431 1299 1428 1554 1560 1430 1300 1432
8 1563 1433 1300 1432 1435 1302 1170 1301
8 1546 1422 1303 1437 1434 1301 1435 1565
8 1303 1171 1304 1438 1435 1302 1436 1566
8 1305 1172 1306 1440 1437 1303 1438 1568
8 1306 1173 1307 1441 1438 1304 1439 1569
8 1308 1175 1309 1443 1440 1306 1441 1571
8 1309 1176 1310 1444 1441 1307 1442 1572
8 1311 1178 1312 1446 1443 1309 1444 1574
8 1179 1312 1444 1310 1313 1447 1575 1445
8 1314 1181 1315 1448 1446 1312 1447 1576
8 1350 1213 1349 1486 1451 1317 1449 1579
8 1451 1317 1450 1581 1319 1186 1318 1453
8 1454 1319 1214 1351 1582 1451 1350 1487
8 1453 1318 1452 1584 1321 1187 1320 1456
8 1454 1319 1453 1585 1344 1208 1321 1457
8 1456 1320 1455 1586 1323 1189 1324 1459
8 1457 1321 1456 1587 1322 1188 1323 1458
8 1458 1323 1459 1588 1325 1191 1326 1460
8 1205 1336 1464 1329 1328 1462 1590 1461
8 1507 1373 1461 1590 1374 1242 1328 1462
8 1508 1374 1462 1591 1375 1243 1335 1467
8 1337 1206 1329 1464 1473 1341 1463 1594
8 1375 1243 1335 1467 1465 1333 1470 1596
8 1465 1333 1470 1596 1331 1200 1334 1466
8 1352 1227 1334 1466 1488 1360 1470 1596
8 1591 1462 1336 1468 1467 1335 1471 1597
8 1469 1337 1472 1598 1595 1464 1336 1468
8 1471 1339 1474 1600 1335 1204 1338 1470
8 1600 1474 1367 1496 1470 1338 1235 1360
8 1336 1205 1340 1472 1471 1339 1475 1601
8 1337 1206 1341 1473 1472 1340 1476 1602
8 1495 1370 1478 1609 1361 1239 1342 1479
8 1348 1212 1342 1479 1483 1347 1478 1609
8 1481 1346 1479 1610 1345 1210 1343 1480
8 1481 1346 1228 1359 1610 1479 1361 1494
8 1484 1348 1214 1351 1610 1479 1343 1480
8 1483 1347 1482 1612 1350 1213 1349 1486
8 1484 1348 1483 1613 1351 1214 1350 1487
8 1353 1230 1360 1488 1489 1363 1496 1616
8 1490 1364 1231 1354 1617 1499 1363 1489
8 1490 1364 1499 1617 1355 1232 1365 1491
8 1356 1234 1365 1491 1492 1366 1500 1619
8 1492 1366 1498 1620 1357 1233 1362 1493
8 1494 1361 1228 1359 1621 1497 1362 1493
8 1495 1370 1239 1361 1622 1504 1371 1497
8 1363 1236 1367 1496 1499 1368 1501 1623
8 1497 1371 1240 1362 1624 1505 1372 1498
8 1625 1503 1372 1498 1500 1369 1241 1366
8 1365 1238 1368 1499 1500 1369 1502 1626
8 1520 1398 1506 1633 1388 1266 1373 1507
8 1634 1507 1374 1508 1512 1388 1255 1380
8 1509 1387 1519 1635 1377 1258 1391 1510
8 1405 1276 1406 1534 1509 1387 1519 1635
8 1515 1392 1260 1383 1636 1522 1390 1511
8 1511 1390 1259 1379 1636 1522 1391 1510
8 1385 1256 1389 1517 1512 1388 1520 1637
8 1513 1394 1262 1382 1638 1524 1393 1514
8 1395 1516 1638 1524 1263 1384 1513 1394
8 1515 1392 1523 1639 1383 1260 1393 1514
8 1516 1395 1526 1640 1386 1264 1396 1518
8 1386 1264 1396 1518 1517 1389 1521 1641
8 1519 1397 1527 1643 1391 1269 1400 1522
8 1535 1407 1527 1643 1406 1277 1397 1519
8 1389 1267 1399 1521 1520 1398 1528 1644
8 1645 1529 1399 1521 1525 1404 1274 1396
8 1392 1270 1400 1522 1523 1401 1531 1646
8 1524 1402 1271 1393 1648 1532 1401 1523
8 1403 1526 1648 1532 1273 1395 1524 1402
8 1525 1404 1274 1396 1649 1533 1403 1526
8 1539 1414 1535 1657 1411 1286 1406 1534
8 1542 1415 1536 1658 1414 1287 1407 1535
8 1409 1285 1412 1537 1538 1413 1540 1660
8 1545 1421 1540 1660 1418 1292 1412 1537
8 1539 1414 1286 1411 1661 1541 1413 1538
8 1540 1417 1544 1663 1413 1288 1416 1541
8 1421 1296 1425 1548 1540 1417 1544 1663
8 1542 1415 1287 1414 1664 1543 1416 1541
8 1420 1294 1423 1547 1545 1421 1548 1666
8 1547 1423 1293 1419 1667 1549 1422 1546
8 1434 1301 1427 1553 1546 1422 1549 1667
8 1423 1297 1424 1549 1548 1425 1550 1668
8 1551 1426 1550 1668 1427 1298 1424 1549
8 1551 1426 1298 1427 1671 1552 1428 1554
8 1562 1432 1554 1674 1434 1301 1427 1553
8 1431 1299 1429 1558 1554 1428 1555 1675
8 1431 1299 1430 1560 1558 1429 1557 1680
8 1560 1430 1300 1432 1683 1559 1433 1563
8 1561 1431 1554 1674 1684 1560 1432 1562
8 1685 1563 1432 1562 1565 1435 1301 1434
8 1435 1302 1436 1566 1563 1433 1564 1686
8 1437 1303 1438 1568 1565 1435 1566 1688
8 1438 1304 1439 1569 1566 1436 1567 1689
8 1440 1306 1441 1571 1568 1438 1569 1691
8 1441 1307 1442 1572 1569 1439 1570 1692
8 1443 1309 1444 1574 1571 1441 1572 1694
8 1310 1444 1572 1442 1445 1575 1695 1573
8 1446 1312 1447 1576 1574 1444 1575 1696
8 1486 1349 1485 1614 1579 1449 1577 1699
8 1451 1317 1449 1579 1581 1450 1578 1701
8 1487 1350 1486 1615 1582 1451 1579 1702
8 1581 1450 1580 1704 1453 1318 1452 1584
8 1582 1451 1581 1705 1454 1319 1453 1585
8 1584 1452 1583 1706 1456 1320 1455 1586
8 1585 1453 1584 1707 1457 1321 1456 1587
8 1587 1456 1586 1708 1458 1323 1459 1588
8 1633 1506 1589 1710 1507 1373 1461 1590
8 1464 1329 1461 1590 1594 1463 1589 1710
8 1468 1336 1462 1591 1595 1464 1590 1711
8 1634 1507 1590 1711 1508 1374 1462 1591
8 1473 1341 1463 1594 1603 1477 1593 1716
8 1469 1337 1464 1595 1599 1473 1594 1717
8 1471 1597 1467 1335 1600 1718 1596 1470
8 1718 1600 1496 1616 1596 1470 1360 1488
8 1336 1468 1597 1471 1472 1598 1719 1601
8 1469 1337 1473 1599 1598 1472 1602 1720
8 1722 1604 1501 1623 1600 1474 1367 1496
8 1475 1601 1471 1339 1604 1722 1600 1474
8 1602 1476 1605 1723 1472 1340 1475 1601
8 1476 1602 1724 1606 1341 1473 1603 1477
8 1483 1347 1478 1609 1612 1482 1608 1731
8 1495 1370 1504 1622 1609 1478 1608 1731
8 1618 1495 1609 1732 1494 1361 1479 1610
8 1484 1348 1479 1610 1613 1483 1609 1732
8 1486 1349 1482 1612 1614 1485 1611 1733
8 1613 1483 1612 1734 1487 1350 1486 1615
8 1489 1363 1496 1616 1617 1499 1623 1736
8 1491 1365 1499 1617 1619 1500 1626 1737
8 1618 1495 1361 1494 1738 1622 1497 1621
8 1739 1625 1498 1620 1619 1500 1366 1492
8 1621 1497 1362 1493 1740 1624 1498 1620
8 1742 1631 1504 1622 1624 1505 1371 1497
8 1743 1628 1502 1626 1623 1501 1368 1499
8 1744 1630 1505 1624 1625 1503 1372 1498
8 1745 1629 1503 1625 1626 1502 1369 1500
8 1520 1398 1528 1644 1633 1506 1632 1751
8 1637 1520 1633 1752 1512 1388 1507 1634
8 1635 1519 1643 1753 1510 1391 1522 1636
8 1657 1535 1643 1753 1534 1406 1519 1635
8 1515 1392 1522 1636 1639 1523 1646 1754
8 1517 1389 1521 1641 1637 1520 1644 1755
8 1524 1638 1756 1648 1393 1514 1639 1523
8 1640 1526 1395 1516 1756 1648 1524 1638
8 1642 1525 1396 1518 1757 1649 1526 1640
8 1758 1645 1521 1641 1642 1525 1396 1518
8 1646 1531 1400 1522 1760 1650 1527 1643
8 1535 1407 1536 1658 1643 1527 1650 1760
8 1521 1399 1529 1645 1644 1528 1651 1761
8 1647 1530 1652 1762 1525 1404 1529 1645
8 1401 1523 1648 1532 1531 1646 1763 1655
8 1525 1404 1533 1649 1647 1530 1654 1765
8 1533 1649 1766 1656 1403 1526 1648 1532
8 1662 1542 1658 1774 1539 1414 1535 1657
8 1542 1415 1543 1664 1658 1536 1659 1775
8 1660 1540 1663 1777 1538 1413 1541 1661
8 1545 1421 1548 1666 1660 1540 1663 1777
8 1662 1542 1414 1539 1778 1664 1541 1661
8 1664 1543 1416 1541 1779 1665 1544 1663
8 1548 1425 1550 1668 1663 1544 1665 1779
8 1547 1423 1549 1667 1666 1548 1668 1781
8 1670 1551 1668 1781 1553 1427 1549 1667
8 1551 1426 1552 1671 1668 1550 1669 1782
8 1670 1551 1427 1553 1784 1671 1554 1674
8 1675 1555 1672 1785 1554 1428 1552 1671
8 1678 1556 1673 1789 1558 1429 1555 1675
8 1561 1431 1558 1681 1674 1554 1675 1790
8 1794 1677 1556 1678 1680 1557 1429 1558
8 1560 1430 1559 1683 1680 1557 1679 1797
8 1561 1431 1560 1684 1681 1558 1680 1798
8 1563 1433 1564 1686 1683 1559 1682 1800
8 1684 1560 1432 1562 1801 1683 1563 1685
8 1565 1435 1566 1688 1685 1563 1686 1802
8 1566 1436 1567 1689 1686 1564 1687 1803
8 1568 1438 1569 1691 1688 1566 1689 1805
8 1569 1439 1570 1692 1689 1567 1690 1806
8 1571 1441 1572 1694 1691 1569 1692 1808
8 1442 1572 1692 1570 1573 1695 1809 1693
8 1574 1444 1575 1696 1694 1572 1695 1810
8 1614 1485 1592 1712 1699 1577 1697 1813
8 1579 1449 1577 1699 1701 1578 1698 1815
8 1615 1486 1614 1735 1702 1579 1699 1816
8 1701 1578 1700 1818 1581 1450 1580 1704
8 1582 1451 1579 1702 1705 1581 1701 1819
8 1704 1580 1703 1820 1584 1452 1583 1706
8 1705 1581 1704 1821 1585 1453 1584 1707
8 1707 1584 1706 1822 1587 1456 1586 1708
8 1710 1589 1506 1633 1824 1709 1632 1751
8 1594 1463 1589 1710 1716 1593 1709 1824
8 1752 1633 1710 1825 1634 1507 1590 1711
8 1595 1464 1590 1711 1717 1594 1710 1825
8 1830 1714 1592 1712 1733 1611 1485 1614
8 1603 1477 1593 1716 1725 1607 1715 1834
8 1599 1473 1594 1717 1721 1603 1716 1835
8 1837 1722 1623 1736 1718 1600 1496 1616
8 1719 1601 1722 1837 1597 1471 1600 1718
8 1602 1720 1598 1472 1723 1838 1719 1601
8 1720 1602 1473 1599 1839 1724 1603 1721
8 1723 1605 1726 1840 1601 1475 1604 1722
8 1840 1726 1628 1743 1722 1604 1501 1623
8 1724 1606 1727 1841 1602 1476 1605 1723
8 1725 1607 1728 1842 1603 1477 1606 1724
8 1612 1482 1608 1731 1733 1611 1730 1849
8 1741 1627 1730 1849 1622 1504 1608 1731
8 1613 1483 1609 1732 1734 1612 1731 1850
8 1618 1495 1622 1738 1732 1609 1731 1850
8 1615 1486 1612 1734 1735 1614 1733 1851
8 1852 1743 1626 1737 1736 1623 1499 1617
8 1853 1745 1625 1739 1737 1626 1500 1619
8 1855 1742 1622 1738 1740 1624 1497 1621
8 1856 1744 1624 1740 1739 1625 1498 1620
8 1741 1627 1504 1622 1857 1746 1631 1742
8 1742 1631 1505 1624 1858 1749 1630 1744
8 1859 1747 1629 1745 1743 1628 1502 1626
8 1860 1748 1630 1744 1745 1629 1503 1625
8 1644 1528 1651 1761 1751 1632 1750 1865
8 1637 1520 1644 1755 1752 1633 1751 1866
8 1754 1646 1522 1636 1867 1760 1643 1753
8 1657 1535 1658 1774 1753 1643 1760 1867
8 1639 1523 1646 1754 1756 1648 1763 1868
8 1641 1521 1645 1758 1755 1644 1761 1869
8 1757 1649 1526 1640 1870 1766 1648 1756
8 1642 1525 1649 1757 1759 1647 1765 1871
8 1759 1647 1762 1872 1642 1525 1645 1758
8 1760 1650 1767 1874 1646 1531 1655 1763
8 1658 1536 1659 1775 1760 1650 1767 1874
8 1762 1652 1768 1875 1645 1529 1651 1761
8 1764 1653 1769 1876 1647 1530 1652 1762
8 1656 1766 1877 1773 1532 1648 1763 1655
8 1771 1879 1765 1654 1653 1764 1647 1530
8 1533 1649 1765 1654 1656 1766 1880 1772
8 1662 1542 1664 1778 1774 1658 1775 1887
8 1664 1543 1665 1779 1775 1659 1776 1888
8 1778 1664 1541 1661 1890 1779 1663 1777
8 1666 1548 1668 1781 1777 1663 1779 1890
8 1782 1669 1780 1891 1668 1550 1665 1779
8 1670 1551 1671 1784 1781 1668 1782 1893
8 1671 1552 1672 1785 1782 1669 1783 1894
8 1790 1675 1785 1896 1674 1554 1671 1784
8 1675 1555 1673 1789 1785 1672 1786 1897
8 1792 1676 1788 1903 1678 1556 1673 1789
8 1795 1678 1789 1904 1681 1558 1675 1790
8 1792 1676 1556 1678 1906 1791 1677 1794
8 1680 1557 1679 1797 1794 1677 1793 1909
8 1910 1794 1678 1795 1798 1680 1558 1681
8 1683 1559 1682 1800 1797 1679 1796 1912
8 1684 1560 1683 1801 1798 1680 1797 1913
8 1686 1564 1687 1803 1800 1682 1799 1915
8 1685 1563 1686 1802 1801 1683 1800 1916
8 1688 1566 1689 1805 1802 1686 1803 1917
8 1689 1567 1690 1806 1803 1687 1804 1918
8 1691 1569 1692 1808 1805 1689 1806 1920
8 1692 1570 1693 1809 1806 1690 1807 1921
8 1694 1572 1695 1810 1808 1692 1809 1922
8 1829 1713 1811 1926 1712 1592 1697 1813
8 1813 1697 1812 1928 1699 1577 1698 1815
8 1735 1614 1712 1828 1816 1699 1813 1929
8 1815 1698 1814 1931 1701 1578 1700 1818
8 1702 1579 1699 1816 1819 1701 1815 1932
8 1818 1700 1817 1933 1704 1580 1703 1820
8 1819 1701 1818 1934 1705 1581 1704 1821
8 1821 1704 1820 1935 1707 1584 1706 1822
8 1824 1709 1632 1751 1937 1823 1750 1865
8 1716 1593 1709 1824 1834 1715 1823 1937
8 1825 1710 1633 1752 1938 1824 1751 1866
8 1717 1594 1710 1825 1835 1716 1824 1938
8 1945 1830 1712 1828 1851 1733 1614 1735
8 1830 1714 1831 1946 1712 1592 1713 1829
8 1947 1832 1714 1830 1849 1730 1611 1733
8 1843 1729 1607 1725 1950 1833 1715 1834
8 1721 1603 1716 1835 1836 1725 1834 1951
8 1836 1725 1842 1953 1721 1603 1724 1839
8 1723 1838 1719 1601 1840 1954 1837 1722
8 1954 1840 1743 1852 1837 1722 1623 1736
8 1724 1839 1720 1602 1841 1955 1838 1723
8 1841 1727 1844 1956 1723 1605 1726 1840
8 1956 1844 1747 1859 1840 1726 1628 1743
8 1728 1842 1724 1606 1845 1957 1841 1727
8 1725 1607 1729 1843 1842 1728 1846 1958
8 1741 1627 1746 1857 1849 1730 1848 1965
8 1734 1612 1731 1850 1851 1733 1849 1966
8 1854 1741 1849 1966 1738 1622 1731 1850
8 1967 1859 1745 1853 1852 1743 1626 1737
8 1968 1860 1744 1856 1853 1745 1625 1739
8 1854 1741 1622 1738 1969 1857 1742 1855
8 1855 1742 1624 1740 1970 1858 1744 1856
8 1857 1746 1631 1742 1971 1861 1749 1858
8 1858 1749 1630 1744 1972 1863 1748 1860
8 1859 1747 1862 1973 1745 1629 1748 1860
8 1875 1768 1864 1977 1761 1651 1750 1865
8 1755 1644 1761 1869 1866 1751 1865 1978
8 1867 1760 1874 1979 1754 1646 1763 1868
8 1774 1658 1775 1887 1867 1760 1874 1979
8 1870 1766 1648 1756 1980 1877 1763 1868
8 1872 1762 1875 1981 1758 1645 1761 1869
8 1757 1649 1766 1870 1871 1765 1880 1982
8 1983 1879 1764 1873 1871 1765 1647 1759
8 1873 1764 1876 1984 1759 1647 1762 1872
8 1877 1773 1655 1763 1986 1881 1767 1874
8 1775 1659 1776 1888 1874 1767 1881 1986
8 1876 1769 1882 1987 1762 1652 1768 1875
8 1878 1770 1883 1988 1764 1653 1769 1876
8 1880 1772 1656 1766 1989 1886 1773 1877
8 1878 1770 1653 1764 1990 1884 1771 1879
8 1765 1654 1772 1880 1879 1771 1885 1991
8 1778 1664 1779 1890 1887 1775 1888 1997
8 1998 1889 1776 1888 1891 1780 1665 1779
8 1893 1782 1891 2000 1781 1668 1779 1890
8 1894 1783 1892 2001 1782 1669 1780 1891
8 1784 1671 1785 1896 1893 1782 1894 2003
8 1897 1786 1895 2004 1785 1672 1783 1894
8 1790 1675 1789 1904 1896 1785 1897 2006
8 1901 1787 1898 2007 1789 1673 1786 1897
8 1903 1788 1900 2013 1789 1673 1787 1901
8 1792 1676 1791 1906 1903 1788 1902 2016
8 1907 1792 1903 2017 1795 1678 1789 1904
8 1906 1791 1677 1794 2019 1905 1793 1909
8 1907 1792 1678 1795 2020 1906 1794 1910
8 1797 1679 1796 1912 1909 1793 1908 2022
8 1798 1680 1797 1913 1910 1794 1909 2023
8 1800 1682 1799 1915 1912 1796 1911 2025
8 1801 1683 1800 1916 1913 1797 1912 2026
8 1803 1687 1804 1918 1915 1799 1914 2028
8 1802 1686 1803 1917 1916 1800 1915 2029
8 1805 1689 1806 1920 1917 1803 1918 2030
8 1806 1690 1807 1921 1918 1804 1919 2031
8 1808 1692 1809 1922 1920 1806 1921 2032
8 1939 1826 1924 2037 1829 1713 1811 1926
8 1926 1811 1925 2039 1813 1697 1812 1928
8 1944 1829 1926 2040 1828 1712 1813 1929
8 1928 1812 1927 2042 1815 1698 1814 1931
8 1929 1813 1928 2043 1816 1699 1815 1932
8 1931 1814 1930 2044 1818 1700 1817 1933
8 1932 1815 1931 2045 1819 1701 1818 1934
8 1934 1818 1933 2046 1821 1704 1820 1935
8 2048 1936 1823 1937 1977 1864 1750 1865
8 1950 1833 1715 1834 2048 1936 1823 1937
8 1938 1824 1751 1866 2049 1937 1865 1978
8 1835 1716 1824 1938 1951 1834 1937 2049
8 1939 1826 1713 1829 2053 1942 1831 1946
8 1940 1827 1923 2035 2053 1942 1826 1939
8 1945 1830 1946 2058 1828 1712 1829 1944
8 2059 1947 1830 1945 1966 1849 1733 1851
8 1947 1832 1730 1849 2060 1948 1848 1965
8 1947 1832 1948 2060 1830 1714 1831 1946
8 1959 1847 1729 1843 2063 1949 1833 1950
8 1952 1843 1725 1836 2064 1950 1834 1951
8 1836 1725 1843 1952 1953 1842 1958 2066
8 1953 1842 1957 2067 1839 1724 1841 1955
8 1841 1955 1838 1723 1956 2068 1954 1840
8 2068 1956 1859 1967 1954 1840 1743 1852
8 1956 1844 1960 2069 1859 1747 1862 1973
8 1845 1957 1841 1727 1960 2069 1956 1844
8 1728 1842 1957 1845 1846 1958 2071 1961
8 1962 2072 1959 1847 1846 1958 1843 1729
8 1971 1861 1964 2077 1857 1746 1848 1965
8 1854 1741 1857 1969 1966 1849 1965 2078
8 1967 1859 1973 2079 1853 1745 1860 1968
8 1970 1858 1744 1856 2080 1972 1860 1968
8 1969 1857 1742 1855 2081 1971 1858 1970
8 1971 1861 1749 1858 2082 1974 1863 1972
8 1973 1862 1975 2083 1860 1748 1863 1972
8 1987 1882 1976 2086 1875 1768 1864 1977
8 1981 1875 1977 2087 1869 1761 1865 1978
8 1980 1877 1763 1868 2088 1986 1874 1979
8 1887 1775 1888 1997 1979 1874 1986 2088
8 1880 1982 2089 1989 1766 1870 1980 1877
8 1984 1876 1987 2090 1872 1762 1875 1981
8 1765 1871 1983 1879 1880 1982 2091 1991
8 1985 1878 1764 1873 2092 1990 1879 1983
8 1985 1878 1988 2093 1873 1764 1876 1984
8 2094 1992 1881 1986 1998 1889 1776 1888
8 1986 1881 1992 2094 1877 1773 1886 1989
8 1988 1883 1993 2095 1876 1769 1882 1987
8 1878 1770 1884 1990 1988 1883 1994 2096
8 1991 1885 1772 1880 2097 1996 1886 1989
8 1879 1771 1885 1991 1990 1884 1995 2098
8 2103 1998 1888 1997 2000 1891 1779 1890
8 2104 1999 1889 1998 2001 1892 1780 1891
8 2003 1894 2001 2106 1893 1782 1891 2000
8 2004 1895 2002 2107 1894 1783 1892 2001
8 2006 1897 2004 2109 1896 1785 1894 2003
8 2007 1898 2005 2110 1897 1786 1895 2004
8 2014 1901 2007 2112 1904 1789 1897 2006
8 2011 1899 2008 2113 1901 1787 1898 2007
8 2119 2010 1899 2011 2013 1900 1787 1901
8 2016 1902 2012 2122 1903 1788 1900 2013
8 2017 1903 2013 2123 1904 1789 1901 2014
8 1906 1791 1905 2019 2016 1902 2015 2125
8 1907 1792 1906 2020 2017 1903 2016 2126
8 1909 1793 1908 2022 2019 1905 2018 2128
8 2020 1906 1794 1910 2129 2019 1909 2023
8 1912 1796 1911 2025 2022 1908 2021 2131
8 1913 1797 1912 2026 2023 1909 2022 2132
8 1915 1799 1914 2028 2025 1911 2024 2134
8 1916 1800 1915 2029 2026 1912 2025 2135
8 1918 1804 1919 2031 2028 1914 2027 2136
8 1917 1803 1918 2030 2029 1915 2028 2137
8 1920 1806 1921 2032 2030 1918 2031 2138
8 1940 1827 1941 2054 2035 1923 2033 2140
8 2035 1923 2034 2143 1939 1826 1924 2037
8 2037 1924 2036 2146 1926 1811 1925 2039
8 2051 1939 2037 2147 1944 1829 1926 2040
8 2039 1925 2038 2149 1928 1812 1927 2042
8 2040 1926 2039 2150 1929 1813 1928 2043
8 2042 1927 2041 2151 1931 1814 1930 2044
8 2043 1928 2042 2152 1932 1815 1931 2045
8 2045 1931 2044 2153 1934 1818 1933 2046
8 2155 2047 1936 2048 2086 1976 1864 1977
8 2063 1949 1833 1950 2155 2047 1936 2048
8 2156 2048 1937 2049 2087 1977 1865 1978
8 2064 1950 1834 1951 2156 2048 1937 2049
8 2051 1939 1829 1944 2160 2053 1946 2058
8 2052 1940 2035 2144 2160 2053 1939 2051
8 2053 1942 1831 1946 2163 2057 1948 2060
8 2055 1943 1827 1940 2163 2057 1942 2053
8 2055 1943 2056 2164 1940 1827 1941 2054
8 2059 1947 1849 1966 2167 2060 1965 2078
8 2059 1947 2060 2167 1945 1830 1946 2058
8 2077 1964 2061 2168 1965 1848 1948 2060
8 2070 1963 1847 1959 2170 2062 1949 2063
8 2065 1959 1843 1952 2171 2063 1950 2064
8 2173 2072 1958 2066 2065 1959 1843 1952
8 1953 1842 1958 2066 2067 1957 2071 2174
8 2068 1956 2069 2175 1967 1859 1973 2079
8 2067 1957 2069 2175 1955 1841 1956 2068
8 1845 1957 2069 1960 1961 2071 2176 2073
8 2069 1960 2073 2176 1973 1862 1975 2083
8 2070 1963 2075 2177 1959 1847 1962 2072
8 1846 1958 2071 1961 1962 2072 2178 2074
8 2077 1964 1861 1971 2182 2076 1974 2082
8 2081 1971 2077 2183 1969 1857 1965 2078
8 2079 1973 2083 2184 1968 1860 1972 2080
8 2081 1971 1858 1970 2185 2082 1972 2080
8 2083 1975 2084 2186 1972 1863 1974 2082
8 2086 1976 1882 1987 2189 2085 1993 2095
8 2090 1987 2086 2190 1981 1875 1977 2087
8 2191 2094 1986 2088 2103 1998 1888 1997
8 2088 1986 2094 2191 1980 1877 1989 2089
8 1991 2091 2192 2097 1880 1982 2089 1989
8 2093 1988 2095 2193 1984 1876 1987 2090
8 1879 1983 2092 1990 1991 2091 2194 2098
8 1985 1878 1990 2092 2093 1988 2096 2195
8 2097 1996 1886 1989 2196 2099 1992 2094
8 2196 2099 1992 2094 2104 1999 1889 1998
8 1994 2096 1988 1883 2100 2197 2095 1993
8 2096 1994 1884 1990 2198 2101 1995 2098
8 1995 2098 2199 2102 1885 1991 2097 1996
8 2203 2104 1998 2103 2106 2001 1891 2000
8 2107 2002 2105 2204 2001 1892 1999 2104
8 2109 2004 2107 2206 2003 1894 2001 2106
8 2110 2005 2108 2207 2004 1895 2002 2107
8 2112 2007 2110 2209 2006 1897 2004 2109
8 2113 2008 2111 2210 2007 1898 2005 2110
8 2120 2011 2113 2212 2014 1901 2007 2112
8 2117 2009 2114 2213 2011 1899 2008 2113
8 2219 2116 2009 2117 2119 2010 1899 2011
8 2222 2118 2010 2119 2122 2012 1900 2013
8 2223 2119 2011 2120 2123 2013 1901 2014
8 2016 1902 2015 2125 2122 2012 2121 2225
8 2126 2016 2122 2226 2017 1903 2013 2123
8 2019 1905 2018 2128 2125 2015 2124 2228
8 2020 1906 2019 2129 2126 2016 2125 2229
8 2022 1908 2021 2131 2128 2018 2127 2231
8 2023 1909 2022 2132 2129 2019 2128 2232
8 2025 1911 2024 2134 2131 2021 2130 2234
8 2026 1912 2025 2135 2132 2022 2131 2235
8 1914 2028 2134 2024 2027 2136 2236 2133
8 2029 1915 2028 2137 2135 2025 2134 2237
8 2030 1918 2031 2138 2137 2028 2136 2238
8 2157 2050 2139 2240 2054 1941 2033 2140
8 2052 1940 2054 2161 2144 2035 2140 2242
8 2140 2033 2141 2243 2035 1923 2034 2143
8 2143 2034 2142 2246 2037 1924 2036 2146
8 2144 2035 2143 2247 2051 1939 2037 2147
8 2146 2036 2145 2249 2039 1925 2038 2149
8 2147 2037 2146 2250 2040 1926 2039 2150
8 2149 2038 2148 2251 2042 1927 2041 2151
8 2150 2039 2149 2252 2043 1928 2042 2152
8 2152 2042 2151 2253 2045 1931 2044 2153
8 2255 2154 2047 2155 2189 2085 1976 2086
8 2170 2062 1949 2063 2255 2154 2047 2155
8 2256 2155 2048 2156 2190 2086 1977 2087
8 2171 2063 1950 2064 2256 2155 2048 2156
8 2258 2159 2050 2157 2164 2056 1941 2054
8 2160 2053 1946 2058 2262 2163 2060 2167
8 2162 2055 1940 2052 2262 2163 2053 2160
8 2162 2055 2164 2263 2052 1940 2054 2161
8 2163 2057 1948 2060 2264 2165 2061 2168
8 2055 1943 2057 2163 2164 2056 2165 2264
8 2182 2076 2166 2268 2077 1964 2061 2168
8 2183 2077 2168 2269 2078 1965 2060 2167
8 2070 1963 2062 2170 2177 2075 2169 2271
8 2172 2070 1959 2065 2272 2170 2063 2171
8 2172 2070 2177 2273 2065 1959 2072 2173
8 2066 1958 2072 2173 2174 2071 2178 2274
8 2067 1957 2071 2174 2175 2069 2176 2275
8 2175 2069 2176 2275 2079 1973 2083 2184
8 2071 1961 2074 2178 2176 2073 2179 2276
8 2176 2073 2179 2276 2083 1975 2084 2186
8 2072 1962 2075 2177 2178 2074 2180 2277
8 2182 2076 1974 2082 2280 2181 2084 2186
8 2183 2077 1971 2081 2281 2182 2082 2185
8 2184 2083 2186 2282 2080 1972 2082 2185
8 2189 2085 1993 2095 2285 2188 2100 2197
8 2190 2086 1987 2090 2286 2189 2095 2193
8 2192 2097 1989 2089 2287 2196 2094 2191
8 2287 2196 2094 2191 2203 2104 1998 2103
8 2194 2098 1991 2091 2288 2199 2097 2192
8 2195 2096 2197 2289 2093 1988 2095 2193
8 2096 2195 2290 2198 1990 2092 2194 2098
8 2097 1996 2099 2196 2199 2102 2200 2291
8 2196 2099 1999 2104 2291 2200 2105 2204
8 2100 2197 2292 2201 1994 2096 2198 2101
8 1995 2098 2198 2101 2102 2199 2293 2202
8 2206 2107 2204 2296 2106 2001 2104 2203
8 2207 2108 2205 2297 2107 2002 2105 2204
8 2209 2110 2207 2299 2109 2004 2107 2206
8 2210 2111 2208 2300 2110 2005 2108 2207
8 2212 2113 2210 2302 2112 2007 2110 2209
8 2213 2114 2211 2303 2113 2008 2111 2210
8 2220 2117 2213 2305 2120 2011 2113 2212
8 2216 2115 2214 2306 2117 2009 2114 2213
8 2216 2115 2009 2117 2311 2217 2116 2219
8 2219 2116 2010 2119 2314 2218 2118 2222
8 2315 2219 2117 2220 2223 2119 2011 2120
8 2122 2012 2121 2225 2222 2118 2221 2317
8 2318 2222 2119 2223 2226 2122 2013 2123
8 2125 2015 2124 2228 2225 2121 2224 2320
8 2126 2016 2125 2229 2226 2122 2225 2321
8 2128 2018 2127 2231 2228 2124 2227 2323
8 2129 2019 2128 2232 2229 2125 2228 2324
8 2131 2021 2130 2234 2231 2127 2230 2326
8 2132 2022 2131 2235 2232 2128 2231 2327
8 2134 2024 2133 2236 2234 2130 2233 2328
8 2135 2025 2134 2237 2235 2131 2234 2329
8 2137 2028 2136 2238 2237 2134 2236 2330
8 2157 2050 2158 2259 2240 2139 2239 2332
8 2257 2157 2240 2334 2161 2054 2140 2242
8 2240 2139 2241 2335 2140 2033 2141 2243
8 2242 2140 2243 2337 2144 2035 2143 2247
8 2243 2141 2244 2338 2143 2034 2142 2246
8 2246 2142 2245 2341 2146 2036 2145 2249
8 2247 2143 2246 2342 2147 2037 2146 2250
8 2249 2145 2248 2343 2149 2038 2148 2251
8 2250 2146 2249 2344 2150 2039 2149 2252
8 2252 2149 2251 2345 2152 2042 2151 2253
8 2169 2271 2347 2254 2062 2170 2255 2154
8 2189 2085 2188 2285 2255 2154 2254 2347
8 2348 2255 2155 2256 2286 2189 2086 2190
8 2272 2170 2063 2171 2348 2255 2155 2256
8 2349 2258 2157 2257 2263 2164 2054 2161
8 2258 2159 2261 2351 2157 2050 2158 2259
8 2258 2159 2056 2164 2351 2261 2165 2264
8 2262 2163 2060 2167 2355 2264 2168 2269
8 2162 2055 2163 2262 2263 2164 2264 2355
8 2357 2266 2165 2264 2268 2166 2061 2168
8 2268 2166 2076 2182 2361 2267 2181 2280
8 2281 2182 2268 2362 2183 2077 2168 2269
8 2271 2169 2270 2364 2177 2075 2180 2277
8 2172 2070 2170 2272 2273 2177 2271 2365
8 2072 2173 2274 2178 2177 2273 2366 2277
8 2071 2174 2275 2176 2178 2274 2367 2276
8 2275 2176 2276 2367 2184 2083 2186 2282
8 2283 2187 2084 2186 2368 2278 2179 2276
8 2178 2074 2180 2277 2276 2179 2278 2368
8 2283 2187 2279 2370 2186 2084 2181 2280
8 2281 2182 2082 2185 2371 2280 2186 2282
8 2188 2285 2374 2284 2100 2197 2292 2201
8 2286 2189 2095 2193 2375 2285 2197 2289
8 2192 2097 2196 2287 2288 2199 2291 2376
8 2287 2196 2104 2203 2376 2291 2204 2296
8 2194 2098 2199 2288 2290 2198 2293 2377
8 2289 2197 2096 2195 2378 2292 2198 2290
8 2291 2200 2105 2204 2379 2294 2205 2297
8 2199 2102 2200 2291 2293 2202 2294 2379
8 2198 2101 2202 2293 2292 2201 2295 2380
8 2299 2207 2297 2383 2206 2107 2204 2296
8 2300 2208 2298 2384 2207 2108 2205 2297
8 2302 2210 2300 2386 2209 2110 2207 2299
8 2303 2211 2301 2387 2210 2111 2208 2300
8 2305 2213 2303 2389 2212 2113 2210 2302
8 2306 2214 2304 2390 2213 2114 2211 2303
8 2310 2216 2306 2392 2220 2117 2213 2305
8 2308 2215 2307 2393 2216 2115 2214 2306
8 2308 2215 2115 2216 2396 2309 2217 2311
8 2310 2216 2117 2220 2398 2311 2219 2315
8 2311 2217 2116 2219 2399 2312 2218 2314
8 2314 2218 2118 2222 2402 2313 2221 2317
8 2315 2219 2119 2223 2403 2314 2222 2318
8 2225 2121 2224 2320 2317 2221 2316 2405
8 2226 2122 2225 2321 2318 2222 2317 2406
8 2228 2124 2227 2323 2320 2224 2319 2408
8 2229 2125 2228 2324 2321 2225 2320 2409
8 2231 2127 2230 2326 2323 2227 2322 2411
8 2232 2128 2231 2327 2324 2228 2323 2412
8 2234 2130 2233 2328 2326 2230 2325 2413
8 2235 2131 2234 2329 2327 2231 2326 2414
8 2237 2134 2236 2330 2329 2234 2328 2415
8 2259 2158 2260 2352 2332 2239 2331 2417
8 2257 2157 2259 2350 2334 2240 2332 2419
8 2240 2139 2239 2332 2335 2241 2333 2420
8 2334 2240 2335 2422 2242 2140 2243 2337
8 2335 2241 2336 2423 2243 2141 2244 2338
8 2337 2243 2338 2425 2247 2143 2246 2342
8 2338 2244 2339 2426 2246 2142 2245 2341
8 2341 2245 2340 2428 2249 2145 2248 2343
8 2342 2246 2341 2429 2250 2146 2249 2344
8 2344 2249 2343 2430 2252 2149 2251 2345
8 2188 2285 2347 2254 2284 2374 2432 2346
8 2347 2254 2346 2432 2271 2169 2270 2364
8 2365 2271 2170 2272 2433 2347 2255 2348
8 2286 2189 2285 2375 2348 2255 2347 2433
8 2349 2258 2351 2435 2257 2157 2259 2350
8 2349 2258 2164 2263 2435 2351 2264 2355
8 2259 2158 2261 2351 2352 2260 2354 2437
8 2356 2265 2354 2437 2264 2165 2261 2351
8 2441 2357 2264 2355 2362 2268 2168 2269
8 2356 2265 2165 2264 2442 2358 2266 2357
8 2443 2359 2266 2357 2361 2267 2166 2268
8 2370 2279 2360 2446 2280 2181 2267 2361
8 2362 2268 2182 2281 2447 2361 2280 2371
8 2180 2277 2368 2278 2270 2364 2449 2363
8 2271 2365 2273 2177 2364 2450 2366 2277
8 2372 2283 2186 2282 2451 2368 2276 2367
8 2178 2274 2367 2276 2277 2366 2451 2368
8 2283 2187 2278 2368 2370 2279 2369 2452
8 2372 2283 2370 2453 2282 2186 2280 2371
8 2284 2374 2455 2373 2201 2292 2380 2295
8 2375 2285 2197 2289 2456 2374 2292 2378
8 2376 2291 2204 2296 2457 2379 2297 2383
8 2288 2199 2291 2376 2377 2293 2379 2457
8 2198 2290 2378 2292 2293 2377 2458 2380
8 2293 2202 2294 2379 2380 2295 2381 2459
8 2384 2298 2381 2459 2297 2205 2294 2379
8 2386 2300 2384 2463 2299 2207 2297 2383
8 2387 2301 2385 2464 2300 2208 2298 2384
8 2389 2303 2387 2466 2302 2210 2300 2386
8 2390 2304 2388 2467 2303 2211 2301 2387
8 2392 2306 2390 2469 2305 2213 2303 2389
8 2393 2307 2391 2470 2306 2214 2304 2390
8 2395 2308 2393 2472 2310 2216 2306 2392
8 2308 2215 2309 2396 2393 2307 2394 2473
8 2395 2308 2216 2310 2475 2396 2311 2398
8 2396 2309 2217 2311 2476 2397 2312 2399
8 2398 2311 2219 2315 2478 2399 2314 2403
8 2399 2312 2218 2314 2479 2400 2313 2402
8 2317 2221 2316 2405 2402 2313 2401 2482
8 2403 2314 2222 2318 2483 2402 2317 2406
8 2320 2224 2319 2408 2405 2316 2404 2485
8 2321 2225 2320 2409 2406 2317 2405 2486
8 2323 2227 2322 2411 2408 2319 2407 2488
8 2324 2228 2323 2412 2409 2320 2408 2489
8 2326 2230 2325 2413 2411 2322 2410 2490
8 2327 2231 2326 2414 2412 2323 2411 2491
8 2329 2234 2328 2415 2414 2326 2413 2492
8 2417 2331 2260 2352 2494 2416 2353 2438
8 2350 2259 2352 2436 2419 2332 2417 2496
8 2332 2239 2331 2417 2420 2333 2418 2497
8 2334 2240 2332 2419 2422 2335 2420 2499
8 2420 2333 2421 2500 2335 2241 2336 2423
8 2422 2335 2423 2502 2337 2243 2338 2425
8 2423 2336 2424 2503 2338 2244 2339 2426
8 2425 2338 2426 2505 2342 2246 2341 2429
8 2426 2339 2427 2506 2341 2245 2340 2428
8 2429 2341 2428 2507 2344 2249 2343 2430
8 2432 2346 2284 2374 2509 2431 2373 2455
8 2432 2346 2431 2509 2364 2270 2363 2449
8 2375 2285 2374 2456 2433 2347 2432 2510
8 2347 2433 2365 2271 2432 2510 2450 2364
8 2350 2259 2351 2435 2436 2352 2437 2514
8 2440 2356 2437 2514 2355 2264 2351 2435
8 2352 2260 2354 2437 2438 2353 2439 2516
8 2356 2265 2358 2442 2437 2354 2439 2516
8 2440 2356 2264 2355 2518 2442 2357 2441
8 2519 2443 2357 2441 2447 2361 2268 2362
8 2443 2359 2444 2520 2357 2266 2358 2442
8 2443 2359 2267 2361 2520 2444 2360 2446
8 2446 2360 2279 2370 2523 2445 2369 2452
8 2453 2370 2446 2524 2371 2280 2361 2447
8 2449 2363 2448 2525 2368 2278 2369 2452
8 2366 2277 2364 2450 2451 2368 2449 2526
8 2372 2283 2368 2451 2453 2370 2452 2527
8 2455 2373 2295 2380 2529 2454 2382 2460
8 2456 2374 2292 2378 2530 2455 2380 2458
8 2377 2293 2379 2457 2458 2380 2459 2531
8 2463 2384 2459 2531 2383 2297 2379 2457
8 2533 2461 2382 2460 2459 2381 2295 2380
8 2464 2385 2461 2533 2384 2298 2381 2459
8 2466 2387 2464 2537 2386 2300 2384 2463
8 2467 2388 2465 2538 2387 2301 2385 2464
8 2469 2390 2467 2540 2389 2303 2387 2466
8 2470 2391 2468 2541 2390 2304 2388 2467
8 2472 2393 2470 2543 2392 2306 2390 2469
8 2393 2307 2394 2473 2470 2391 2471 2544
8 2395 2308 2396 2475 2472 2393 2473 2546
8 2396 2309 2397 2476 2473 2394 2474 2547
8 2475 2396 2311 2398 2549 2476 2399 2478
8 2476 2397 2312 2399 2550 2477 2400 2479
8 2478 2399 2314 2403 2552 2479 2402 2483
8 2479 2400 2313 2402 2553 2480 2401 2482
8 2405 2316 2404 2485 2482 2401 2481 2556
8 2406 2317 2405 2486 2483 2402 2482 2557
8 2408 2319 2407 2488 2485 2404 2484 2559
8 2409 2320 2408 2489 2486 2405 2485 2560
8 2411 2322 2410 2490 2488 2407 2487 2561
8 2412 2323 2411 2491 2489 2408 2488 2562
8 2414 2326 2413 2492 2491 2411 2490 2563
8 2513 2434 2493 2565 2438 2353 2416 2494
8 2496 2417 2352 2436 2567 2494 2438 2515
8 2494 2416 2495 2568 2417 2331 2418 2497
8 2419 2332 2417 2496 2499 2420 2497 2570
8 2497 2418 2498 2571 2420 2333 2421 2500
8 2499 2420 2500 2573 2422 2335 2423 2502
8 2500 2421 2501 2574 2423 2336 2424 2503
8 2502 2423 2503 2576 2425 2338 2426 2505
8 2503 2424 2504 2577 2426 2339 2427 2506
8 2505 2426 2506 2578 2429 2341 2428 2507
8 2509 2431 2373 2455 2580 2508 2454 2529
8 2509 2431 2508 2580 2449 2363 2448 2525
8 2432 2510 2581 2509 2374 2456 2530 2455
8 2432 2510 2450 2364 2509 2581 2526 2449
8 2583 2511 2434 2513 2516 2439 2353 2438
8 2436 2352 2437 2514 2515 2438 2516 2588
8 2440 2356 2442 2518 2514 2437 2516 2588
8 2442 2358 2444 2520 2516 2439 2517 2589
8 2519 2443 2520 2591 2441 2357 2442 2518
8 2519 2443 2361 2447 2591 2520 2446 2524
8 2446 2360 2445 2523 2520 2444 2521 2592
8 2525 2448 2522 2593 2452 2369 2445 2523
8 2524 2446 2370 2453 2594 2523 2452 2527
8 2526 2449 2525 2595 2451 2368 2452 2527
8 2534 2462 2528 2597 2460 2382 2454 2529
8 2530 2455 2380 2458 2598 2529 2460 2532
8 2599 2533 2460 2532 2531 2459 2380 2458
8 2537 2464 2533 2599 2463 2384 2459 2531
8 2534 2462 2382 2460 2601 2535 2461 2533
8 2538 2465 2535 2601 2464 2385 2461 2533
8 2540 2467 2538 2604 2466 2387 2464 2537
8 2541 2468 2539 2605 2467 2388 2465 2538
8 2543 2470 2541 2607 2469 2390 2467 2540
8 2470 2391 2471 2544 2541 2468 2542 2608
8 2472 2393 2473 2546 2543 2470 2544 2610
8 2473 2394 2474 2547 2544 2471 2545 2611
8 2475 2396 2476 2549 2546 2473 2547 2613
8 2476 2397 2477 2550 2547 2474 2548 2614
8 2549 2476 2399 2478 2616 2550 2479 2552
8 2479 2400 2480 2553 2550 2477 2551 2617
8 2552 2479 2402 2483 2619 2553 2482 2557
8 2482 2401 2481 2556 2553 2480 2554 2620
8 2485 2404 2484 2559 2556 2481 2555 2623
8 2486 2405 2485 2560 2557 2482 2556 2624
8 2488 2407 2487 2561 2559 2484 2558 2625
8 2489 2408 2488 2562 2560 2485 2559 2626
8 2491 2411 2490 2563 2562 2488 2561 2627
8 2513 2434 2512 2585 2565 2493 2564 2630
8 2586 2513 2565 2632 2515 2438 2494 2567
8 2565 2493 2566 2633 2494 2416 2495 2568
8 2567 2494 2568 2635 2496 2417 2497 2570
8 2568 2495 2569 2636 2497 2418 2498 2571
8 2570 2497 2571 2638 2499 2420 2500 2573
8 2571 2498 2572 2639 2500 2421 2501 2574
8 2573 2500 2574 2641 2502 2423 2503 2576
8 2574 2501 2575 2642 2503 2424 2504 2577
8 2576 2503 2577 2643 2505 2426 2506 2578
8 2597 2528 2579 2645 2529 2454 2508 2580
8 2580 2508 2579 2645 2525 2448 2522 2593
8 2581 2509 2455 2530 2646 2580 2529 2598
8 2581 2509 2580 2646 2526 2449 2525 2595
8 2583 2511 2582 2648 2513 2434 2512 2585
8 2583 2511 2439 2516 2648 2582 2517 2589
8 2649 2583 2513 2586 2588 2516 2438 2515
8 2589 2517 2444 2520 2653 2587 2521 2592
8 2518 2442 2520 2591 2588 2516 2589 2654
8 2593 2522 2590 2655 2523 2445 2521 2592
8 2524 2446 2523 2594 2591 2520 2592 2656
8 2595 2525 2593 2657 2527 2452 2523 2594
8 2602 2536 2596 2659 2534 2462 2528 2597
8 2600 2534 2597 2660 2532 2460 2529 2598
8 2600 2534 2460 2532 2661 2601 2533 2599
8 2604 2538 2601 2661 2537 2464 2533 2599
8 2602 2536 2462 2534 2663 2603 2535 2601
8 2601 2535 2465 2538 2663 2603 2539 2605
8 2607 2541 2605 2665 2540 2467 2538 2604
8 2608 2542 2606 2666 2541 2468 2539 2605
8 2543 2470 2544 2610 2607 2541 2608 2668
8 2544 2471 2545 2611 2608 2542 2609 2669
8 2546 2473 2547 2613 2610 2544 2611 2671
8 2547 2474 2548 2614 2611 2545 2612 2672
8 2549 2476 2550 2616 2613 2547 2614 2674
8 2550 2477 2551 2617 2614 2548 2615 2675
8 2552 2479 2553 2619 2616 2550 2617 2677
8 2553 2480 2554 2620 2617 2551 2618 2678
8 2557 2482 2556 2624 2619 2553 2620 2680
8 2556 2481 2555 2623 2620 2554 2621 2681
8 2559 2484 2558 2625 2623 2555 2622 2683
8 2560 2485 2559 2626 2624 2556 2623 2684
8 2562 2488 2561 2627 2626 2559 2625 2685
8 2690 2629 2564 2630 2650 2584 2512 2585
8 2586 2513 2585 2651 2632 2565 2630 2691
8 2630 2564 2631 2692 2565 2493 2566 2633
8 2632 2565 2633 2694 2567 2494 2568 2635
8 2633 2566 2634 2695 2568 2495 2569 2636
8 2635 2568 2636 2697 2570 2497 2571 2638
8 2636 2569 2637 2698 2571 2498 2572 2639
8 2638 2571 2639 2700 2573 2500 2574 2641
8 2639 2572 2640 2701 2574 2501 2575 2642
8 2641 2574 2642 2702 2576 2503 2577 2643
8 2597 2528 2596 2659 2645 2579 2644 2704
8 2645 2579 2644 2704 2593 2522 2590 2655
8 2660 2597 2645 2705 2598 2529 2580 2646
8 2646 2580 2645 2705 2595 2525 2593 2657
8 2650 2584 2512 2585 2707 2647 2582 2648
8 2648 2582 2517 2589 2707 2647 2587 2653
8 2649 2583 2648 2708 2586 2513 2585 2651
8 2649 2583 2516 2588 2708 2648 2589 2654
8 2655 2590 2652 2710 2592 2521 2587 2653
8 2654 2589 2520 2591 2711 2653 2592 2656
8 2657 2593 2655 2712 2594 2523 2592 2656
8 2602 2536 2603 2663 2659 2596 2658 2714
8 2662 2602 2659 2715 2600 2534 2597 2660
8 2662 2602 2534 2600 2717 2663 2601 2661
8 2661 2601 2538 2604 2717 2663 2605 2665
8 2666 2606 2664 2718 2605 2539 2603 2663
8 2668 2608 2666 2720 2607 2541 2605 2665
8 2608 2542 2609 2669 2666 2606 2667 2721
8 2610 2544 2611 2671 2668 2608 2669 2723
8 2611 2545 2612 2672 2669 2609 2670 2724
8 2613 2547 2614 2674 2671 2611 2672 2726
8 2614 2548 2615 2675 2672 2612 2673 2727
8 2616 2550 2617 2677 2674 2614 2675 2729
8 2617 2551 2618 2678 2675 2615 2676 2730
8 2619 2553 2620 2680 2677 2617 2678 2732
8 2620 2554 2621 2681 2678 2618 2679 2733
8 2624 2556 2623 2684 2680 2620 2681 2735
8 2681 2621 2555 2623 2736 2682 2622 2683
8 2626 2559 2625 2685 2684 2623 2683 2737
8 2688 2628 2584 2650 2740 2686 2647 2707
8 2688 2628 2687 2742 2650 2584 2629 2690
8 2690 2629 2689 2745 2630 2564 2631 2692
8 2746 2690 2630 2691 2709 2650 2585 2651
8 2691 2630 2692 2747 2632 2565 2633 2694
8 2692 2631 2693 2748 2633 2566 2634 2695
8 2694 2633 2695 2750 2635 2568 2636 2697
8 2695 2634 2696 2751 2636 2569 2637 2698
8 2697 2636 2698 2753 2638 2571 2639 2700
8 2698 2637 2699 2754 2639 2572 2640 2701
8 2700 2639 2701 2755 2641 2574 2642 2702
8 2659 2596 2658 2714 2704 2644 2703 2757
8 2704 2644 2703 2757 2655 2590 2652 2710
8 2660 2597 2659 2715 2705 2645 2704 2758
8 2705 2645 2704 2758 2657 2593 2655 2712
8 2759 2706 2647 2707 2710 2652 2587 2653
8 2709 2650 2585 2651 2760 2707 2648 2708
8 2708 2648 2589 2654 2760 2707 2653 2711
8 2712 2655 2710 2761 2656 2592 2653 2711
8 2763 2713 2658 2714 2718 2664 2603 2663
8 2662 2602 2663 2717 2715 2659 2714 2764
8 2720 2666 2718 2767 2665 2605 2663 2717
8 2768 2719 2664 2718 2721 2667 2606 2666
8 2668 2608 2669 2723 2720 2666 2721 2770
8 2669 2609 2670 2724 2721 2667 2722 2771
8 2671 2611 2672 2726 2723 2669 2724 2773
8 2672 2612 2673 2727 2724 2670 2725 2774
8 2674 2614 2675 2729 2726 2672 2727 2776
8 2675 2615 2676 2730 2727 2673 2728 2777
8 2677 2617 2678 2732 2729 2675 2730 2779
8 2678 2618 2679 2733 2730 2676 2731 2780
8 2680 2620 2681 2735 2732 2678 2733 2782
8 2733 2679 2621 2681 2783 2734 2682 2736
8 2735 2681 2623 2684 2784 2736 2683 2737
8 2740 2686 2647 2707 2787 2738 2706 2759
8 2688 2628 2686 2740 2742 2687 2739 2789
8 2743 2688 2650 2709 2790 2740 2707 2760
8 2742 2687 2741 2792 2690 2629 2689 2745
8 2743 2688 2742 2793 2709 2650 2690 2746
8 2745 2689 2744 2795 2692 2631 2693 2748
8 2746 2690 2745 2796 2691 2630 2692 2747
8 2747 2692 2748 2797 2694 2633 2695 2750
8 2748 2693 2749 2798 2695 2634 2696 2751
8 2750 2695 2751 2800 2697 2636 2698 2753
8 2751 2696 2752 2801 2698 2637 2699 2754
8 2753 2698 2754 2802 2700 2639 2701 2755
8 2763 2713 2756 2804 2714 2658 2703 2757
8 2759 2706 2652 2710 2804 2756 2703 2757
8 2715 2659 2714 2764 2758 2704 2757 2805
8 2758 2704 2757 2805 2712 2655 2710 2761
8 2806 2759 2707 2760 2761 2710 2653 2711
8 2765 2716 2762 2808 2718 2664 2713 2763
8 2809 2763 2714 2764 2767 2718 2663 2717
8 2765 2716 2664 2718 2811 2766 2719 2768
8 2813 2768 2718 2767 2770 2721 2666 2720
8 2814 2769 2719 2768 2771 2722 2667 2721
8 2723 2669 2724 2773 2770 2721 2771 2816
8 2724 2670 2725 2774 2771 2722 2772 2817
8 2726 2672 2727 2776 2773 2724 2774 2819
8 2727 2673 2728 2777 2774 2725 2775 2820
8 2729 2675 2730 2779 2776 2727 2777 2822
8 2730 2676 2731 2780 2777 2728 2778 2823
8 2732 2678 2733 2782 2779 2730 2780 2825
8 2780 2731 2679 2733 2826 2781 2734 2783
8 2782 2733 2681 2735 2827 2783 2736 2784
8 2830 2785 2738 2787 2804 2756 2706 2759
8 2789 2739 2686 2740 2832 2786 2738 2787
8 2790 2740 2707 2760 2833 2787 2759 2806
8 2742 2687 2739 2789 2792 2741 2788 2835
8 2743 2688 2740 2790 2793 2742 2789 2836
8 2792 2741 2791 2838 2745 2689 2744 2795
8 2793 2742 2792 2839 2746 2690 2745 2796
8 2795 2744 2794 2841 2748 2693 2749 2798
8 2796 2745 2795 2842 2747 2692 2748 2797
8 2797 2748 2798 2843 2750 2695 2751 2800
8 2798 2749 2799 2844 2751 2696 2752 2801
8 2800 2751 2801 2845 2753 2698 2754 2802
8 2808 2762 2803 2847 2763 2713 2756 2804
8 2809 2763 2804 2848 2764 2714 2757 2805
8 2806 2759 2710 2761 2848 2804 2757 2805
8 2765 2716 2766 2811 2808 2762 2807 2850
8 2810 2765 2808 2851 2767 2718 2763 2809
8 2810 2765 2718 2767 2852 2811 2768 2813
8 2811 2766 2719 2768 2853 2812 2769 2814
8 2855 2814 2768 2813 2816 2771 2721 2770
8 2856 2815 2769 2814 2817 2772 2722 2771
8 2773 2724 2774 2819 2816 2771 2817 2858
8 2774 2725 2775 2820 2817 2772 2818 2859
8 2776 2727 2777 2822 2819 2774 2820 2861
8 2777 2728 2778 2823 2820 2775 2821 2862
8 2779 2730 2780 2825 2822 2777 2823 2864
8 2823 2778 2731 2780 2865 2824 2781 2826
8 2825 2780 2733 2782 2866 2826 2783 2827
8 2869 2828 2785 2830 2847 2803 2756 2804
8 2871 2829 2786 2832 2830 2785 2738 2787
8 2872 2830 2787 2833 2848 2804 2759 2806
8 2789 2739 2786 2832 2835 2788 2831 2874
8 2836 2789 2740 2790 2875 2832 2787 2833
8 2792 2741 2788 2835 2838 2791 2834 2877
8 2793 2742 2789 2836 2839 2792 2835 2878
8 2838 2791 2837 2880 2795 2744 2794 2841
8 2839 2792 2838 2881 2796 2745 2795 2842
8 2841 2794 2840 2882 2798 2749 2799 2844
8 2842 2795 2841 2883 2797 2748 2798 2843
8 2843 2798 2844 2884 2800 2751 2801 2845
8 2886 2846 2803 2847 2850 2807 2762 2808
8 2851 2808 2847 2887 2809 2763 2804 2848
8 2850 2807 2766 2811 2889 2849 2812 2853
8 2810 2765 2811 2852 2851 2808 2850 2890
8 2852 2811 2768 2813 2891 2853 2814 2855
8 2853 2812 2769 2814 2892 2854 2815 2856
8 2894 2856 2814 2855 2858 2817 2771 2816
8 2817 2772 2818 2859 2856 2815 2857 2895
8 2819 2774 2820 2861 2858 2817 2859 2897
8 2820 2775 2821 2862 2859 2818 2860 2898
8 2822 2777 2823 2864 2861 2820 2862 2900
8 2823 2778 2824 2865 2862 2821 2863 2901
8 2864 2823 2780 2825 2902 2865 2826 2866
8 2904 2867 2828 2869 2886 2846 2803 2847
8 2869 2828 2868 2906 2830 2785 2829 2871
8 2907 2869 2830 2872 2887 2847 2804 2848
8 2871 2829 2870 2909 2832 2786 2831 2874
8 2910 2871 2832 2875 2872 2830 2787 2833
8 2835 2788 2831 2874 2877 2834 2873 2912
8 2836 2789 2832 2875 2878 2835 2874 2913
8 2877 2834 2876 2915 2838 2791 2837 2880
8 2839 2792 2835 2878 2881 2838 2877 2916
8 2880 2837 2879 2917 2841 2794 2840 2882
8 2881 2838 2880 2918 2842 2795 2841 2883
8 2883 2841 2882 2919 2843 2798 2844 2884
8 2921 2885 2846 2886 2889 2849 2807 2850
8 2922 2886 2847 2887 2890 2850 2808 2851
8 2889 2849 2812 2853 2924 2888 2854 2892
8 2890 2850 2811 2852 2925 2889 2853 2891
8 2891 2853 2814 2855 2926 2892 2856 2894
8 2892 2854 2815 2856 2927 2893 2857 2895
8 2858 2817 2859 2897 2894 2856 2895 2929
8 2859 2818 2860 2898 2895 2857 2896 2930
8 2861 2820 2862 2900 2897 2859 2898 2932
8 2862 2821 2863 2901 2898 2860 2899 2933
8 2864 2823 2865 2902 2900 2862 2901 2934
8 2904 2867 2846 2886 2936 2903 2885 2921
8 2904 2867 2903 2936 2869 2828 2868 2906
8 2937 2904 2869 2907 2922 2886 2847 2887
8 2906 2868 2905 2939 2871 2829 2870 2909
8 2907 2869 2906 2940 2872 2830 2871 2910
8 2909 2870 2908 2942 2874 2831 2873 2912
8 2910 2871 2909 2943 2875 2832 2874 2913
8 2912 2873 2911 2945 2877 2834 2876 2915
8 2878 2835 2874 2913 2916 2877 2912 2946
8 2915 2876 2914 2947 2880 2837 2879 2917
8 2916 2877 2915 2948 2881 2838 2880 2918
8 2918 2880 2917 2949 2883 2841 2882 2919
8 2921 2885 2849 2889 2951 2920 2888 2924
8 2952 2921 2886 2922 2925 2889 2850 2890
8 2924 2888 2854 2892 2954 2923 2893 2927
8 2925 2889 2853 2891 2955 2924 2892 2926
8 2926 2892 2856 2894 2956 2927 2895 2929
8 2895 2857 2896 2930 2927 2893 2928 2957
8 2897 2859 2898 2932 2929 2895 2930 2959
8 2898 2860 2899 2933 2930 2896 2931 2960
8 2900 2862 2901 2934 2932 2898 2933 2961
8 2936 2903 2885 2921 2963 2935 2920 2951
8 2936 2903 2935 2963 2906 2868 2905 2939
8 2937 2904 2886 2922 2964 2936 2921 2952
8 2937 2904 2936 2964 2907 2869 2906 2940
8 2939 2905 2938 2966 2909 2870 2908 2942
8 2940 2906 2939 2967 2910 2871 2909 2943
8 2942 2908 2941 2969 2912 2873 2911 2945
8 2943 2909 2942 2970 2913 2874 2912 2946
8 2945 2911 2944 2971 2915 2876 2914 2947
8 2946 2912 2945 2972 2916 2877 2915 2948
8 2948 2915 2947 2973 2918 2880 2917 2949
8 2951 2920 2888 2924 2975 2950 2923 2954
8 2952 2921 2889 2925 2976 2951 2924 2955
8 2927 2893 2928 2957 2954 2923 2953 2978
8 2955 2924 2892 2926 2979 2954 2927 2956
8 2929 2895 2930 2959 2956 2927 2957 2980
8 2930 2896 2931 2960 2957 2928 2958 2981
8 2932 2898 2933 2961 2959 2930 2960 2982
8 2951 2920 2950 2975 2963 2935 2962 2984
8 2963 2935 2962 2984 2939 2905 2938 2966
8 2964 2936 2921 2952 2985 2963 2951 2976
8 2964 2936 2963 2985 2940 2906 2939 2967
8 2966 2938 2965 2987 2942 2908 2941 2969
8 2967 2939 2966 2988 2943 2909 2942 2970
8 2969 2941 2968 2989 2945 2911 2944 2971
8 2970 2942 2969 2990 2946 2912 2945 2972
8 2972 2945 2971 2991 2948 2915 2947 2973
8 2954 2923 2953 2978 2975 2950 2974 2993
8 2976 2951 2924 2955 2994 2975 2954 2979
8 2957 2928 2958 2981 2978 2953 2977 2995
8 2956 2927 2957 2980 2979 2954 2978 2996
8 2959 2930 2960 2982 2980 2957 2981 2997
8 2984 2962 2983 2999 2966 2938 2965 2987
8 2975 2950 2974 2993 2984 2962 2983 2999
8 2976 2951 2975 2994 2985 2963 2984 3000
8 2985 2963 2984 3000 2967 2939 2966 2988
8 2987 2965 2986 3001 2969 2941 2968 2989
8 2988 2966 2987 3002 2970 2942 2969 2990
8 2990 2969 2989 3003 2972 2945 2971 2991
8 2978 2953 2977 2995 2993 2974 2992 3004
8 2979 2954 2978 2996 2994 2975 2993 3005
8 2980 2957 2981 2997 2996 2978 2995 3006
8 2974 2993 2999 2983 2992 3004 3007 2998
8 2983 2999 2987 2965 2998 3007 3001 2986
8 3000 2984 2999 3008 2988 2966 2987 3002
8 2994 2975 2993 3005 3000 2984 2999 3008
8 3002 2987 3001 3009 2990 2969 2989 3003
8 2996 2978 2995 3006 3005 2993 3004 3010
8 3005 2993 3004 3010 3008 2999 3007 3011
8 3008 2999 3007 3011 3002 2987 3001 3009

CELL_TYPES 1910
12
12
12
12
12
12
12
12
12
12
12
12
12
12
12
12
12
12
12
12
12
12
12
12
12
12
12
12
12
12
12
12
12
12
12
12
12
12
12
12
12
12
12
12
12
12
12
12
12
12
12
12
12
12
12
12
12
12
12
12
12
12
12
12
12
12
12
12
12
12
12
12
12
12
12
12
12
12
12
12
12
12
12
12
12
12
12
12
12
12
12
12
12
12
12
12
12
12
12
12
12
12
12
12
12
12
12
12
12
12
12
12
12
12
12
12
12
12
12
12
12
12
12
12
12
12
12
12
12
12
12
12
12
12
12
12
12
12
12
12
12
12
12
12
12
12
12
12
12
12
12
12
12
12
12
12
12
12
12
12
12
12
12
12
12
12
12
12
12
12
12
12
12
12
12
12
12
12
12
12
12
12
12
12
12
12
12
12
12
12
12
12
12
12
12
12
12
12
12
12
12
12
12
12
12
12
12
12
12
12
12
12
12
12
12
12
12
12
12
12
12
12
12
12
12
12
12
12
12
12
12
12
12
12
12
12
12
12
12
12
12
12
12
12
12
12
12
12
12
12
12
12
12
12
12
12
12
12
12
12
12
12
12
12
12
12
12
12
12
12
12
12
12
12
12
12
12
12
12
12
12
12
12
12
12
12
12
12
12
12
12
12
12
12
12
12
12
12
12
12
12
12
12
12
12
12
12
12
12
12
12
12
12
12
12
12
12
12
12
12
12
12
12
12
12
12
12
12
12
12
12
12
12
12
12
12
12
12
12
12
12
12
12
12
12
12
12
12
12
12
12
12
12
12
12
12
12
12
12
12
12
12
12
12
12
12
12
12
12
12
12
12
12
12
12
12
12
12
12
12
12
12
12
12
12
12
12
12
12
12
12
12
12
12
12
12
12
12
12
12
12
12
12
12
12
12
12
12
12
12
12
12
12
12
12
12
12
12
12
12
12
12
12
12
12
12
12
12
12
12
12
12
12
12
12
12
12
12
12
12
12
12
12
12
12
12
12
12
12
12
12
12
12
12
12
12
12
12
12
12
12
12
12
12
12
12
12
12
12
12
12
12
12
12
12
12
12
12
12
12
12
12
12
12
12
12
12
12
12
12
12
12
12
12
12
12
12
12
12
12
12
12
12
12
12
12
12
12
12
12
12
12
12
12
12
12
12
12
12
12
12
12
12
12
12
12
12
12
12
12
12
12
12
12
12
12
12
12
12
12
12
12
12
12
12
12
12
12
12
12
12
12
12
12
12
12
12
12
12
12
12
12
12
12
12
12
12
12
12
12
12
12
12
12
12
12
12
12
12
12
12
12
12
12
12
12
12
12
12
12
12
12
12
12
12
12
12
12
12
12
12
12
12
12
12
12
12
12
12
12
12
12
12
12
12
12
12
12
12
12
12
12
12
12
12
12
12
12
12
12
12
12
12
12
12
12
12
12
12
12
12
12
12
12
12
12
12
12
12
12
12
12
12
12
12
12
12
12
12
12
12
12
12
12
12
12
12
12
12
12
12
12
12
12
12
12
12
12
12
12
12
12
12
12
12
12
12
12
12
12
12
12
12
12
12
12
12
12
12
12
12
12
12
12
12
12
12
12
12
12
12
12
12
12
12
12
12
12
12
12
12
12
12
12
12
12
12
12
12
12
12
12
12
12
12
12
12
12
12
12
12
12
12
12
12
12
12
12
12
12
12
12
12
12
12
12
12
12
12
12
12
12
12
12
12
12
12
12
12
12
12
12
12
12
12
12
12
12
12
12
12
12
12
12
12
12
12
12
12
12
12
12
12
12
12
12
12
12
12
12
12
12
12
12
12
12
12
12
12
12
12
12
12
12
12
12
12
12
12
12
12
12
12
12
12
12
12
12
12
12
12
12
12
12
12
12
12
12
12
12
12
12
12
12
12
12
12
12
12
12
12
12
12
12
12
12
12
12
12
12
12
12
12
12
12
12
12
12
12
12
12
12
12
12
12
12
12
12
12
12
12
12
12
12
12
12
12
12
12
12
12
12
12
12
12
12
12
12
12
12
12
12
12
12
12
12
12
12
12
12
12
12
12
12
12
12
12
12
12
12
12
12
12
12
12
12
12
12
12
12
12
12
12
12
12
12
12
12
12
12
12
12
12
12
12
12
12
12
12
12
12
12
12
12
12
12
12
12
12
12
12
12
12
12
12
12
12
12
12
12
12
12
12
12
12
12
12
12
12
12
12
12
12
12
12
12
12
12
12
12
12
12
12
12
12
12
12
12
12
12
12
12
12
12
12
12
12
12
12
12
12
12
12
12
12
12
12
12
12
12
12
12
12
12
12
12
12
12
12
12
12
12
12
12
12
12
12
12
12
12
12
12
12
12
12
12
12
12
12
12
12
12
12
12
12
12
12
12
12
12
12
12
12
12
12
12
12
12
12
12
12
12
12
12
12
12
12
12
12
12
12
12
12
12
12
12
12
12
12
12
12
12
12
12
12
12
12
12
12
12
12
12
12
12
12
12
12
12
12
12
12
12
12
12
12
12
12
12
12
12
12
12
12
12
12
12
12
12
12
12
12
12
12
12
12
12
12
12
12
12
12
12
12
12
12
12
12
12
12
12
12
12
12
12
12
12
12
12
12
12
12
12
12
12
12
12
12
12
12
12
12
12
12
12
12
12
12
12
12
12
12
12
12
12
12
12
12
12
12
12
12
12
12
12
12
12
12
12
12
12
12
12
12
12
12
12
12
12
12
12
12
12
12
12
12
12
12
12
12
12
12
12
12
12
12
12
12
12
12
12
12
12
12
12
12
12
12
12
12
12
12
12
12
12
12
12
12
12
12
12
12
12
12
12
12
12
12
12
12
12
12
12
12
12
12
12
12
12
12
12
12
12
12
12
12
12
12
12
12
12
12
12
12
12
12
12
12
12
12
12
12
12
12
12
12
12
12
12
12
12
12
12
12
12
12
12
12
12
12
12
12
12
12
12
12
12
12
12
12
12
12
12
12
12
12
12
12
12
12
12
12
12
12
12
12
12
12
12
12
12
12
12
12
12
12
12
12
12
12
12
12
12
12
12
12
12
12
12
12
12
12
12
12
12
12
12
12
12
12
12
12
12
12
12
12
12
12
12
12
12
12
12
12
12
12
12
12
12
12
12
12
12
12
12
12
12
12
12
12
12
12
12
12
12
12
12
12
12
12
12
12
12
12
12
12
12
12
12
12
12
12
12
12
12
12
12
12
12
12
12
12
12
12
12
12
12
12
12
12
12
12
12
12
12
12
12
12
12
12
12
12
12
12
12
12
12
12
12
12
12
12
12
12
12
12
12
12
12
12
12
12
12
12
12
12
12
12
12
12
12
12
12
12
12
12
12
12
12
12
12
12
12
12
12
12
12
12
12
12
12
12
12
12
12
12
12
12
12
12
12
12
12
12
12
12
12
12
12
12
12
12
12
12
12
12
12
12
12
12
12
12
12
12
12
12
12
12
12
12
12
12
12
12
12
12
12
12
12
12
12
12
12
12
12
12
12
12
12
12
12
12
12
12
12
12
12
12
12
12
12
12
12
12
12
12
12
12
12
12
12
12
12
12
12
12
12
12
12
12
12
12
12
12
12
12
12
12
12
12
12
12
12
12
12
12
12
12
12
12
12
12
12
12
12
12
12
12
12
12
12
12
12
12
12
12
12
12
12
12
12
12
12
12
12
12
12
12
12
12
12
12
12
12
12
12
12
12
12
12
12
12
12
12
12
12
12
12
12
12
12
12
12
12
12
12
12
12
12
12
12
12
12
12
12
12
12
12
12
12
12
12
12
12
12
12
12
12
12
12
12
12
12
12
12
12
12
12
12
12
12
12
12
12
12
12
12
12
12
12
12
12
12
12
12
12
12
12
12
12
12
12
12
12
12
12
12
12
12
12
12
12
12
12
12
12
12
12
12
12
12
12
12
12
12
12
12
12
12
12
12
12
12
12
12
12
12
12
12
12
12
12
12
12
12
12
12
12
12
12
12
12
12
12
12
12
12
12
12
12
12
12
12
12
12
12
12
12
12
12
12
12
12
12
12
12
12
12
12
12
12
12
12
12
12
12
12
12
12
12
12
12
12
12
12
12
12
12
12
12
12
12
12
12
12
12
12
12
12
12
12
12
12
12
12
12
12
12
12
12
12
12
12
12
12
12
12
12
12
12
12
12
12
12
12
12
12
12
12
12
12
12
12
12
12
12
12
12
12
12
12
12
12
12
12
12
12
12
12
12
12
12
12
12
12
12
12
12
12
12
12
12
12
12
12
12
12
12
12
12
12
12
12
12
12
12
12
12
12
12
12

POINT_DATA 3012
SCALARS Jp_lamdaP float 4
LOOKUP_TABLE default
0.999439 1 1 0.999439
1 1 1 1
0.999456 1 1 0.999456
0.999381 1 1 0.999381
0.999441 1 1 0.999441
0.999408 1 1 0.999408
1.01175 1.01345 1 0.998325
1 1 1 1
1 1 1 1
1 1 1 1
0.999485 1 1 0.999485
1.00779 1.00949 1 0.998319
0.999428 1 1 0.999428
0.99941 1 1 0.99941
0.999463 1 1 0.999463
0.999419 1 1 0.999419
0.999419 1 1 0.999419
0.999468 1 1 0.999468
1.0117 1.0134 1 0.998322
1 1 1 1
0.99937 1 1 0.99937
0.999414 1 1 0.999414
1.00533 1.0071 1 0.998234
1.01045 1.01215 1 0.998318
0.999393 1 1 0.999393
1.01155 1.01326 1 0.998308
1.03978 1.04324 1 0.996681
1 1 1 1
0.99972 1 1 0.99972
0.999732 1 1 0.999732
1 1 1 1
1.00597 1.00765 1 0.998329
0.999431 1 1 0.999431
0.999461 1 1 0.999461
1.01197 1.01345 1 0.99854
1 1 1 1
1.01171 1.01313 1 0.9986
1.00202 1.00364 1 0.998384
1.02675 1.03027 1 0.996579
1 1 1 1
1 1 1 1
0.999708 1 1 0.999708
1 1 1 1
0.999431 1 1 0.999431
1.00014 1.00199 1 0.998156
1 1 1 1
1.00419 1.00575 1 0.998455
0.999452 1 1 0.999452
0.999489 1 1 0.999489
0.999422 1 1 0.999422
1.01171 1.01341 1 0.998325
0.999693 1 1 0.999693
0.999404 1 1 0.999404
0.999407 1 1 0.999407
0.99945 1 1 0.99945
1.00508 1.00686 1 0.998225
1.01158 1.01329 1 0.998307
1.01025 1.01196 1 0.998315
1.04021 1.04368 1 0.996673
1 1 1 1
0.999389 1 1 0.999389
1.00022 1.00168 1 0.998544
1.0033 1.00509 1 0.99822
1.00814 1.00988 1 0.998278
1.03966 1.04328 1 0.996525
1.04079 1.04434 1 0.996599
0.999424 1 1 0.999424
1.00439 1.00604 1 0.998358
1.03847 1.0419 1 0.996716
1.06005 1.06447 1 0.995841
1 1 1 1
1 1 1 1
1 1 1 1
1.00448 1.00616 1 0.998337
1 1 1 1
1 1 1 1
1.01196 1.01373 1 0.998246
0.999796 1 1 0.999796
1.01061 1.0123 1 0.998326
1.00121 1.00253 1.00009 0.998591
1.02896 1.0325 1 0.996574
1 1 1 1
1.00331 1 1.00391 0.999406
1.00971 1.01157 1 0.998159
1.01233 1.01408 1 0.99827
1.04699 1.05093 1 0.996252
1.0001 1.00033 1.0008 0.998969
1.03696 1.0406 1 0.996508
1.02075 1.02401 1.00007 0.996745
1.04902 1.05342 1 0.99582
1 1 1 1
1 1 1 1
1 1 1 1
1 1 1 1
1 1 1 1
0.999717 1 1 0.999717
1.00072 1.00239 1 0.998338
0.999705 1 1 0.999705
1.00506 1.00676 1 0.998305
1 1 1 1
0.99941 1.00121 1 0.998202
1.00191 1.00344 1 0.998471
1.0366 1.04052 1 0.996235
1.00739 1.00892 1 0.998484
1.04316 1.04712 1 0.996217
0.999454 1 1 0.999454
0.999435 1 1 0.999435
0.999415 1 1 0.999415
0.99948 1 1 0.99948
1.00483 1.00662 1 0.998218
1.01007 1.01178 1 0.998314
1.01142 1.01313 1 0.998311
1.04083 1.04432 1 0.996665
1 1 1 1
0.99942 1 1 0.99942
0.999843 1.0016 1 0.998246
1.00294 1.00474 1 0.998208
0.999717 1 1 0.999717
1.00574 1.00729 1 0.998461
1.0079 1.00965 1 0.998273
1.03973 1.04337 1 0.996511
1.03778 1.04121 1 0.996707
1.04153 1.04507 1 0.996612
1.05971 1.06412 1 0.995851
0.999453 1.00123 1 0.998226
1.00152 1.00329 1 0.998242
1.03294 1.03651 1 0.996564
1.03639 1.04002 1 0.996513
1.04199 1.0456 1 0.996545
1.07438 1.07881 0.999891 0.996004
1 1 1 1
1.06449 1.06887 1 0.995899
0.999989 1.00105 1.00048 0.998464
1.02854 1.03205 1 0.996598
1.05635 1.06082 1 0.995781
1.06357 1.06791 1 0.995938
1.00236 1 1.00339 0.998965
1.00719 1.00017 1.00945 0.997591
1 1 1 1
1 1 1 1
1.01216 1.01394 1 0.99825
1 1 1 1
1.00028 1.00135 1.00045 0.998483
1.00979 1.01148 1 0.998333
1.03035 1.0339 1 0.99657
1 1 1 1
1.00355 1 1.00412 0.999431
1.01055 1.01224 1 0.998335
1.01237 1.01396 1 0.998432
1.04597 1.04991 1 0.99625
1.00043 1.00023 1.00139 0.998813
1.03698 1.04061 1 0.996508
1.01919 1.02241 1.00012 0.996741
1.04909 1.05349 1 0.995828
1.0019 1 1.00278 0.999115
1.00396 1 1.00433 0.999627
1.00862 1.00147 1.00916 0.997999
1.0476 1.05161 1 0.996191
1.04392 1.04772 1 0.996377
1.06867 1.07318 1 0.995802
1.01358 1.01518 1.00132 0.997098
1.05508 1.05941 1 0.995915
1.03673 1.04046 1.00057 0.995849
1.05606 1.06053 1 0.995786
1 1 1 1
1 1 1 1
1 1 1 1
1.00288 1 1.0037 0.99918
1 1 1 1
1 1 1 1
1 1 1 1
1.00571 1.00756 1 0.998162
1.00092 1.00273 1 0.998197
1 1 1 1
1 1 1 1
0.999584 1.00138 1 0.998202
1.00237 1.00405 1 0.998325
1.03656 1.04047 1 0.996236
1.00782 1.00968 1 0.998159
1.04195 1.04591 1 0.996215
0.999155 1.00095 1 0.998208
1.03416 1.03809 1 0.996219
1.03962 1.04354 1 0.996242
1.07568 1.08107 0.998868 0.996137
1.04557 1.04957 1 0.996188
1.07714 1.08244 0.999035 0.996064
1 1 1 1
0.999452 1 1 0.999452
0.9994 1.00149 1 0.997911
1.0026 1.00441 1 0.998198
1 1 1 1
1.00739 1.00883 1 0.998568
1.00768 1.00942 1 0.99827
1.03975 1.04341 1 0.996497
1.04241 1.04594 1 0.996625
1.03686 1.04029 1 0.996698
1.05903 1.06343 1 0.995861
0.999317 1.0011 1 0.998224
1.00124 1.00302 1 0.99823
1.03347 1.03718 1 0.996415
1.03696 1.04059 1 0.996511
1 1 1 1
1.00156 1.00274 1.00024 0.998585
1.02824 1.03163 1 0.996708
1.0424 1.04602 1 0.996536
1.07396 1.07877 0.999513 0.996027
1.05641 1.06089 1 0.995781
1.06447 1.06882 1 0.995926
1.06311 1.06743 1 0.995947
1.00202 1 1.00307 0.998952
1.00702 1.00083 1.00862 0.997589
1.03253 1.03643 1 0.996239
1.03393 1.03751 1 0.996548
1.07432 1.07947 0.999094 0.996124
1.07339 1.07942 0.998332 0.996079
1.06917 1.0741 0.999378 0.996022
1.07152 1.08005 0.995799 0.996292
1.00061 1 1.0019 0.998712
1.06565 1.07034 0.999486 0.996131
1.01771 1.02087 1.00011 0.996805
1.0516 1.05609 1 0.995752
1.06256 1.06711 1 0.995735
1.06151 1.06613 0.999387 0.996283
1.00537 1.00255 1.00558 0.997252
1.0079 1.00009 1.00985 0.99798
1.00704 1.00425 1.00598 0.996816
1.01106 1.01288 1 0.998196
1 1 1 1
1.00334 1 1.00388 0.999456
1.01206 1.01378 1 0.998308
1.04513 1.04906 1 0.996247
1.00049 1 1.00168 0.998807
1.01915 1.02244 1.00004 0.996737
1.03684 1.04047 1 0.996508
1.05043 1.05482 1 0.995836
1.0022 1 1.00307 0.999139
1.00307 1 1.00343 0.999646
1.00798 1.00053 1.00947 0.997998
1.04661 1.05062 1 0.996186
1.0429 1.04669 1 0.996378
1.06894 1.07346 1 0.995796
1.01056 1.01248 1.001 0.997102
1.05583 1.06017 1 0.995909
1.04169 1.04555 1.00047 0.995837
1.05737 1.06183 1 0.995804
1.00195 1 1.00218 0.999766
1.00841 1.00581 1.00508 0.997514
1.0096 1 1.01115 0.998459
1.0105 1.00634 1.00681 0.997338
1.07365 1.07812 1 0.995854
1.06248 1.06691 1 0.99584
1.06924 1.07407 0.999565 0.995931
1.0245 1.02756 1.00083 0.996194
1.05678 1.06102 1 0.996006
1.05187 1.05482 1.00158 0.995628
1.06939 1.07387 1 0.99583
1.00058 1 1.00123 0.999356
0.999903 1 1 0.999903
1 1 1 1
1 1 1 1
1 1 1 1
1.00349 1 1.0041 0.99939
1 1 1 1
1.00299 1 1.00384 0.99916
1 1 1 1
1.00871 1.01057 1 0.99816
1.00295 1.00478 1 0.998182
1.04121 1.04517 1 0.996213
1.0366 1.04052 1 0.996237
0.9998 1.0016 1 0.998204
1 1 1 1
0.999222 1.00102 1 0.998207
1.03434 1.03826 1 0.99622
1.0393 1.04322 1 0.996241
1.07547 1.0808 0.998923 0.996136
1.04496 1.04896 1 0.996182
1.07764 1.08282 0.999144 0.996062
1.03271 1.03662 1 0.996221
1.07484 1.08009 0.999017 0.996118
1.07657 1.08199 0.998862 0.996124
1.06994 1.08029 0.993888 0.996508
1.07723 1.08209 0.999549 0.995962
1.07225 1.08356 0.993161 0.996382
0.999263 1.00104 1 0.998222
1.00096 1.00275 1 0.998218
1.03402 1.0379 1 0.996267
1.03756 1.04119 1 0.996509
1 1 1 1
1.00289 1.00414 1.00004 0.99871
1.02793 1.03121 1 0.996816
1.0428 1.04643 1 0.996527
1.07358 1.07881 0.999097 0.99605
1.06427 1.06859 1 0.995955
1.05714 1.06162 1 0.995782
1.06289 1.06721 1 0.995956
1.00185 1 1.00291 0.998939
1.00753 1.00166 1.00829 0.997587
1.03268 1.03657 1 0.996245
1.03458 1.03817 1 0.996542
1.0736 1.07912 0.998732 0.996154
1.07438 1.07986 0.998864 0.996053
1.00038 1.0002 1.00148 0.998701
1.01842 1.02149 1.00019 0.996805
1.05235 1.05682 1 0.995768
1.06932 1.07398 0.999672 0.995992
1.07059 1.07984 0.995068 0.996347
1.06187 1.06642 1 0.995739
1.06578 1.07055 0.999415 0.996134
1.06174 1.06637 0.999384 0.99627
1.00684 1.00417 1.00542 0.997251
1.00822 1.00481 1.0066 0.996813
1.00908 1.00018 1.01094 0.997982
1.07403 1.07915 0.999139 0.996111
1.07442 1.08032 0.998388 0.996147
1.07037 1.07963 0.994977 0.996433
1.07117 1.08234 0.99328 0.996376
1.06643 1.07374 0.996895 0.996285
1.06154 1.07654 0.989375 0.996654
1.00656 1.00867 1.00087 0.997037
1.06018 1.06971 0.994602 0.996469
1.04025 1.04448 1 0.99595
1.05529 1.06009 1 0.99547
1.05787 1.06229 1 0.99584
1.05349 1.06113 0.996223 0.996559
1.01151 1 1.01325 0.998285
1.00971 1.01118 1.00199 0.996558
1.0094 1.00111 1.0112 0.997122
1.01126 1.01052 1.00432 0.996431
1.04569 1.0497 1 0.996181
1.00249 1 1.00283 0.999664
1.00268 1 1.00352 0.999164
1.00912 1.00011 1.01103 0.997997
1.04204 1.04583 1 0.996379
1.0691 1.07362 1 0.99579
1.00586 1.00803 1.00074 0.997106
1.04318 1.04721 1.00033 0.995825
1.05668 1.06103 1 0.995904
1.05678 1.06121 1 0.995821
1.00123 1 1.00145 0.999779
1.00688 1.00373 1.00563 0.997523
1.01046 1.00009 1.01193 0.998462
1.00939 1.00485 1.0072 0.997336
1.0733 1.07778 1 0.995847
1.06289 1.06733 1 0.995837
1.0687 1.07348 0.999615 0.995929
1.02221 1.02532 1.00077 0.996197
1.05622 1.06048 1 0.995982
1.0484 1.0512 1.00173 0.995614
1.06874 1.07311 1 0.99593
0.999849 1 1 0.999849
1.00704 1 1.00824 0.998806
1.01228 1.01318 1.00232 0.996799
1.0148 1.00313 1.01397 0.997707
1.00858 1.00855 1.00293 0.997107
1.07128 1.07822 0.997495 0.996062
1.06296 1.06731 1 0.995926
1.06176 1.06919 0.996915 0.996125
1.02407 1.02633 1.00199 0.995812
1.05917 1.06334 1 0.99608
1.04109 1.04489 1.00086 0.995516
1.00089 1 1.00165 0.999237
1.00311 1 1.00447 0.998645
0.999457 1 1 0.999457
0.999868 1 1.00051 0.999358
0.99994 1 1 0.99994
0.999911 1 1 0.999911
1 1 1 1
1 1 1 1
1 1 1 1
1.00224 1 1.00261 0.999625
1 1 1 1
1.00348 1 1.00411 0.999372
1 1 1 1
1.00261 1 1.00347 0.99914
1 1 1 1
1.04407 1.04807 1 0.996177
1.03869 1.04261 1 0.99624
1.07775 1.08282 0.999257 0.996059
1.07515 1.08043 0.998971 0.996135
1.03448 1.0384 1 0.996221
0.999218 1.00101 1 0.998206
1.03286 1.03678 1 0.996221
1.07445 1.07967 0.999042 0.996119
1.07661 1.08196 0.998927 0.996122
1.06949 1.08047 0.993287 0.996525
1.07645 1.08124 0.999615 0.995957
1.07236 1.0836 0.993214 0.996381
1.07401 1.07922 0.999058 0.996106
1.06899 1.07981 0.993428 0.996532
1.07133 1.08214 0.993524 0.99647
1.06612 1.07994 0.990442 0.996732
1.0706 1.08091 0.994202 0.996239
1.06606 1.08387 0.986811 0.996714
1.03272 1.0366 1 0.996252
1.03524 1.03884 1 0.996535
1.07291 1.07877 0.99838 0.996184
1.07527 1.08023 0.999382 0.996026
1.00025 1.0005 1.00105 0.998691
1.01986 1.02295 1.00017 0.996807
1.05398 1.05844 1 0.995785
1.06948 1.07382 1 0.995963
1.06969 1.07961 0.994392 0.996402
1.06594 1.07077 0.999346 0.996137
1.06083 1.06537 1 0.995742
1.06184 1.06648 0.999384 0.996256
1.00861 1.0062 1.00516 0.997249
1.00784 1.00459 1.00644 0.996809
1.00944 1.0003 1.01117 0.997984
1.07361 1.07875 0.999123 0.996114
1.07375 1.07994 0.998115 0.996145
1.06992 1.07989 0.994264 0.99648
1.07124 1.08182 0.993845 0.99635
1.01066 1.01248 1.00116 0.997037
1.03946 1.04368 1 0.995952
1.0549 1.05964 1.00003 0.99549
1.06717 1.07391 0.997479 0.996234
1.06107 1.07683 0.98862 0.996701
1.05865 1.06312 1 0.9958
1.06055 1.07003 0.994643 0.996469
1.05443 1.06185 0.996405 0.996597
1.01038 1.01179 1.00206 0.996559
1.00933 1.00883 1.00413 0.996378
1.00964 1 1.01138 0.998286
1.00857 1.0007 1.01073 0.997167
1.0697 1.07945 0.994469 0.996484
1.07251 1.08291 0.993965 0.996405
1.06097 1.07538 0.989919 0.996649
1.05938 1.0783 0.985672 0.996732
1.05966 1.07382 0.990158 0.996623
1.06151 1.08037 0.985629 0.996868
1.02152 1.02521 1.00016 0.996246
1.05181 1.06728 0.988639 0.996834
1.03999 1.0446 1 0.995583
1.05081 1.05554 1.00018 0.995344
1.05628 1.06066 1 0.995868
1.05806 1.06603 0.995878 0.996625
1.00649 1 1.00793 0.998574
1.01299 1.00134 1.01431 0.997371
1.01493 1.01848 1.00035 0.996163
1.00874 1.00508 1.00686 0.996809
1.0118 1.00859 1.007 0.996205
1.00051 1 1.00072 0.999793
1.07294 1.07742 1 0.99584
1.01018 1.00021 1.01152 0.998466
1.00547 1.00181 1.00613 0.997532
1.00781 1.00325 1.00723 0.997333
1.06326 1.06771 1 0.995833
1.06816 1.07289 0.999665 0.995927
1.0236 1.02699 1.00051 0.996199
1.04813 1.05074 1.00193 0.9956
1.05584 1.06012 1 0.99596
1.06892 1.07318 1 0.99603
0.999859 1 1 0.999859
1.00719 1 1.00839 0.998817
1.01001 1.0116 1.00161 0.996809
1.01519 1.00278 1.0147 0.997699
1.00868 1.00844 1.00322 0.997031
1.07141 1.07826 0.997575 0.996057
1.06252 1.06687 1 0.995925
1.06124 1.06878 0.996818 0.996114
1.02508 1.02718 1.00215 0.995808
1.06291 1.06712 1 0.996057
1.04126 1.0449 1.00096 0.995558
1.00239 1 1.00333 0.999067
1.01278 1.00081 1.01391 0.998078
1.0054 1.00847 1.00056 0.996398
1.01781 1.00858 1.01184 0.997345
1.01417 1.01526 1.00205 0.996873
1.06548 1.0783 0.991782 0.996302
1.05831 1.06261 0.999883 0.996071
1.05464 1.06461 0.994267 0.996346
1.00613 1.00664 1.00379 0.995721
1.03779 1.0424 1 0.995577
1.00099 1 1.00175 0.999239
1.00154 1 1.00301 0.998534
1.00344 1 1.00482 0.998621
1.00289 1 1.00451 0.998391
1.00144 1 1.00271 0.998734
0.999519 1 1 0.999519
0.999633 1 1.00017 0.999461
0.999967 1 1 0.999967
0.999946 1 1.00059 0.99936
0.999948 1 1 0.999948
1 1 1 1
0.999919 1 1 0.999919
1 1 1 1
1 1 1 1
1.00047 1 1.00063 0.999837
1.00329 1 1.00369 0.999607
1 1 1 1
1 1 1 1
1.00398 1 1.00463 0.999355
1 1 1 1
1.07587 1.08059 0.99968 0.995953
1.07694 1.08223 0.998988 0.99612
1.07256 1.08375 0.993262 0.996381
1.06912 1.08074 0.992677 0.996541
1.07405 1.07924 0.999075 0.996119
1.0331 1.03702 1 0.996221
1.0737 1.0789 0.999071 0.996107
1.06915 1.07972 0.993659 0.996527
1.07154 1.08239 0.993477 0.99647
1.06527 1.07979 0.989759 0.99676
1.07147 1.08182 0.994177 0.996234
1.06619 1.08396 0.986819 0.996736
1.06935 1.07976 0.993836 0.996502
1.06407 1.07925 0.989193 0.996714
1.06689 1.08194 0.989257 0.996791
1.06722 1.08644 0.985386 0.996878
1.06546 1.08249 0.987681 0.996544
1.06948 1.09014 0.984065 0.996933
1.07321 1.07836 0.999107 0.996116
1.07308 1.07954 0.99786 0.996144
1.06939 1.08012 0.993518 0.996527
1.07131 1.0813 0.994422 0.996323
1.01337 1.01482 1.00154 0.997037
1.03624 1.04045 1 0.995953
1.05392 1.05848 1.00018 0.99551
1.06788 1.0741 0.998011 0.996183
1.06063 1.07711 0.987911 0.996747
1.06105 1.0705 0.994684 0.99647
1.05943 1.06394 1 0.99576
1.05522 1.06243 0.996567 0.996636
1.01242 1.0129 1.00298 0.996559
1.00865 1.0082 1.00414 0.996326
1.00886 1 1.01059 0.998287
1.00805 1.00057 1.0103 0.997211
1.06989 1.07966 0.994454 0.996483
1.07212 1.08252 0.993988 0.996388
1.06077 1.07537 0.989717 0.996679
1.06048 1.07847 0.986565 0.996715
1.02186 1.02478 1.00092 0.996241
1.03866 1.04321 1.00003 0.995613
1.05024 1.05476 1.00039 0.995332
1.06059 1.07402 0.990893 0.996574
1.05968 1.07925 0.984891 0.996924
1.05427 1.05865 1 0.995854
1.05292 1.06845 0.988599 0.996834
1.05732 1.06537 0.995738 0.996696
1.01358 1.01665 1.00081 0.996169
1.00946 1.0084 1.00489 0.996188
1.00843 1.00382 1.00781 0.996807
1.00713 1 1.00859 0.998551
1.01262 1.00055 1.0147 0.99741
1.06279 1.07809 0.989081 0.996695
1.06309 1.08049 0.987142 0.996707
1.05928 1.08448 0.979793 0.996908
1.05448 1.07551 0.983469 0.996925
1.02265 1.02686 1 0.995902
1.05577 1.07265 0.98722 0.997004
1.02465 1.02912 1.00029 0.995365
1.04232 1.04683 1.00051 0.995195
1.05286 1.05771 0.999536 0.995874
1.00244 1 1.00351 0.998934
1.01225 1 1.01447 0.99781
1.00805 1.00013 1.01086 0.997084
1.01043 1.01294 1.00149 0.99604
1.01023 1.0052 1.00869 0.996343
1.01023 1.00806 1.00613 0.99604
0.999868 1 1 0.999868
1.00737 1 1.00855 0.998828
1.0715 1.07827 0.997657 0.996053
1.01622 1.00224 1.0163 0.997691
1.00653 1.00854 1.00119 0.99682
1.00919 1.00871 1.00353 0.996956
1.06192 1.06627 1 0.995923
1.06091 1.06856 0.996726 0.996103
1.0243 1.02626 1.00229 0.995806
1.04029 1.04408 1.00077 0.995601
1.06696 1.07121 0.999999 0.996034
1.00179 1 1.00272 0.999073
1.01333 1.00034 1.01493 0.998081
1.00859 1.01172 1.00056 0.996349
1.01803 1.00759 1.01305 0.997345
1.01464 1.01594 1.00188 0.996853
1.06413 1.07691 0.991798 0.996297
1.06068 1.06502 0.999872 0.996057
1.05729 1.06699 0.994531 0.996367
1.00863 1.00971 1.00324 0.995696
1.03573 1.04031 1.00006 0.995541
1.00544 1 1.00705 0.998401
1.01582 1.00092 1.01728 0.997654
1.00521 1.0069 1.00211 0.996222
1.02264 1.01629 1.00927 0.997011
1.0296 1.03195 1.00107 0.996664
1.05512 1.07665 0.983155 0.99679
1.0619 1.06708 0.999234 0.995911
1.06294 1.07171 0.995498 0.996301
1.01104 1.01105 1.00433 0.995674
1.01717 1.02195 1 0.995326
1.00034 1 1.0011 0.999241
1.00119 1 1.00265 0.998544
0.999198 1 1.00082 0.998383
1.00173 1 1.00314 0.998598
1.00072 1 1.00199 0.998732
1.00406 1 1.00569 0.998378
1.00057 1 1.00216 0.998412
1.00433 1 1.00602 0.99832
0.999409 1 1.00061 0.998802
0.999517 1 1 0.999517
0.999519 1 1 0.999519
0.999985 1 1 0.999985
0.999464 1 1 0.999464
0.999973 1 1 0.999973
1 1 1 1
0.999957 1 1 0.999957
1 1 1 1
1 1 1 1
0.999948 1 1 0.999948
1.0008 1 1.00099 0.99981
1 1 1 1
1.0037 1 1.00411 0.999589
1 1 1 1
1 1 1 1
1.07233 1.08272 0.99415 0.99623
1.07156 1.08247 0.993433 0.996471
1.0663 1.08406 0.986822 0.996759
1.06438 1.07961 0.989075 0.996789
1.06934 1.07964 0.993914 0.996522
1.07338 1.07857 0.999084 0.996108
1.06963 1.07978 0.994087 0.996485
1.06461 1.07923 0.989707 0.996707
1.06626 1.08124 0.989327 0.996777
1.06544 1.08555 0.984539 0.996887
1.06547 1.08233 0.987843 0.996546
1.06658 1.08825 0.983065 0.996968
1.06529 1.07952 0.990096 0.996687
1.06715 1.08788 0.984016 0.99688
1.06793 1.08958 0.983116 0.996963
1.06106 1.08769 0.978478 0.996977
1.07012 1.07991 0.994439 0.996482
1.07178 1.08217 0.99401 0.996371
1.06069 1.07544 0.989543 0.996709
1.06161 1.07871 0.987408 0.996698
1.02348 1.02637 1.00095 0.996235
1.03783 1.04238 1 0.995643
1.04966 1.05398 1.00058 0.995319
1.06135 1.07408 0.991598 0.996524
1.05779 1.07814 0.984093 0.996979
1.05384 1.06938 0.9886 0.996834
1.05271 1.05711 1 0.99584
1.05798 1.06566 0.996011 0.996767
1.00849 1.01112 1.00123 0.996174
1.00811 1.00843 1.00353 0.996171
1.01003 1.00326 1.00997 0.996805
1.00679 1 1.00827 0.99853
1.01227 1.00011 1.01474 0.997449
1.06266 1.07793 0.989104 0.996696
1.06378 1.08115 0.987186 0.996703
1.05995 1.08386 0.980984 0.996901
1.02237 1.02658 1 0.995901
1.0246 1.02908 1.00026 0.995398
1.0411 1.04534 1.00076 0.995183
1.05472 1.07533 0.983873 0.996912
1.05572 1.06094 0.99907 0.996002
1.05238 1.06944 0.987037 0.996971
1.00267 1 1.00368 0.998993
1.00911 1.01026 1.00284 0.996037
1.01 1.00592 1.00794 0.99614
1.01416 1.00752 1.0103 0.996334
1.01125 1.00295 1.0112 0.997107
1.01284 1 1.01509 0.997778
1.06588 1.0859 0.984752 0.996765
1.06396 1.09116 0.978144 0.996855
1.05307 1.08284 0.975454 0.99698
1.04707 1.07647 0.975503 0.997116
1.01266 1.0167 1.00027 0.995749
1.04897 1.05948 0.993496 0.996559
1.01229 1.01569 1.00165 0.995021
1.02948 1.03352 1.00104 0.995061
0.99986 1 1.00048 0.999381
1.00789 1 1.00962 0.998289
1.0114 1.00127 1.0127 0.997447
1.01285 1.00361 1.01269 0.996564
1.00718 1.00549 1.0057 0.995996
1.01631 1.00635 1.01411 0.995849
1.00147 1 1.0024 0.999078
1.01337 1 1.01531 0.998085
1.06283 1.07559 0.991811 0.996293
1.01751 1.00626 1.01387 0.997345
1.0118 1.01517 1.00039 0.996299
1.01391 1.01552 1.00159 0.996833
1.06313 1.0675 0.999861 0.996043
1.05963 1.06913 0.99471 0.996388
1.01163 1.01326 1.00273 0.99567
1.03351 1.03789 1.00027 0.995506
1.00544 1 1.00705 0.998406
1.01587 1.00045 1.01783 0.997621
1.0056 1.00733 1.00206 0.996224
1.02189 1.01642 1.0084 0.997014
1.03288 1.0358 1.00048 0.996708
1.05764 1.07901 0.983306 0.996837
1.06173 1.06685 0.999237 0.995956
1.06403 1.07217 0.996009 0.996385
1.01257 1.01237 1.00458 0.995639
1.01662 1.02146 1.00003 0.995232
1.0049 1 1.00678 0.998131
1.01428 1.00193 1.01507 0.997295
1.01852 1.01853 1.00378 0.996216
1.02765 1.02861 1.00251 0.996564
1.05683 1.10021 0.963394 0.997076
1.05696 1.07378 0.987455 0.996835
1.04494 1.04988 0.999816 0.99548
1.02126 1.02177 1.00426 0.995265
1.00125 1 1.0027 0.998554
0.999832 1 1.00146 0.998378
0.999661 1 1.00114 0.998526
1.0014 1 1.00268 0.998729
1.00605 1 1.0077 0.998365
0.999478 1 1.00068 0.998797
1.00027 1 1.00183 0.998442
1.00559 1 1.00727 0.998329
0.999059 1 1.00042 0.998639
1.00488 1 1.00668 0.998216
1.00262 1 1.00434 0.998283
0.998906 1 1.00014 0.998771
0.999472 1 1 0.999472
0.999514 1 1 0.999514
0.999993 1 1 0.999993
0.999519 1 1 0.999519
0.999988 1 1 0.999988
1 1 1 1
0.999979 1 1 0.999979
1 1 1 1
1 1 1 1
0.999984 1 1 0.999984
0.999945 1 1.00002 0.999928
1 1 1 1
1.00162 1 1.00184 0.999783
1 1 1 1
1 1 1 1
1.0654 1.08208 0.988001 0.996548
1.06571 1.08062 0.989401 0.996763
1.06375 1.0864 0.982088 0.997004
1.0637 1.08473 0.983672 0.996897
1.06512 1.07922 0.990205 0.9967
1.06988 1.0798 0.994324 0.996467
1.0649 1.0793 0.989935 0.996687
1.06678 1.0874 0.984124 0.99687
1.06658 1.0887 0.982668 0.996959
1.06127 1.08775 0.978606 0.996988
1.06828 1.08794 0.985058 0.996826
1.06645 1.09407 0.97767 0.997026
1.06889 1.09928 0.975226 0.997058
1.06246 1.07772 0.989111 0.996697
1.06439 1.08172 0.987242 0.996699
1.06068 1.08321 0.982248 0.996894
1.0243 1.0285 1.00002 0.9959
1.02391 1.02843 1.00018 0.995431
1.03979 1.04396 1.00085 0.995171
1.05507 1.07531 0.984225 0.996899
1.04823 1.06609 0.986267 0.996937
1.05769 1.06343 0.998468 0.99613
1.00835 1.00837 1.00396 0.996033
1.00528 1.00264 1.00642 0.996242
1.0156 1.00928 1.00997 0.996326
1.00275 1 1.0037 0.999053
1.0118 1.00441 1.01026 0.997129
1.01387 1 1.01616 0.997744
1.06671 1.08637 0.98508 0.996774
1.06302 1.09107 0.977363 0.996858
1.05351 1.08277 0.975925 0.996972
1.01129 1.01552 1.00009 0.995741
1.0117 1.01526 1.0014 0.995098
1.03048 1.03455 1.0009 0.99517
1.04787 1.07654 0.976186 0.997117
1.04424 1.05566 0.992621 0.996535
0.999849 1 1.00039 0.999462
1.00758 1 1.00931 0.998285
1.00382 1.00403 1.00378 0.996027
1.01856 1.00566 1.01686 0.996038
1.01341 1.00509 1.01171 0.996608
1.01055 1.00082 1.01236 0.9974
1.06513 1.09351 0.977033 0.996944
1.05403 1.09579 0.964849 0.996936
1.04882 1.08305 0.971153 0.99716
1.03452 1.06036 0.97846 0.997105
1.00218 1.0053 1.00133 0.995573
1.02995 1.03399 1.00049 0.995604
1.01145 1.01398 1.00264 0.994876
0.999698 1 1 0.999698
0.999098 1 1 0.999098
1.00204 1 1.00331 0.99873
1.00673 1 1.00902 0.997725
1.0102 1 1.01321 0.99703
1.02521 1.00599 1.02293 0.99626
1.00377 1.00193 1.00556 0.996289
1.04323 1.00339 1.04333 0.996531
1.00549 1 1.00709 0.998411
1.01668 1.00016 1.01898 0.997588
1.06047 1.08155 0.983571 0.996884
1.02264 1.01835 1.00721 0.997017
1.00598 1.00744 1.00234 0.996226
1.03554 1.03888 1.00004 0.996753
1.06158 1.06665 0.99924 0.996001
1.06525 1.07271 0.99657 0.996469
1.01355 1.01315 1.00482 0.995604
1.01582 1.02078 1 0.995139
1.0059 1 1.00784 0.998075
1.01316 1.0011 1.01481 0.997273
1.0234 1.02303 1.00415 0.996225
1.02623 1.02778 1.0019 0.996602
1.05827 1.10263 0.962564 0.997096
1.06114 1.07697 0.988484 0.996779
1.0418 1.04681 0.99967 0.995541
1.0229 1.02395 1.00377 0.995216
1.00534 0.999948 1.00741 0.997998
1.06883 1.11089 0.964935 0.997108
1.00841 1.00204 1.0095 0.996892
1.02364 1.02501 1.00268 0.996001
1.03826 1.08397 0.960489 0.99723
1.03601 1.04267 0.997989 0.995622
1.01519 1.01702 1.00323 0.994981
1.00113 1 1.00276 0.998373
0.998644 0.999165 1.00096 0.998518
0.999443 0.99846 1.00226 0.998723
0.999183 1 1.00039 0.998792
1.00591 1 1.00758 0.998338
1.00025 0.999772 1.00201 0.998471
0.998799 1 1.00003 0.998767
1.00279 1 1.0045 0.998291
0.999106 0.999886 1.00054 0.998681
1.00404 1 1.00583 0.998222
0.998815 1 1 0.998815
1.00054 1 1.00207 0.998474
1.00615 1 1.00811 0.99806
0.999041 1 1.00089 0.998156
0.998669 1 1 0.998669
0.999423 1 1 0.999423
0.999467 1 1 0.999467
0.999996 1 1 0.999996
0.999511 1 1 0.999511
0.999993 1 1 0.999993
1 1 1 1
0.99999 1 1 0.99999
1 1 1 1
1 1 1 1
0.999747 1 1 0.999747
0.999996 1 1 0.999996
0.999977 1 1 0.999977
1 1 1 1
0.999908 1 1 0.999908
1 1 1 1
1 1 1 1
1.06147 1.08776 0.978761 0.997
1.06524 1.08782 0.982234 0.996955
1.06644 1.08691 0.984257 0.996861
1.06455 1.07908 0.989804 0.996688
1.06817 1.0882 0.984706 0.996845
1.06636 1.09374 0.97788 0.997017
1.06551 1.09598 0.97507 0.997062
1.0663 1.09463 0.977038 0.99701
1.07905 1.11202 0.973161 0.997107
1.08971 1.12569 0.970589 0.997368
1.06766 1.08694 0.98543 0.996783
1.06209 1.09099 0.976576 0.996861
1.0541 1.08266 0.97659 0.996964
1.01035 1.01463 1.00006 0.995734
1.01256 1.01618 1.00126 0.995179
1.03307 1.03724 1.00071 0.995277
1.04874 1.07629 0.977213 0.997119
1.03953 1.05144 0.992141 0.996511
1.00486 1.00377 1.00505 0.996059
1.02318 1.00611 1.02082 0.99622
1.01561 1.00591 1.01303 0.996652
0.999813 1 1.00027 0.999543
1.00754 1 1.00927 0.998281
1.01012 1.00054 1.01225 0.997352
1.06461 1.09365 0.976423 0.996953
0.999692 1 1 0.999692
0.999051 1 1 0.999051
1.05569 1.09497 0.967087 0.996939
1.04704 1.08136 0.971049 0.99713
1.00339 1.00584 1.00192 0.995654
1.01129 1.01312 1.00332 0.994896
1.0283 1.03364 0.999236 0.995588
1.03366 1.06008 0.977933 0.997075
1.00231 1 1.00349 0.998825
1.00705 1 1.00935 0.997712
1.00418 1.00208 1.00595 0.996168
1.03703 1.00423 1.03618 0.996601
1.02248 1.0037 1.02252 0.996271
1.01035 1.00031 1.01302 0.99705
1.07532 1.11398 0.968151 0.99705
1.03751 1.09414 0.951045 0.997058
1.03297 1.07142 0.966717 0.997305
1.01879 1.03826 0.984411 0.996784
1.0052 1.00281 1.00649 0.995928
1.01219 1.01169 1.00547 0.99505
0.998993 1 1 0.998993
0.999574 1 1.0005 0.999072
0.998916 1.00021 1 0.99871
1.00218 1 1.00416 0.998021
1.01139 1 1.01401 0.997414
1.0096 1.0004 1.01252 0.996722
1.06627 1.00094 1.0691 0.99642
0.992617 1.00049 0.994806 0.997308
1.00631 1 1.0083 0.99802
1.01134 1 1.01413 0.99725
1.05892 1.10395 0.961985 0.997115
1.06481 1.07969 0.989456 0.996724
1.02571 1.02733 1.00179 0.996639
1.02949 1.02885 1.00441 0.996233
1.03902 1.04404 0.999595 0.995601
1.02539 1.02693 1.00335 0.995167
1.00508 0.999743 1.00737 0.997977
1.07105 1.11464 0.96361 0.997182
1.00919 1.00115 1.0111 0.996961
1.02029 1.0217 1.00269 0.995933
1.03921 1.08402 0.961353 0.997207
1.03332 1.04036 0.997502 0.99572
1.01659 1.01816 1.00348 0.994994
1.01096 0.998506 1.01474 0.99776
1.00693 1.0644 0.948307 0.99758
1.00527 1.00114 1.00748 0.996665
1.00685 1.00767 1.00379 0.995407
1.01581 1.03968 0.980249 0.996728
1.00335 1.00588 1.00221 0.995274
0.947616 1.00219 0.949119 0.996237
0.99725 0.997776 1.00096 0.99851
0.999076 0.996723 1.00364 0.998728
1.00202 0.998894 1.00447 0.998668
0.998867 1 1.0001 0.998763
1.00427 1 1.00598 0.998301
1.00267 1 1.00445 0.998229
0.999178 1 1.00045 0.998724
0.998725 1 1.00006 0.998668
0.999383 1 1.00122 0.998163
0.998781 1 1 0.998781
1.00631 1 1.00826 0.99806
1.0002 1 1.00177 0.998437
1.00012 1 1.00135 0.99877
1.00166 1 1.00377 0.997902
1.00611 1 1.0081 0.998021
0.998371 1 1.00034 0.998028
0.998489 1 1 0.998489
1.00093 1 1.0027 0.998232
0.99888 1 1.00042 0.998456
0.999403 1 1 0.999403
0.999419 1 1 0.999419
0.999998 1 1 0.999998
0.999462 1 1 0.999462
0.999996 1 1 0.999996
1 1 1 1
0.999994 1 1 0.999994
1 1 1 1
1 1 1 1
0.999802 1 1 0.999802
0.99975 1 1 0.99975
1 1 1 1
0.999994 1 1 0.999994
1 1 1 1
0.999969 1 1 0.999969
1 1 1 1
1 1 1 1
1.06227 1.09289 0.97484 0.997066
1.06631 1.09359 0.977989 0.997008
1.06794 1.08836 0.98433 0.996864
1.0661 1.09455 0.976927 0.997008
1.07563 1.10869 0.972998 0.997101
1.08967 1.12517 0.971089 0.99728
1.08467 1.12436 0.967434 0.997174
0.948733 1.01605 0.939394 0.993983
1.03654 1.07759 0.963777 0.998063
0.999195 1 1 0.999195
1.06416 1.0939 0.975776 0.996962
1.05713 1.09433 0.968969 0.996941
1.04486 1.07977 0.970479 0.9971
1.00047 1.00394 1.00082 0.995732
1.01017 1.01127 1.00402 0.994915
1.0261 1.03248 0.99824 0.995573
1.03314 1.06027 0.977295 0.997045
0.998734 1.00209 1.0006 0.996054
1.03028 1.00461 1.02897 0.996681
1.02009 1.00215 1.0217 0.996283
0.999686 1 1 0.999686
1.01098 1.00064 1.01331 0.997068
1.00238 1 1.00347 0.998917
1.00732 1 1.00964 0.997699
0.999142 1 1.00014 0.999004
1.07326 1.1145 0.965835 0.997057
0.999054 1 1 0.999054
0.999952 1 1.00088 0.999076
0.998784 1.00057 0.999539 0.998671
1.04147 1.09473 0.954162 0.997055
1.03115 1.06978 0.966543 0.997255
1.00159 1.0022 1.00344 0.995965
1.01666 1.01623 1.00525 0.995199
1.01786 1.03666 0.985054 0.996764
1.00176 1 1.00368 0.998087
1.01046 1 1.01313 0.997365
1.0039 1.00031 1.0065 0.997107
1.05597 1.00164 1.05802 0.996423
1.00923 1.00093 1.01156 0.996775
1.04857 1.10541 0.951285 0.997158
1.01153 1.07889 0.940177 0.997222
1.02339 1.04944 0.978183 0.99693
0.999077 1.0182 0.984623 0.996541
1.00049 1 1.00363 0.996866
0.998576 1 1 0.998576
1.00014 1.00038 1.00136 0.998408
1.00251 1 1.00405 0.998466
1.01339 1 1.01562 0.997805
1.01238 1 1.01504 0.997385
1.046 0.999932 1.04925 0.996971
1.02725 1.00181 1.02812 0.997349
1.00526 1 1.00732 0.997954
1.00929 1.00015 1.01214 0.997031
1.07265 1.11862 0.961538 0.997255
1.04072 1.08494 0.961952 0.997182
1.03083 1.03839 0.996895 0.995819
1.01552 1.01701 1.00268 0.995865
1.01736 1.01879 1.0036 0.995008
1.01176 0.999455 1.01449 0.997851
1.00938 1.06594 0.949186 0.997636
1.00224 1.00104 1.00454 0.996672
1.00513 1.00564 1.00411 0.995404
1.01314 1.038 0.979118 0.996869
1.00421 1.00624 1.00273 0.995273
0.947599 1.00112 0.951327 0.994972
1.01149 0.997427 1.01641 0.997727
0.985678 1.02704 0.962066 0.997573
1.00087 1.00137 1.00312 0.996385
1.00426 1.00226 1.00614 0.99588
0.991379 1.00736 0.987457 0.996639
0.886425 0.972055 0.942768 0.967268
0.866996 0.956211 0.922522 0.982848
0.949778 0.977196 0.975222 0.996636
0.650859 0.796402 0.881335 0.927286
0.561811 0.733089 0.848528 0.903166
0.999009 0.995493 1.0048 0.998733
1.0029 0.996769 1.00744 0.998721
1.00422 0.99958 1.00594 0.998703
0.998668 1 1 0.998668
0.999225 1 1.00106 0.998171
1.00547 1 1.00743 0.99806
1.00006 1 1.00167 0.9984
0.998747 1 1 0.998747
1.00654 1 1.00855 0.998007
0.998529 1 1 0.998529
0.998399 1 1.00035 0.998045
0.999629 1 1.00093 0.998701
1.00222 1 1.00425 0.997976
1.00806 1 1.01008 0.998006
1.00584 0.999214 1.00836 0.998286
1.00598 1 1.00801 0.997978
0.999025 1 1.00111 0.997915
0.998498 1 1.00004 0.998456
0.9993 1 1.00124 0.998059
1.00089 1 1.00272 0.998178
1.00118 1 1.00286 0.998329
1.0007 1 1.00251 0.998197
0.998914 1 1.00032 0.998591
0.999083 1 1.00063 0.998453
0.999396 1 1 0.999396
0.999404 1 1 0.999404
1 1 1 1
0.999416 1 1 0.999416
0.999999 1 1 0.999999
1 1 1 1
0.999997 1 1 0.999997
1 1 1 1
1 1 1 1
0.999863 1 1 0.999863
0.999799 1 1 0.999799
1 1 1 1
0.999753 1 1 0.999753
0.999999 1 1 0.999999
1 1 1 1
0.999991 1 1 0.999991
1 1 1 1
1 1 1 1
1.07229 1.1054 0.972872 0.997094
1.06562 1.09414 0.976854 0.997006
1.09043 1.125 0.971993 0.997193
0.951279 1.01578 0.942081 0.994073
1.08297 1.12283 0.967236 0.997172
1.0427 1.08001 0.967454 0.997932
1.05954 1.098 0.967583 0.997303
0.903001 0.972864 0.945122 0.982083
0.97878 1.02195 0.962632 0.994941
0.999243 1 1 0.999243
0.999188 1 1 0.999188
0.998681 1 1 0.998681
0.998814 1 1 0.998814
1.07119 1.11451 0.963955 0.997064
1.04535 1.09488 0.957584 0.997053
1.02976 1.06817 0.966737 0.997205
1.00047 1.00142 1.00306 0.996002
1.02071 1.02088 1.00451 0.995351
1.01626 1.03435 0.985717 0.996745
1.01627 1 1.01943 0.9969
1.04694 1.00229 1.0483 0.996424
1.00893 1.00047 1.01167 0.996828
1.00056 1 1.00148 0.999079
1.00925 1.00058 1.01138 0.997318
1.00147 1 1.00332 0.998153
0.999115 1 1 0.999115
0.999051 1.00099 0.999428 0.998632
1.0471 1.10604 0.949392 0.997173
0.998591 1 1 0.998591
0.999753 1.0006 1.00065 0.998501
1.00266 0.999547 1.00439 0.998733
1.01928 1.08262 0.944121 0.99721
1.02384 1.04922 0.978817 0.996929
0.998658 1.00088 1.00093 0.996853
1.0011 1.01701 0.987701 0.996614
1.01228 1 1.01462 0.997693
1.0123 1.00002 1.01511 0.997211
1.03341 1.00251 1.03358 0.997328
1.0458 1.00179 1.04723 0.996851
0.999582 1.06384 0.9421 0.997343
0.997913 1.05119 0.95196 0.997223
1.01037 1.02095 0.993037 0.996575
0.973283 1.00147 0.974052 0.997744
1.00705 1 1.0086 0.998463
1.00723 1 1.00928 0.997974
1.02066 0.999516 1.02307 0.998133
1.0645 1.001 1.06628 0.997335
0.871864 0.968559 0.935691 0.962034
1.01285 0.999628 1.01531 0.997942
1.00049 1.00091 1.00292 0.996677
1.01086 1.06727 0.94933 0.997698
1.01052 1.03594 0.978386 0.997008
1.00515 1.00661 1.0033 0.995268
1.00406 1.00412 1.00457 0.995399
0.947866 1.00151 0.952478 0.993659
1.0094 0.997286 1.01439 0.997785
0.984793 1.02752 0.960771 0.997547
1.00082 1.00148 1.00296 0.996397
1.00529 1.00356 1.00585 0.995896
0.994527 1.00847 0.989517 0.996618
0.877071 0.974819 0.935165 0.962104
0.863432 0.951956 0.925991 0.979499
0.952639 0.977474 0.977821 0.996698
0.645198 0.791066 0.87777 0.92918
0.552079 0.729938 0.842817 0.897392
1.00371 0.997597 1.00828 0.997866
0.681178 0.811734 0.899635 0.932783
0.597272 0.749896 0.881904 0.903129
0.985063 1.00558 0.981828 0.997728
1.00921 1.00161 1.01044 0.997175
1.01463 1.00596 1.01149 0.997153
0.93964 0.964255 0.977239 0.997168
0.84186 0.94388 0.924069 0.965203
0.828606 0.920208 0.921478 0.977185
0.629686 0.778035 0.865316 0.935298
0.612003 0.798974 0.853489 0.897475
1.00319 0.994558 1.00992 0.998773
1.00285 0.997707 1.00648 0.998676
1.01469 0.998758 1.01713 0.998837
0.998569 1 1 0.998569
0.998437 1 1.00037 0.998063
1.00683 1 1.00885 0.997994
1.00318 1 1.00514 0.998051
0.99881 1 1.00018 0.998631
0.998521 1 1.00006 0.998456
1.0087 1 1.01074 0.997976
1.00613 1 1.00819 0.997965
0.998577 1 1.00061 0.997965
1.00706 0.999046 1.00971 0.998336
1.00826 1 1.01006 0.998214
1.02518 0.998641 1.02812 0.998495
1.0031 1 1.00528 0.997836
0.998903 1 1.0009 0.998007
0.998794 1 1.00074 0.998052
1.00099 1 1.00277 0.998219
1.00036 1 1.00239 0.997971
1.00048 1 1.00219 0.998292
1.00705 1 1.00867 0.998397
1.01122 1 1.01316 0.998087
1.00258 1 1.00427 0.998312
1.00106 1 1.00274 0.998332
1.00049 1 1.00187 0.998621
1.00054 1 1.00238 0.998163
0.998988 1 1.00043 0.998556
0.999371 1 1 0.999371
0.999266 1 1.00082 0.99845
0.999399 1 1 0.999399
0.999995 1 1 0.999995
0.999404 1 1 0.999404
0.999999 1 1 0.999999
1 1 1 1
1 1 1 1
1 1 1 1
1 1 1 1
0.999179 1 1 0.999179
0.999881 1 1 0.999881
0.999859 1 1 0.999859
1 1 1 1
0.999797 1 1 0.999797
1 1 1 1
1 1 1 1
0.999998 1 1 0.999998
1 1 1 1
1 1 1 1
0.954062 1.01529 0.945207 0.994166
1.0818 1.12176 0.967114 0.997169
1.05142 1.08279 0.973172 0.997799
0.890555 0.969869 0.933784 0.983334
0.977175 1.02174 0.961018 0.995176
1.0614 1.10109 0.966602 0.997259
0.987959 1.03762 0.956101 0.99586
0.907571 0.975285 0.944741 0.985
0.883908 0.976205 0.938421 0.964869
0.656298 0.798072 0.878867 0.935697
0.519966 0.6879 0.837919 0.902084
0.998774 1 1 0.998774
0.99924 1 1 0.99924
0.99918 1 1 0.99918
0.998697 1 1 0.998697
0.999021 1 1.00049 0.998531
0.99845 1 1 0.99845
0.998715 1 1.0001 0.99861
0.998765 1 1 0.998765
1.0477 1.10765 0.948549 0.997186
1.02732 1.08696 0.94779 0.997197
1.02384 1.04942 0.978634 0.996929
0.997982 1.00189 0.999258 0.996841
1.00355 1.01645 0.990586 0.996687
1.04178 1.003 1.04147 0.997305
1.04579 1.00365 1.0454 0.996733
1.0115 1.00035 1.01415 0.997039
0.998704 1.00077 0.999339 0.998593
1.01292 1 1.01538 0.997576
0.998608 1 1 0.998608
1.00172 0.999334 1.00339 0.999002
0.997659 1.06435 0.939798 0.997389
1.00621 0.9998 1.00798 0.998442
1.00909 1 1.01098 0.998128
0.995739 1.04903 0.951868 0.997196
1.00851 1.02235 0.989696 0.996739
0.976809 1.00153 0.977664 0.997596
1.03166 1.00105 1.03286 0.997785
1.05778 1.0022 1.05824 0.997382
0.966081 1.03226 0.938526 0.997188
0.995062 1.01737 0.9808 0.997214
0.974174 1.00239 0.974464 0.997321
0.973848 0.998326 0.977465 0.99797
1.00893 1 1.01107 0.997885
1.02223 1 1.02424 0.998043
1.05444 0.999587 1.0573 0.997708
0.699447 0.820462 0.911095 0.935692
0.885709 0.975741 0.93731 0.968441
1.00703 0.997915 1.01132 0.997845
1.00052 1.00132 1.0028 0.996411
0.98511 1.02812 0.960544 0.997521
0.997452 1.00988 0.991059 0.996599
1.00662 1.00501 1.00571 0.995917
0.879431 0.973317 0.936187 0.965128
0.868301 0.962905 0.920046 0.980116
0.953122 0.976214 0.979512 0.996767
0.658725 0.792581 0.887761 0.936191
0.542675 0.727781 0.836494 0.891407
1.00364 0.998665 1.00713 0.997873
0.692136 0.822312 0.9014 0.933764
0.572937 0.727424 0.875827 0.899292
0.984359 1.00668 0.980068 0.997709
1.00919 1.00228 1.00975 0.997179
1.01237 1.00393 1.01114 0.997297
0.934873 0.958811 0.977544 0.997432
0.851436 0.956443 0.925915 0.96144
0.825928 0.915948 0.920265 0.979848
0.64158 0.780991 0.8804 0.933093
0.616154 0.810108 0.848662 0.896215
1.00596 0.998665 1.0088 0.998513
0.615341 0.761892 0.895173 0.902227
0.677775 0.838917 0.888286 0.909523
0.983592 0.989813 0.995084 0.998625
1.01602 1.00245 1.01502 0.998542
0.946721 0.951137 0.998726 0.996627
0.845012 0.908607 0.947456 0.981585
0.790663 0.89669 0.919407 0.959051
0.658991 0.777939 0.906651 0.934316
0.682713 0.873137 0.866798 0.902065
1.00275 0.997598 1.00652 0.99865
1.01245 0.999618 1.01407 0.998787
1.01212 0.998085 1.015 0.999074
0.998457 1 1 0.998457
0.998215 1 1.0002 0.998015
1.007 1 1.00906 0.997951
1.00973 1 1.01181 0.997948
1.00787 0.998806 1.01071 0.998387
0.99864 1 1.00064 0.998003
1.00747 1 1.00933 0.998157
1.0028 1 1.00497 0.997839
1.02253 0.997055 1.02703 0.998559
1.0426 0.995134 1.04865 0.999094
1.01505 1 1.01686 0.998215
1.00122 1 1.00343 0.997801
0.998448 1 1.0004 0.998046
1.00095 1 1.00269 0.998259
1.00091 1 1.00296 0.99796
1.00131 1 1.00304 0.998273
1.00483 1 1.00632 0.998521
1.00734 1 1.00912 0.998236
1.01092 1 1.0127 0.998245
1.00634 0.998161 1.00964 0.998568
1.00024 1 1.00204 0.998197
1.0007 1.00237 1.00093 0.997408
1.00862 1 1.0107 0.997936
1.00974 1 1.01167 0.998089
1.01077 1 1.01267 0.998122
1.00413 1 1.00583 0.998313
1.00039 1 1.00181 0.998579
1.00117 1 1.00284 0.998334
0.999931 1 1.0013 0.998629
0.99933 1 1 0.99933
0.998949 1 1.00043 0.99852
0.999374 1 1 0.999374
0.999981 1 1 0.999981
0.999401 1 1 0.999401
0.999992 1 1 0.999992
1 1 1 1
0.999998 1 1 0.999998
1 1 1 1
1 1 1 1
0.999165 1 1 0.999165
0.999842 1 1 0.999842
0.999182 1 1 0.999182
1 1 1 1
0.999881 1 1 0.999881
0.999854 1 1 0.999854
1 1 1 1
1 1 1 1
1 1 1 1
1 1 1 1
1 1 1 1
0.681169 0.813063 0.902835 0.927945
0.580554 0.742072 0.86942 0.899844
0.889885 0.969079 0.933235 0.983974
0.976807 1.02174 0.96041 0.995429
1.05919 1.10341 0.962604 0.997216
0.897696 0.958262 0.949833 0.986274
0.986241 1.03627 0.95545 0.996097
0.894306 0.985234 0.940287 0.965353
0.64327 0.796065 0.869536 0.929303
0.53056 0.708225 0.835794 0.896321
0.91805 0.993768 0.933203 0.989931
0.866252 0.959492 0.934731 0.965865
0.636403 0.784231 0.868234 0.934654
0.612324 0.80011 0.851991 0.898248
1.00083 1 1.00254 0.9983
0.998817 1 1 0.998817
0.999238 1 1 0.999238
0.998736 1 1.00002 0.998714
0.998987 1 1.00034 0.998645
0.999408 1 1.00127 0.998136
0.998556 1 1.00013 0.998431
0.998539 1 1.00036 0.998176
0.998613 1 1.00005 0.998559
0.998716 1 1 0.998716
0.992442 1.06405 0.935098 0.997433
0.993038 1.04636 0.951733 0.997172
1.00803 1.02388 0.987577 0.996904
0.979522 1.00177 0.980288 0.997449
1.04821 1.00361 1.04714 0.997429
1.0434 1.00226 1.04371 0.997441
1.00997 1 1.01171 0.998282
1.00547 0.999457 1.00761 0.998419
0.965651 1.03304 0.937283 0.997316
1.01141 1 1.01361 0.997829
1.02173 0.999891 1.02388 0.998006
0.986652 1.01399 0.975822 0.997152
0.972091 1.00202 0.972638 0.997423
0.975126 0.999549 0.977594 0.997926
1.04743 0.999604 1.05032 0.997648
0.954705 1.00258 0.954761 0.997371
0.964507 0.997121 0.96902 0.998217
1.01161 0.995221 1.01833 0.998168
1.01034 1 1.01261 0.99775
1.0202 0.999847 1.02266 0.997751
1.02976 1 1.03199 0.997838
0.643335 0.775211 0.907066 0.91491
0.699104 0.818647 0.911964 0.936413
0.875741 0.974709 0.933742 0.962219
1.00256 0.997953 1.00676 0.997876
1.00886 1.00244 1.00925 0.997177
0.985581 1.00791 0.980111 0.99769
1.01033 1.00238 1.01051 0.997436
0.69681 0.817282 0.909453 0.93748
0.851158 0.95452 0.926868 0.962071
0.823059 0.912996 0.922433 0.977299
0.935635 0.956175 0.980798 0.997676
0.639288 0.787483 0.875322 0.927442
0.565788 0.721278 0.870227 0.901402
0.6209 0.811554 0.848186 0.902013
1.00536 0.998265 1.00865 0.998473
0.617938 0.761397 0.894926 0.906872
0.693565 0.85507 0.89221 0.909114
0.981614 0.987233 0.995568 0.998735
1.01546 1.00135 1.01562 0.99849
0.944157 0.949513 0.996967 0.997385
0.833491 0.913569 0.932089 0.978818
0.823015 0.911939 0.936113 0.964081
0.666028 0.788949 0.90946 0.928239
0.676465 0.865521 0.862328 0.906349
1.00714 0.996523 1.01123 0.999431
0.718465 0.861616 0.908425 0.917916
0.697757 0.86298 0.88545 0.913144
0.975086 0.956847 1.01935 0.999715
0.881121 0.910908 0.979919 0.987122
0.82117 0.88324 0.96647 0.961979
0.749742 0.866121 0.936034 0.924787
0.727805 0.915968 0.874771 0.908323
1.0102 0.999876 1.0116 0.998736
1.01406 0.997728 1.01733 0.999059
1.02729 0.988525 1.03988 0.999354
0.998833 1 1.00084 0.997998
1.00266 1 1.00482 0.997842
1.00601 1 1.00792 0.998099
1.02064 0.995853 1.0263 0.998624
1.00182 1 1.00403 0.997802
1.01428 0.999888 1.01622 0.998205
1.04728 0.995124 1.05328 0.999173
1.04344 0.986028 1.05881 0.999446
1.04621 0.998493 1.04877 0.999068
1.00931 1 1.01122 0.99811
1.00095 1 1.003 0.997948
1.00165 1 1.0034 0.998253
1.00254 1 1.00391 0.998643
1.01051 1 1.01226 0.998268
1.00528 1 1.00706 0.998234
1.00857 0.99887 1.01112 0.9986
1.00542 0.999241 1.00785 0.998341
1.01668 0.99681 1.021 0.998962
0.996833 1.00143 0.997038 0.998368
1.00087 1.00071 1.00197 0.998198
0.99866 1.00029 1.00069 0.99768
1.00607 1.00823 1.00153 0.996335
1.00504 1.00158 1.00575 0.997723
0.999824 1.00132 1.00075 0.997752
1.00871 1 1.0108 0.997932
1.01681 1 1.01893 0.997914
1.00742 1 1.00935 0.998092
1.00973 1 1.01163 0.998123
1.002 1 1.00359 0.998416
1.00445 1 1.00615 0.998314
1.00065 1 1.00208 0.998576
1.00007 1 1.00081 0.999269
0.999697 1 1.00106 0.998636
0.999536 1 1.00021 0.999331
0.999957 1 1 0.999957
0.999377 1 1 0.999377
0.999974 1 1 0.999974
1 1 1 1
0.999989 1 1 0.999989
1 1 1 1
1 1 1 1
0.998836 1 1 0.998836
0.999771 1 1 0.999771
0.999075 1 1 0.999075
1 1 1 1
0.999848 1 1 0.999848
0.999184 1 1 0.999184
1 1 1 1
1 1 1 1
0.999882 1 1 0.999882
1 1 1 1
1 1 1 1
1 1 1 1
0.601768 0.7537 0.882072 0.905163
0.689174 0.819772 0.901825 0.932209
0.688502 0.854374 0.887013 0.908505
0.577633 0.742087 0.86641 0.898408
0.896239 0.964446 0.94485 0.98352
0.987197 1.03522 0.957108 0.996348
0.893997 0.985159 0.939942 0.965447
0.659686 0.796981 0.884665 0.935644
0.542713 0.731993 0.832613 0.890472
0.922495 0.988501 0.943738 0.988861
0.848514 0.953071 0.928419 0.958936
0.649327 0.790731 0.880671 0.93244
0.601805 0.792514 0.848918 0.894506
0.880399 0.962291 0.928727 0.985111
0.793901 0.889073 0.932043 0.958059
0.694628 0.826803 0.908464 0.924789
0.676281 0.866664 0.867545 0.899464
1.00331 1 1.00543 0.997894
1.00011 1 1.00175 0.998357
0.998859 1 1 0.998859
0.99876 1 1 0.99876
0.998524 1 1.00081 0.997714
0.998659 1 1.00046 0.998198
0.998564 1 1.00015 0.998413
0.998154 1 1 0.998154
0.998398 1 1.00018 0.998217
0.998507 1 1 0.998507
0.96672 1.0343 0.93706 0.997441
0.980142 1.01101 0.972291 0.997094
0.968001 1.00129 0.969154 0.997525
0.976929 1.00102 0.978007 0.997884
1.03896 1 1.04148 0.997585
1.02096 1 1.02304 0.997971
1.0131 1 1.01536 0.997773
1.00982 1 1.01216 0.997689
0.955427 1.00287 0.955127 0.997454
1.01717 1 1.0195 0.997713
1.02982 1 1.03208 0.997816
0.964078 0.998485 0.967262 0.99822
1.00569 0.997538 1.01007 0.998124
0.943371 0.972781 0.972019 0.997684
0.961659 0.967254 0.994977 0.999235
1.04382 0.994789 1.05099 0.998377
1.00713 1 1.00932 0.997827
1.03062 0.999888 1.03279 0.998004
0.73277 0.874324 0.907936 0.923082
0.638693 0.773683 0.903842 0.91335
0.691021 0.815157 0.910889 0.930646
1.00535 0.998609 1.00833 0.998436
1.01533 0.999978 1.01695 0.998437
0.97704 0.984758 0.993305 0.998849
0.612937 0.757641 0.891779 0.907184
0.798735 0.894659 0.93139 0.958547
0.83861 0.910722 0.939203 0.980427
0.933475 0.94345 0.991236 0.998175
0.677738 0.802582 0.903429 0.934713
0.70369 0.864034 0.895978 0.908977
0.676515 0.863783 0.863666 0.906833
1.00543 0.996744 1.00934 0.999376
0.719137 0.863149 0.905746 0.919855
0.695537 0.859842 0.885593 0.913414
0.976811 0.961147 1.0168 0.99951
0.894094 0.923293 0.981104 0.987026
0.792361 0.879504 0.941933 0.956456
0.722866 0.911941 0.872974 0.908009
0.766927 0.87055 0.949603 0.927723
0.995765 0.964522 1.03269 0.999711
0.708357 0.853108 0.898527 0.924096
0.736972 0.899395 0.893267 0.917318
0.674037 0.864983 0.866133 0.899687
0.936035 0.926981 1.01322 0.996594
0.877844 0.913657 0.997064 0.963632
0.824616 0.928868 0.952773 0.931769
1.01666 0.997441 1.02025 0.999043
1.02911 0.991618 1.03857 0.99927
1.03655 0.980786 1.05731 0.999566
1.0023 1 1.00451 0.997803
1.01208 0.999705 1.01421 0.998194
1.05167 0.993996 1.05882 0.999251
1.00994 1 1.01184 0.998117
1.04604 0.998242 1.04885 0.999079
1.04944 0.98629 1.06464 0.999421
1.03869 0.981919 1.05835 0.999489
1.02963 0.997141 1.03356 0.999058
1.00964 1 1.01137 0.998294
1.00458 1 1.00636 0.998231
1.01118 0.999421 1.01315 0.998633
1.01611 0.997645 1.01959 0.998933
1.00574 0.999476 1.00793 0.998352
1.00364 0.999409 1.00541 0.998827
0.997131 1.00001 0.998422 0.998698
1.00479 1.00043 1.00723 0.997147
1.00103 1.00151 1.00131 0.998209
1.0001 1.00204 1.00051 0.997561
1.00183 1.00362 1.00227 0.995954
1.01923 1.02225 1.00129 0.995763
1.00686 1.00683 1.00276 0.997268
1.00356 1.00579 1.00138 0.996401
1.01313 1.00026 1.01527 0.997635
1.00647 1.00242 1.0063 0.997744
0.99907 1.0004 1.00058 0.998091
1.00901 1 1.01111 0.997928
1.0154 1 1.0175 0.997942
1.00864 1 1.01045 0.998215
1.00938 1 1.01128 0.998124
1.00223 1 1.00382 0.998416
1.00045 1 1.00131 0.999144
1.00039 1 1.00182 0.998572
1.00007 1 1.00081 0.999266
0.999936 1 1 0.999936
0.999735 1 1.0004 0.999332
0.999951 1 1 0.999951
1 1 1 1
0.999968 1 1 0.999968
1 1 1 1
1 1 1 1
0.998516 1 1 0.998516
0.999507 1 1 0.999507
0.998834 1 1 0.998834
1 1 1 1
0.999706 1 1 0.999706
0.998986 1 1 0.998986
1 1 1 1
1 1 1 1
0.999854 1 1 0.999854
1 1 1 1
1 1 1 1
1 1 1 1
0.726045 0.877992 0.90081 0.917994
0.610266 0.755253 0.887785 0.910162
0.678395 0.81292 0.896115 0.931259
0.998149 1 1.0001 0.998048
0.699413 0.857883 0.889319 0.916744
0.68823 0.853972 0.887259 0.908321
0.591291 0.758189 0.863323 0.903339
0.932081 0.992766 0.950648 0.987613
0.844299 0.941922 0.92879 0.96508
0.649489 0.803996 0.871919 0.926493
0.591102 0.772955 0.851551 0.898043
0.87754 0.958007 0.93311 0.98167
0.817345 0.904163 0.938168 0.963558
0.682961 0.806833 0.914394 0.925719
0.67624 0.865307 0.867532 0.900834
0.820215 0.903645 0.928536 0.977533
0.797683 0.872018 0.952934 0.959936
0.778636 0.877776 0.955128 0.92873
0.72741 0.912774 0.877375 0.908303
1.00152 1 1.00377 0.997759
1.00432 1 1.00648 0.997857
0.99978 1 1.00137 0.998415
0.998268 1 1.00038 0.997885
0.998798 1 1.00101 0.997794
0.998521 1 1.00026 0.99826
0.998186 1 1.00003 0.998154
0.998345 1 1.00009 0.998256
0.956186 1.00356 0.95517 0.997515
0.96471 1.00112 0.96534 0.998232
1.00928 1 1.01168 0.997628
0.999266 0.999607 1.00158 0.998079
1.03039 0.999728 1.03295 0.997793
1.01679 1 1.01916 0.997674
1.00959 1 1.0118 0.997816
0.943436 0.970511 0.974205 0.997841
1.02727 0.999888 1.02943 0.998007
1.03319 0.996926 1.03801 0.998422
0.963926 0.971681 0.992731 0.999283
1.01042 1 1.01238 0.998065
0.928671 0.942877 0.987695 0.997204
0.994161 0.969376 1.02611 0.999476
1.06496 0.996242 1.07054 0.998536
1.04419 0.998166 1.04798 0.998211
0.711739 0.851445 0.900574 0.928207
0.732264 0.874236 0.908089 0.922382
0.635183 0.771234 0.903318 0.911742
1.00262 0.996972 1.00634 0.999322
0.979493 0.964445 1.01631 0.999307
0.723072 0.867826 0.903967 0.921715
0.81266 0.869584 0.970299 0.963145
0.882416 0.921458 0.974172 0.98302
0.758032 0.862481 0.949392 0.925746
0.695853 0.860023 0.885607 0.913621
0.721402 0.91074 0.87266 0.907689
1.00313 0.974976 1.02922 0.999669
0.709788 0.854928 0.89842 0.924101
0.740106 0.898359 0.89593 0.919539
0.950982 0.937315 1.01563 0.998966
0.674196 0.863748 0.866345 0.900965
0.845013 0.891686 0.987142 0.960002
0.823103 0.92371 0.956805 0.931312
0.994398 0.962626 1.03335 0.99967
0.745482 0.887836 0.904398 0.928421
0.699214 0.855085 0.891398 0.917337
0.609841 0.798136 0.850501 0.89839
0.773488 0.874605 0.952928 0.928072
0.930725 0.932158 1.00664 0.991874
0.887499 0.915727 1.01501 0.954841
1.02969 0.995514 1.03517 0.999188
1.03418 0.977324 1.05867 0.999534
1.02076 0.959947 1.06379 0.999582
1.01195 1 1.01386 0.998124
1.04878 0.997508 1.05236 0.999091
1.05779 0.987354 1.07199 0.999396
1.02514 0.997549 1.02864 0.999045
1.03697 0.984332 1.05402 0.999488
1.00535 0.983432 1.02306 0.999235
1.01617 0.998552 1.01877 0.998903
1.00599 0.999446 1.00819 0.998365
1.0067 0.999475 1.00844 0.998803
1.01308 0.99781 1.01729 0.99805
0.997795 0.998766 1 0.999028
1.00032 1.00031 1.00264 0.997381
1.0069 1.00215 1.00945 0.995333
1.00602 1.00814 1.00283 0.995083
1.00154 1.00386 1.00026 0.997431
1.00205 1.00429 1.00205 0.995725
1.02063 1.02438 1.00053 0.995812
1.01618 1.01711 1.00261 0.996489
1.01714 1.02007 1.00125 0.995877
1.0105 1.00346 1.00962 0.99742
1.0097 1.00913 1.00335 0.997228
1.00009 1.00235 1.00128 0.996469
1.01477 1 1.01681 0.99799
1.01273 1.00039 1.01469 0.997666
1.00791 1.00326 1.00689 0.997766
1.01399 1 1.01605 0.997971
1.00833 1 1.01013 0.998217
1.00238 1 1.00345 0.998941
1.00284 1 1.00443 0.998415
1.00081 1 1.00167 0.999139
0.999912 1 1 0.999912
1.00027 1 1.00101 0.999262
0.999931 1 1 0.999931
1 1 1 1
0.999945 1 1 0.999945
1 1 1 1
1 1 1 1
0.998423 1 1 0.998423
0.999292 1 1 0.999292
0.998577 1 1 0.998577
0.999996 1 1 0.999996
0.999484 1 1 0.999484
0.998831 1 1 0.998831
1 1 1 1
1 1 1 1
0.999642 1 1 0.999642
1 1 1 1
1 1 1 1
1 1 1 1
0.71501 0.856815 0.900296 0.926915
0.727014 0.876261 0.90376 0.918028
0.611505 0.753851 0.891153 0.910254
0.998512 1 1.00042 0.998088
1.0024 1 1.00443 0.997977
0.998051 1 1 0.998051
0.73991 0.902307 0.894396 0.916841
0.697455 0.858657 0.885783 0.917
0.686141 0.854243 0.884426 0.908178
0.884445 0.966115 0.930522 0.983819
0.784225 0.890259 0.919503 0.958013
0.688229 0.79625 0.925272 0.934145
0.680676 0.872179 0.868827 0.89826
0.825665 0.91007 0.925162 0.980644
0.815309 0.882551 0.962623 0.959679
0.766537 0.867487 0.95064 0.92951
0.723601 0.911253 0.874646 0.907879
0.841995 0.904287 0.95214 0.977917
0.849997 0.896858 0.985927 0.961278
0.824616 0.925288 0.956045 0.932174
0.686769 0.875738 0.869115 0.902316
0.999275 1 1.0013 0.997981
1.00165 1 1.00395 0.997712
1.00366 1 1.00585 0.99782
0.998087 1 1.00022 0.997868
0.998569 1 1.0007 0.997874
0.998154 1 1 0.998154
0.940387 0.964036 0.977413 0.99801
0.964776 0.971957 0.993301 0.999306
1.00984 1 1.01206 0.997806
1.02609 0.99923 1.02845 0.998466
1.02436 1 1.02641 0.998009
1.01054 0.999579 1.01291 0.998083
1.03212 0.993768 1.04042 0.998248
0.934522 0.941502 0.995266 0.997308
1.05962 0.993332 1.06814 0.998678
0.996828 0.961315 1.03769 0.999278
1.0192 0.991337 1.02973 0.998418
0.959596 0.943158 1.02066 0.996836
1.01177 0.965593 1.0487 0.999158
1.03155 0.968026 1.06691 0.998792
0.762271 0.898515 0.912002 0.930225
0.716463 0.854029 0.903442 0.928584
0.731039 0.874214 0.907272 0.921691
1.01081 0.984954 1.02664 0.999627
0.939981 0.935776 1.00737 0.997148
0.710179 0.855216 0.898605 0.924109
0.842138 0.878238 0.994389 0.964305
0.817308 0.926521 0.951894 0.926705
0.741812 0.89857 0.895629 0.921751
0.680691 0.87131 0.869436 0.898546
0.988929 0.957949 1.03261 0.999743
0.744017 0.88443 0.905268 0.92927
0.70209 0.861551 0.888077 0.917616
0.926093 0.928144 1.01062 0.987305
0.599407 0.789227 0.848736 0.894843
0.764927 0.866374 0.950921 0.928474
0.884674 0.915355 1.00446 0.962189
1.00778 0.950471 1.06234 0.998081
0.716131 0.854993 0.903273 0.927279
0.700209 0.861987 0.893491 0.909153
0.522528 0.687297 0.842046 0.902878
0.682219 0.816125 0.904219 0.924471
0.856672 0.89512 0.996325 0.960578
0.897727 0.91665 0.995631 0.983654
1.0294 0.975407 1.05588 0.999501
1.02999 0.972767 1.05927 0.999579
1.01002 0.973155 1.03844 0.999459
1.01825 0.998119 1.02116 0.999032
1.03434 0.98724 1.04825 0.999487
1.00939 0.978978 1.03177 0.999319
1.00889 0.99423 1.016 0.998761
1.01042 0.999752 1.01191 0.998778
1.01054 0.998969 1.01386 0.997757
1.02529 1.00067 1.0289 0.99583
0.996006 0.99983 0.998554 0.997618
1.00803 1.00183 1.01083 0.995407
1.00746 1.00318 1.00985 0.994479
1.01056 1.01399 1.00191 0.994723
1.01231 1.01583 1.00108 0.995467
1.00607 1.00796 1.00312 0.995024
1.00197 1.00481 1.00169 0.995498
1.01621 1.01903 1.0011 0.996145
1.02226 1.02597 1.00048 0.995908
1.00971 1.00821 1.00464 0.996863
1.01833 1.01905 1.00274 0.996575
1.01675 1.01965 1.00117 0.995991
1.01445 1.00144 1.01534 0.997684
1.01149 1.00456 1.00951 0.997409
1.01279 1.01177 1.00383 0.997185
1.00859 1 1.00989 0.998713
1.01332 1 1.01536 0.997989
1.01268 1.00069 1.01433 0.997697
1.00785 1 1.00964 0.998219
1.00264 1 1.0037 0.998938
0.999854 1 1 0.999854
1.00068 1 1.00155 0.999133
0.999904 1 1 0.999904
1 1 1 1
0.999926 1 1 0.999926
1 1 1 1
1 1 1 1
0.99835 1 1 0.99835
0.999239 1 1 0.999239
0.99849 1 1.00004 0.998452
0.999978 1 1 0.999978
0.999341 1 1 0.999341
0.998638 1 1 0.998638
1 1 1 1
0.999998 1 1 0.999998
0.99946 1 1 0.99946
1 1 1 1
1 1 1 1
1 1 1 1
0.742911 0.885925 0.903726 0.927905
0.720403 0.858111 0.905696 0.926935
0.729305 0.875165 0.907667 0.918104
1.01784 1 1.02004 0.997845
1.00684 1.0004 1.00862 0.997828
0.998191 1 1.00006 0.99813
1.00266 1 1.00471 0.997956
0.998153 1 1.00008 0.998071
1.00385 1 1.00584 0.998016
0.997692 0.999509 1 0.998182
0.703346 0.870028 0.885297 0.91316
0.743273 0.900924 0.897633 0.919097
0.701089 0.856837 0.892038 0.917259
0.722052 0.910953 0.87346 0.907464
0.828308 0.914389 0.926331 0.977901
0.819262 0.879742 0.970952 0.959113
0.773588 0.881597 0.940365 0.933132
0.826424 0.905057 0.934774 0.976833
0.852026 0.890544 1.0014 0.955414
0.82143 0.921765 0.95616 0.932009
0.679116 0.868614 0.86242 0.906564
0.877227 0.915949 0.977142 0.980128
0.869031 0.901503 1.00913 0.955257
0.753568 0.869391 0.936713 0.925339
0.615508 0.804002 0.853027 0.897458
1.03614 0.998868 1.039 0.998375
1.00067 0.999802 1.00286 0.998013
1.00251 1 1.00486 0.997665
0.997853 1 1 0.997853
0.943985 0.944466 1.00206 0.997438
0.99727 0.956488 1.0436 0.999073
1.00953 0.999055 1.01241 0.998101
1.02365 0.993162 1.03247 0.998285
1.04687 0.984813 1.06427 0.998821
1.02094 0.996231 1.02642 0.99842
1.03856 0.968126 1.07406 0.998779
0.95818 0.941607 1.02268 0.995038
1.01152 0.95739 1.05726 0.999321
1.01171 0.974548 1.03927 0.998906
0.945011 0.920321 1.03296 0.994066
0.993192 0.941878 1.05526 0.999261
0.715754 0.851528 0.905173 0.92861
0.758583 0.894649 0.909479 0.932304
0.722653 0.856809 0.907931 0.928952
0.982903 0.950525 1.03427 0.999805
0.932496 0.93203 1.0082 0.992362
0.740995 0.880394 0.904884 0.930134
0.893415 0.922821 1.0129 0.955802
0.767405 0.876087 0.939634 0.93222
0.70794 0.863461 0.893258 0.917861
0.589886 0.769431 0.853458 0.89829
1.00778 0.95186 1.06051 0.998342
0.720799 0.860694 0.903108 0.92731
0.693052 0.854533 0.892236 0.908986
0.899655 0.916774 0.994797 0.98646
0.533775 0.709443 0.838601 0.897191
0.673317 0.797776 0.912374 0.925052
0.852973 0.893514 0.998551 0.956013
0.991358 0.95286 1.04468 0.995904
0.730556 0.883092 0.900843 0.91833
0.57882 0.737089 0.871825 0.900729
0.636595 0.78402 0.868037 0.9354
0.796346 0.858813 0.964521 0.961372
0.850418 0.890516 0.97558 0.978877
1.03852 0.978201 1.0621 0.99959
1.01303 0.969894 1.04503 0.999469
0.980552 0.970422 1.01122 0.999226
1.01357 0.974584 1.04063 0.999402
1.00735 0.984018 1.02487 0.998873
1.0096 1.0008 1.01121 0.997605
1.00708 1.00003 1.00961 0.997466
1.02499 1.00087 1.02856 0.995659
1.01308 1.00216 1.01625 0.994723
1.00966 1.00186 1.01236 0.995481
1.00841 1.00311 1.01096 0.994384
1.00295 1.00421 1.00448 0.994287
1.04185 1.04705 1 0.995033
1.02319 1.02747 1.00077 0.995076
1.01076 1.01397 1.00218 0.994665
1.01395 1.01813 1.00013 0.995774
1.01028 1.01406 1.00074 0.99553
1.00616 1.00765 1.00357 0.994965
1.01563 1.01837 1.00112 0.9962
1.01572 1.01857 1.00108 0.996117
1.02304 1.02671 1.00043 0.996004
1.00857 1.00322 1.00811 0.997243
1.01034 1.00842 1.00495 0.996966
1.01917 1.01965 1.00288 0.996663
1.01251 1.00036 1.01379 0.998384
1.01404 1.00188 1.01448 0.997692
1.01244 1.006 1.00902 0.997399
1.00087 1 1.00111 0.99976
1.00814 1 1.00944 0.998709
1.01205 1 1.01409 0.997987
1.00308 1 1.00415 0.998934
1.00002 1 1.00018 0.999841
1 1 1 1
0.999895 1 1 0.999895
1 1 1 1
1 1 1 1
1.01376 1 1.01594 0.99786
1.00594 1 1.00782 0.998137
0.999048 1 1 0.999048
0.999178 1 1.00083 0.998345
0.999947 1 1 0.999947
0.999242 1 1 0.999242
0.998535 1 1.00005 0.998481
1 1 1 1
0.999984 1 1 0.999984
0.99939 1 1 0.99939
1 1 1 1
1 1 1 1
1 1 1 1
0.711986 0.85538 0.900629 0.924201
0.738585 0.881765 0.901849 0.928782
0.720685 0.861707 0.90226 0.926946
1.01986 1 1.02206 0.997849
1.00852 1.00058 1.0101 0.997854
1.00108 1.00098 1.00243 0.997675
1.01996 1 1.02216 0.997851
1.00725 1.00155 1.00786 0.997851
1.00445 1 1.00653 0.997934
0.998938 1 1.00085 0.998092
1.00396 0.999829 1.00612 0.99802
0.998306 1 1.00008 0.998225
1.02181 1 1.02358 0.998264
0.680782 0.843859 0.887147 0.909375
0.701035 0.864726 0.887479 0.913489
0.742954 0.900538 0.895446 0.92134
0.67814 0.867944 0.861391 0.907041
0.818138 0.923845 0.955156 0.927157
0.822094 0.899184 0.937529 0.975187
0.856796 0.892144 0.999712 0.960655
0.86722 0.917986 0.967712 0.976219
0.872945 0.913833 0.994099 0.960927
0.77042 0.870522 0.952769 0.928881
0.619374 0.814283 0.848817 0.896115
0.88707 0.910178 0.995533 0.978985
0.858343 0.886422 1.00689 0.961699
0.668097 0.783574 0.91278 0.9341
0.563961 0.735054 0.849963 0.902672
1.03067 0.999407 1.03239 0.998929
1.03674 0.998623 1.03985 0.998383
1.00394 1 1.0059 0.998047
0.957351 0.940434 1.02502 0.993139
1.0132 0.952299 1.06451 0.999471
1.02216 0.998804 1.025 0.998422
1.04862 0.967032 1.08571 0.998767
1.01591 0.979352 1.03845 0.998912
0.999603 0.950998 1.05188 0.999266
0.945235 0.92352 1.02964 0.994045
1.01016 0.985027 1.02619 0.999345
0.960432 0.946024 1.02014 0.995185
0.737123 0.877539 0.910466 0.922592
0.724408 0.858242 0.908599 0.92897
0.753735 0.890525 0.905802 0.934414
1.01041 0.961728 1.05214 0.998548
0.89486 0.915763 0.995567 0.981526
0.728558 0.8674 0.905752 0.927332
0.857198 0.896044 0.998626 0.957964
0.675155 0.785042 0.92154 0.933246
0.682966 0.849288 0.884766 0.908899
0.544177 0.732027 0.833951 0.8914
0.988745 0.95199 1.04255 0.996224
0.728865 0.876992 0.905015 0.918323
0.578168 0.739722 0.869109 0.899314
0.864159 0.90474 0.97402 0.980623
0.648807 0.790719 0.879453 0.932998
0.795081 0.871334 0.952537 0.957955
0.939875 0.93808 1.00788 0.994081
0.603971 0.754522 0.883705 0.905809
0.658278 0.799316 0.879477 0.93641
0.793664 0.891059 0.929603 0.958149
0.824972 0.894015 0.94012 0.981547
1.01445 0.968404 1.04809 0.999482
0.98411 0.964503 1.02115 0.999197
0.99279 0.987289 1.00718 0.998402
1.00564 0.972176 1.03548 0.998979
1.00572 0.99916 1.00889 0.9977
0.995483 1.00344 0.99556 0.996495
1.02456 1.00083 1.02835 0.995483
1.01163 1.00279 1.01417 0.994719
1.00119 1.00467 1.00137 0.995171
1.00865 1.00287 1.01154 0.99429
1.00283 1.00484 1.0037 0.994327
1.03719 1.04241 0.999692 0.995297
1.06878 1.07506 0.998335 0.995821
1.05427 1.0594 1.00002 0.995134
1.04222 1.04739 1 0.995066
1.03063 1.03543 1 0.995371
1.02206 1.02608 1.00107 0.995016
1.01171 1.01472 1.00244 0.994607
1.02384 1.02808 1 0.995881
1.01238 1.01658 1.00002 0.995845
1.00808 1.01222 1.00032 0.995594
1.00789 1.00916 1.00208 0.996669
1.01244 1.01474 1.00148 0.996261
1.01608 1.01896 1.0011 0.996088
1.01216 1.00047 1.01382 0.997895
1.01121 1.00495 1.00902 0.997241
1.01075 1.00852 1.00516 0.997069
1.00317 1 1.00354 0.999635
1.01215 1.00048 1.01331 0.998381
1.01389 1.00226 1.01394 0.9977
0.999948 1 1 0.999948
1.00176 1 1.00202 0.999747
1.00784 1 1.00915 0.998705
1.00033 1 1.0005 0.999828
1 1 1 1
1 1 1 1
1.00933 1.00228 1.00938 0.997677
1.01251 1 1.01461 0.997926
1.01603 1 1.01824 0.997832
1.00128 1 1.00245 0.998838
1.00484 1 1.00672 0.998131
0.999904 1 1 0.999904
0.999308 1 1.00026 0.999053
0.999482 1 1.00114 0.998339
1 1 1 1
0.999957 1 1 0.999957
0.999244 1 1 0.999244
1 1 1 1
0.999991 1 1 0.999991
1 1 1 1
0.719926 0.865562 0.901608 0.922511
0.715961 0.859115 0.901697 0.924225
0.739549 0.876333 0.907777 0.929649
1.00198 1.00388 1.00057 0.997539
1.01757 1 1.01976 0.997852
1.00471 1 1.00684 0.997884
1.01339 1 1.01562 0.997806
1.00172 1.00203 1.00199 0.997705
1.0038 1.00027 1.00549 0.998052
1.015 1.00159 1.01625 0.997186
1.01853 0.997769 1.02278 0.998078
1.00442 0.999725 1.00669 0.998026
0.998267 1 1 0.998267
1.02337 0.999419 1.02576 0.998248
1.04027 1.0017 1.04008 0.998476
0.597142 0.750452 0.881437 0.902741
0.695485 0.858901 0.890819 0.908981
0.701389 0.863065 0.889389 0.913743
0.623305 0.815695 0.847331 0.90182
0.762896 0.865645 0.950271 0.927424
0.872832 0.905583 1.00887 0.955356
0.869951 0.915267 0.972908 0.976957
0.885344 0.910034 0.991497 0.981213
0.554471 0.73222 0.84424 0.896955
0.84826 0.88986 0.996111 0.956973
0.67408 0.793532 0.915509 0.927864
0.884057 0.916954 0.980566 0.983232
0.821789 0.880317 0.968855 0.963524
0.637434 0.782245 0.872409 0.934054
0.990493 1.00127 0.989704 0.999528
1.03244 1.00031 1.03323 0.998936
1.0362 0.99924 1.03867 0.998388
0.947968 0.92744 1.02822 0.994082
1.00723 0.961903 1.04789 0.999273
1.02169 0.987212 1.03604 0.998919
1.00733 0.982967 1.02545 0.999344
0.956227 0.945033 1.01669 0.995239
0.982618 0.978689 1.00711 0.996922
0.640929 0.772925 0.910509 0.910727
0.732982 0.875377 0.905579 0.924639
0.727808 0.862904 0.90762 0.929287
0.989585 0.952017 1.0432 0.996418
0.858151 0.903067 0.968167 0.981508
0.725591 0.870485 0.907591 0.918418
0.810902 0.869531 0.973299 0.958158
0.650688 0.805698 0.870982 0.927239
0.59487 0.758101 0.867899 0.90412
0.937494 0.930596 1.01336 0.994127
0.612643 0.756031 0.889789 0.910711
0.645679 0.796393 0.871757 0.930023
0.82161 0.898161 0.935887 0.977435
0.818918 0.909093 0.9348 0.963636
0.930888 0.948835 0.983761 0.99728
0.680485 0.810457 0.90447 0.928314
0.868722 0.962463 0.934535 0.965831
0.821523 0.910452 0.923476 0.977095
0.987611 0.959853 1.02977 0.999174
0.981561 0.986739 0.996261 0.998487
0.992859 1.00047 0.99502 0.997358
1.00204 0.99792 1.00634 0.997796
0.997448 1.00345 0.997557 0.996456
1.00049 1.00736 0.99682 0.996353
1.01089 1.00391 1.01231 0.994714
1.00108 1.00426 1.00167 0.995171
1.03433 1.04471 0.993765 0.996276
1.00287 1.00535 1.00319 0.994368
1.03561 1.04115 0.999371 0.995305
1.06658 1.07687 0.993943 0.996488
1.064 1.07351 0.994515 0.996604
1.07082 1.076 0.999452 0.995734
1.07025 1.07654 0.998281 0.995872
1.05887 1.0638 1 0.995366
1.0522 1.05726 1 0.99521
1.04137 1.0465 1 0.995099
1.04394 1.04852 1 0.995635
1.03142 1.03606 1.00014 0.995392
1.02071 1.02437 1.00148 0.994956
1.02262 1.02654 1 0.996186
1.02161 1.02583 1 0.995879
1.01061 1.01475 1 0.995916
1.00628 1.00259 1.00629 0.997406
1.0104 1.01136 1.00241 0.99666
1.00923 1.01085 1.00208 0.996322
1.0042 1 1.00484 0.999367
1.01089 1.00136 1.01165 0.997891
1.01323 1.00698 1.009 0.997239
1 1 1 1
1.00372 1 1.00416 0.99957
1.01107 1.00048 1.01223 0.998377
1 1 1 1
1.00249 1 1.00277 0.999721
1 1 1 1
1.00454 1.00526 1.00185 0.997437
1.00746 1.00139 1.00845 0.99764
1.0128 1.00022 1.01485 0.997758
1.00678 1 1.00816 0.998631
1.01445 1 1.01656 0.997923
1.02116 1 1.02341 0.997804
0.999923 1 1.00008 0.999838
1.00065 1 1.00181 0.998844
1.00521 1 1.0071 0.998126
1 1 1 1
0.999916 1 1 0.999916
0.99933 1 1.00027 0.999058
1 1 1 1
0.999967 1 1 0.999967
1 1 1 1
0.61445 0.761059 0.893883 0.903208
0.72441 0.870551 0.901951 0.922587
0.720165 0.863589 0.902257 0.924261
1.00694 1.00239 1.00706 0.997508
1.01447 1.00745 1.0099 0.997093
1.01923 1.00223 1.01966 0.997359
1.01273 1 1.015 0.99776
1.00264 1.00384 1.00107 0.997735
1.00518 0.999973 1.00697 0.998246
1.01879 0.999241 1.02162 0.997993
1.01648 1.00239 1.01676 0.997347
1.01857 1.00166 1.01946 0.997471
0.976496 1.00172 0.975829 0.998965
1.02274 0.999726 1.02483 0.998232
1.03496 1.00052 1.03604 0.998442
0.654885 0.797774 0.886118 0.92639
0.574014 0.728772 0.876174 0.898961
0.705318 0.86758 0.894502 0.908854
0.54646 0.730767 0.839235 0.891038
0.686227 0.805055 0.912345 0.934293
0.836339 0.883414 0.987743 0.958462
0.885016 0.909018 0.995299 0.978193
0.87031 0.908068 0.977558 0.980422
0.648275 0.784168 0.886926 0.932101
0.802365 0.874107 0.957705 0.958464
0.84819 0.912177 0.946492 0.98242
0.790804 0.904811 0.911444 0.958917
0.996326 1 0.997284 0.99904
0.990166 1.00068 0.990016 0.999476
1.03351 0.999615 1.035 0.998942
0.946372 0.938557 1.01308 0.995309
1.00236 0.978969 1.02457 0.999344
0.984249 0.981171 1.00628 0.996879
0.965952 0.98658 0.983319 0.9957
0.702112 0.822353 0.912761 0.935387
0.636079 0.770253 0.906767 0.910714
0.735612 0.877663 0.904546 0.926596
0.939306 0.936863 1.00831 0.994349
0.824996 0.895772 0.941902 0.977796
0.613835 0.755553 0.892064 0.910732
0.785494 0.894284 0.91637 0.95851
0.66103 0.796727 0.886038 0.936396
0.931569 0.952839 0.981838 0.995762
0.691442 0.820228 0.903894 0.932617
0.850958 0.955145 0.928735 0.959284
0.82254 0.910771 0.921597 0.979957
0.941127 0.975595 0.967576 0.996996
0.88709 0.976543 0.941326 0.96502
0.87835 0.961581 0.928798 0.983468
0.969893 0.984962 0.986129 0.998551
0.986846 1.00037 0.989129 0.997324
0.982998 1.00912 0.976929 0.997118
0.998725 1.00316 0.999159 0.99642
1.00014 1.00708 0.996756 0.996343
1.02364 1.04989 0.977889 0.997042
1.0006 1.00359 1.00186 0.995172
1.03157 1.04329 0.992483 0.99625
1.04869 1.07632 0.977164 0.997106
1.03474 1.0406 0.999049 0.995312
1.06495 1.07625 0.992999 0.996477
1.05394 1.07415 0.984035 0.997111
1.05831 1.07271 0.989548 0.996995
1.06448 1.07463 0.993858 0.996681
1.06403 1.07045 0.997547 0.996454
1.0722 1.07673 0.999995 0.995795
1.0711 1.0761 0.999589 0.995764
1.07244 1.07879 0.998185 0.995923
1.06246 1.0672 1 0.995563
1.06038 1.06529 1 0.995391
1.05047 1.05544 1 0.995286
1.04447 1.04878 1 0.995888
1.04445 1.04903 1 0.995634
1.03239 1.03697 1.00017 0.995413
1.00642 1.00893 1.00052 0.996999
1.02281 1.02673 1 0.996188
1.01964 1.02386 1 0.995877
1.00318 1 1.00415 0.99904
1.00818 1.00441 1.00638 0.997401
1.01318 1.01329 1.00325 0.996652
1 1 1 1
1.00435 1 1.00501 0.999342
1.01089 1.00239 1.01062 0.997887
0.99996 1 1 0.99996
1.00464 1 1.00508 0.999559
1 1 1 1
1.00521 1.00768 1.00037 0.997187
1.003 1.00254 1.00302 0.997449
1.00642 1.00087 1.00797 0.997592
1.00406 1.00007 1.0064 0.997603
1.01267 1.00032 1.01462 0.997762
1.01143 1 1.01303 0.998416
1.00089 1 1.00115 0.99974
1.00557 1 1.00695 0.998632
1.01411 1 1.01622 0.997921
1 1 1 1
0.999855 1 1 0.999855
0.999905 1 1.00106 0.998849
1 1 1 1
0.999931 1 1 0.999931
1 1 1 1
0.680735 0.812079 0.899019 0.932419
0.61655 0.760706 0.895578 0.904999
0.725754 0.872793 0.901218 0.922674
1.01005 1.00112 1.01147 0.997476
1.0237 1.00169 1.02493 0.997116
1.01151 1.00703 1.00733 0.997148
1.0093 1.01078 1.00241 0.996131
1.02196 1.00357 1.02099 0.997397
1.01686 1 1.01899 0.997915
1.01629 1.00249 1.0163 0.997509
1.01955 1.00177 1.02021 0.997588
0.998284 1.00658 0.994544 0.997198
0.96676 1.00145 0.966853 0.998457
0.969728 1.00035 0.971653 0.997669
0.981667 1.00171 0.980986 0.998985
1.03048 1.00087 1.03123 0.998409
0.847022 0.946639 0.928913 0.963241
0.646763 0.791589 0.87995 0.928512
0.566252 0.721583 0.870972 0.900989
0.647421 0.793469 0.88067 0.926496
0.807487 0.880253 0.955339 0.96022
0.877771 0.90698 0.984271 0.983261
0.846682 0.910073 0.945004 0.984488
0.827621 0.914708 0.937703 0.964903
0.866099 0.954279 0.922782 0.983542
0.991382 1.00132 0.991843 0.998219
0.996887 0.999934 0.997936 0.999015
0.990235 1.00037 0.990435 0.999424
0.987869 0.98564 1.00538 0.996898
0.974646 0.989296 0.988878 0.996272
0.873506 0.966221 0.939746 0.962009
0.702479 0.820906 0.91396 0.936296
0.629799 0.765256 0.903629 0.910762
0.934566 0.960052 0.979189 0.994143
0.829819 0.922297 0.92057 0.977362
0.682762 0.814902 0.899265 0.931702
0.848495 0.945893 0.929465 0.965104
0.949481 0.977 0.974659 0.997101
0.896395 0.985494 0.942364 0.965222
0.875586 0.958315 0.931852 0.980492
0.948874 1.00171 0.950671 0.996402
0.915556 0.99 0.935489 0.988579
0.984808 1.00215 0.985339 0.99732
0.977623 1.00901 0.971738 0.997073
0.985942 1.04255 0.948141 0.997426
0.999481 1.00671 0.996473 0.996331
1.02646 1.05153 0.979092 0.997008
1.04156 1.08184 0.965259 0.997416
1.02853 1.04165 0.991146 0.996225
1.04889 1.07635 0.977346 0.997079
1.04183 1.07484 0.971878 0.997341
1.06255 1.07487 0.992044 0.996466
1.05363 1.07358 0.984281 0.997089
1.05375 1.07675 0.981402 0.997188
1.05664 1.07202 0.98857 0.997053
1.0588 1.07154 0.991274 0.996805
1.06462 1.07534 0.993248 0.996759
1.0641 1.0704 0.997666 0.996446
1.06509 1.06999 0.9992 0.996212
1.06954 1.0741 1 0.995756
1.07212 1.07666 0.999995 0.995782
1.07129 1.07609 0.999752 0.995793
1.05891 1.06344 1 0.995745
1.06379 1.06853 1 0.995557
1.06201 1.0669 1 0.995416
1.01891 1.0223 1 0.996681
1.04306 1.04736 1 0.995892
1.04456 1.04914 1 0.995632
1.00066 1.00003 1.00196 0.998668
1.01032 1.01251 1.00084 0.997002
1.02304 1.02696 1 0.99619
1 1 1 1
1.00262 1 1.00361 0.999014
1.00966 1.00637 1.00588 0.997397
1 1 1 1
1.00399 1 1.00468 0.999317
1 1 1 1
1.01981 1.02291 1.00073 0.996247
1.00696 1.00936 1.00045 0.997175
1.00355 1.00294 1.00335 0.997271
1.00299 1.00017 1.00538 0.997461
1.00582 1.00039 1.0079 0.99755
1.01089 1.00098 1.01181 0.998117
1.01525 1.00015 1.01738 0.997765
1.01247 1 1.01408 0.998412
1.00432 1 1.00472 0.999597
1 1 1 1
1.00079 1 1.00103 0.999755
1.00597 1 1.00735 0.998632
1 1 1 1
0.999869 1 1 0.999869
1 1 1 1
0.887377 0.974562 0.941495 0.967122
0.69171 0.821912 0.90153 0.933509
0.613644 0.759575 0.895248 0.902407
1.02906 1.00113 1.03113 0.996873
1.00945 1.00743 1.00481 0.997204
1.01801 1.00314 1.0176 0.997265
1.00901 1.01056 1.00223 0.996235
1.03018 1.03427 1.00016 0.995885
1.00196 1.00696 0.99814 0.996891
1.02243 1.00241 1.02232 0.997702
0.999545 1.00805 0.994548 0.996998
0.974989 1.00267 0.973917 0.99844
0.995982 1.0038 0.994949 0.997245
0.971672 1.00345 0.970646 0.997615
0.993073 1.00156 0.99435 0.99716
0.969654 1.00082 0.971028 0.997768
0.986677 1.00043 0.987233 0.999007
0.880099 0.966715 0.925751 0.983419
0.855537 0.957328 0.928422 0.962571
0.661046 0.792324 0.892082 0.935242
0.802031 0.903305 0.926557 0.958263
0.859488 0.912601 0.955585 0.985575
0.869436 0.944012 0.932261 0.987921
0.962735 1.00377 0.962385 0.996609
0.988534 1.00032 0.990075 0.99812
0.996732 0.999311 0.998428 0.99899
0.977394 0.990204 0.990205 0.996828
0.906246 0.973031 0.946445 0.984067
0.885767 0.97266 0.940453 0.968325
0.692453 0.816462 0.911502 0.930457
0.947179 0.972346 0.976835 0.997217
0.878302 0.962575 0.928921 0.982269
0.895106 0.984823 0.941657 0.965215
0.944429 0.999492 0.94821 0.996518
0.918808 0.987001 0.942582 0.987616
0.950403 1.02545 0.929828 0.996761
0.964914 1.02297 0.947809 0.99519
0.970933 1.00886 0.96528 0.99702
0.983148 1.03969 0.948054 0.997426
1.00765 1.07947 0.935918 0.997385
1.03028 1.05386 0.980587 0.996974
1.04082 1.0812 0.965175 0.997392
1.04903 1.08323 0.971058 0.997291
1.04966 1.07681 0.977668 0.997051
1.04311 1.07458 0.973326 0.997322
1.05878 1.08451 0.979074 0.997147
1.05365 1.07334 0.984541 0.997066
1.05228 1.07454 0.982051 0.997182
1.05861 1.07757 0.985449 0.996912
1.0552 1.07157 0.987581 0.997109
1.05825 1.07134 0.990902 0.996851
1.06361 1.07188 0.995794 0.996472
1.06423 1.07045 0.99774 0.996437
1.06579 1.07049 0.999404 0.996202
1.06834 1.07276 0.99986 0.996024
1.06293 1.06744 1 0.995774
1.06989 1.07447 1 0.995732
1.07196 1.07652 1 0.99577
1.03462 1.03827 1 0.99648
1.05785 1.06237 1 0.995751
1.06522 1.06998 1 0.99555
1.0004 1.00175 1.00027 0.998375
1.01999 1.02338 1.00001 0.996681
1.04163 1.04593 1 0.995895
1 1 1 1
1.00048 1.00042 1.00142 0.998647
1.01413 1.01602 1.00114 0.997004
1 1 1 1
1.00234 1 1.00335 0.998988
1 1 1 1
1.03737 1.04164 1 0.995902
1.02126 1.02457 1.00049 0.996278
1.01788 1.02014 1.00118 0.996606
1.00829 1.01056 1.00059 0.997163
1.00389 1.00374 1.00295 0.997203
1.00944 1.00575 1.00596 0.997721
1.00426 1 1.00677 0.99751
1.01071 1.00067 1.01194 0.998119
1.00498 1 1.00558 0.999405
1.01161 1 1.01322 0.998409
1.00295 1 1.00335 0.999608
1 1 1 1
1 1 1 1
1.0002 1 1.00043 0.999771
1 1 1 1
0.900095 0.967115 0.94527 0.984588
0.87658 0.97125 0.938918 0.961244
0.694178 0.814906 0.908979 0.937151
1.05334 1.05765 1.00007 0.99586
1.0134 1.0022 1.01408 0.997137
1.00973 1.01133 1.00208 0.996339
1.0025 1.00723 0.998397 0.996904
1.02868 1.03252 1.00042 0.995866
1.01448 1.01826 0.999411 0.996873
1.00162 1.00881 0.99606 0.996799
0.980655 1.00276 0.979501 0.998422
0.9946 1.00493 0.992442 0.997258
0.964582 1.00246 0.964657 0.997468
1.01817 1.02029 1.0014 0.996522
0.986206 1.00758 0.981491 0.997244
0.99164 1.00217 0.992324 0.997142
0.971564 1.00134 0.972341 0.997867
0.952902 1.00576 0.950113 0.997187
0.870354 0.959861 0.923547 0.981813
0.852921 0.959409 0.923941 0.962189
0.868854 0.937424 0.940504 0.985484
0.965651 1.00417 0.963869 0.997691
0.988613 1.00007 0.990518 0.998009
0.968488 1.00931 0.965249 0.994103
0.897005 0.957077 0.951089 0.985432
0.874186 0.971831 0.9349 0.962162
0.945345 0.997619 0.950805 0.99663
0.926354 0.989267 0.94926 0.986457
0.953718 1.02734 0.931182 0.996944
0.97108 1.02364 0.952887 0.995556
0.990752 1.054 0.942668 0.997164
1.05715 1.09871 0.965005 0.997067
0.979239 1.03614 0.947528 0.997425
1.01419 1.0811 0.940587 0.997366
1.04163 1.09867 0.950806 0.997142
1.03952 1.08006 0.965011 0.997367
1.04511 1.08093 0.969497 0.997288
1.06029 1.09348 0.972539 0.997027
1.04407 1.07409 0.974686 0.997302
1.05631 1.08256 0.978528 0.99716
1.06247 1.08283 0.984289 0.996862
1.05073 1.07224 0.982714 0.997176
1.05897 1.0779 0.985484 0.99691
1.06321 1.07652 0.991005 0.9966
1.05763 1.07105 0.990544 0.996897
1.06375 1.07219 0.995594 0.996518
1.07043 1.07503 0.999532 0.996185
1.06651 1.07099 0.999621 0.996192
1.06824 1.07259 0.999925 0.996019
1.0647 1.06912 1 0.99587
1.04222 1.04599 1 0.9964
1.06276 1.06728 1 0.99577
1.07026 1.07488 1 0.995709
1.00702 1.00878 1 0.998248
1.03287 1.03651 1 0.99648
1.05693 1.06143 1 0.995758
1 1 1 1
1.00234 1.00389 1.0001 0.99836
1.02102 1.02442 1 0.996681
1 1 1 1
1.00018 1.00081 1.00075 0.998625
1 1 1 1
1.05329 1.05782 1 0.99572
1.0377 1.04197 1 0.995894
1.039 1.04299 1 0.996175
1.02257 1.02611 1.00024 0.996309
1.02108 1.02345 1.00111 0.99658
1.01521 1.01516 1.00273 0.997336
1.00374 1.00408 1.00253 0.997134
1.00773 1.0034 1.0066 0.997726
1.00267 1 1.0035 0.999173
1.01124 1.00011 1.01304 0.998119
1.00448 1 1.00506 0.999419
1 1 1 1
1.00231 1 1.00269 0.99962
1 1 1 1
1 1 1 1
0.960255 1.01057 0.953379 0.996681
0.892796 0.966325 0.94149 0.981326
0.876055 0.968073 0.935373 0.967472
1.04801 1.05175 1.00001 0.996435
1.06355 1.06931 0.998491 0.996109
1.05189 1.05609 1.00007 0.995952
1.00284 1.00757 0.998381 0.996916
1.02658 1.0301 1.00073 0.995846
1.01742 1.02199 0.998658 0.996864
1.04216 1.05509 0.991271 0.996447
0.994106 1.00651 0.990377 0.997273
0.959818 1.00189 0.960582 0.997321
1.02036 1.02352 1.00025 0.996659
1.02571 1.05217 0.978352 0.996424
0.987538 1.02967 0.961592 0.99739
0.994571 1.01055 0.986971 0.997178
0.992889 1.0027 0.993069 0.997122
0.954191 1.00719 0.949718 0.997533
0.877272 0.964159 0.928296 0.980165
0.965914 1.00359 0.963606 0.998813
1.03755 1.07391 0.968463 0.99761
0.965657 1.00797 0.96355 0.994261
0.900202 0.965284 0.948724 0.982981
0.956786 1.02966 0.931913 0.997114
0.975914 1.0239 0.957016 0.995944
0.984787 1.05422 0.936616 0.997356
1.05391 1.09761 0.96298 0.997095
1.05355 1.11042 0.951558 0.997088
1.09857 1.13644 0.969345 0.997247
1.02093 1.08377 0.944522 0.997348
1.04794 1.10156 0.954048 0.997142
1.06205 1.10303 0.965791 0.996948
1.0412 1.07873 0.967837 0.997284
1.06023 1.09283 0.973068 0.997029
1.06169 1.08788 0.979028 0.996832
1.05385 1.08064 0.977973 0.997174
1.06341 1.08371 0.984357 0.996858
1.06488 1.08049 0.988901 0.996612
1.05936 1.07827 0.985514 0.996907
1.06386 1.07715 0.991042 0.996598
1.07266 1.07941 0.997481 0.996263
1.06386 1.07249 0.995376 0.996565
1.06994 1.07464 0.999428 0.996197
1.0691 1.07348 1 0.995921
1.06814 1.07242 1 0.996013
1.06445 1.06886 1 0.99588
1.04266 1.04646 1 0.996374
1.01277 1.01456 1 0.998237
1.04181 1.04557 1 0.996401
1.06259 1.06711 1 0.995766
1 1 1 1
1.00863 1.01042 1 0.998237
1.03087 1.03451 1 0.99648
1 1 1 1
1.00407 1.00573 1 0.998343
1 1 1 1
1.0636 1.06805 1 0.995839
1.05255 1.05706 1 0.995732
1.0535 1.0578 1 0.995939
1.03724 1.04153 1 0.995885
1.03983 1.04382 1 0.996176
1.02158 1.02421 1.00044 0.996997
1.02397 1.02639 1.00109 0.996553
1.01179 1.01159 1.00286 0.997339
1.00065 1.00023 1.00156 0.998857
1.00668 1.00162 1.00734 0.997731
1.00321 1 1.00402 0.999192
1 1 1 1
1.00389 1 1.00446 0.999433
1 1 1 1
1 1 1 1
0.994531 1.05322 0.946411 0.997747
0.957408 1.00924 0.952896 0.995536
0.895268 0.968864 0.940829 0.982155
1.05705 1.0664 0.994869 0.996353
1.04787 1.0516 0.999793 0.996654
1.07379 1.08363 0.994624 0.996273
1.06326 1.06998 0.997621 0.996089
1.05013 1.05429 1.00001 0.996046
1.06467 1.08821 0.982045 0.996258
1.02053 1.02596 0.997852 0.996854
1.04093 1.05299 0.992139 0.996384
1.04895 1.09341 0.962636 0.996572
1.01809 1.02642 0.995073 0.996796
1.0268 1.05311 0.978602 0.996336
0.986599 1.03439 0.956249 0.997434
0.999592 1.01175 0.99085 0.997108
0.955491 1.00806 0.949915 0.997832
1.08543 1.12738 0.965416 0.997283
1.04366 1.07649 0.971806 0.997636
0.964789 1.0067 0.963738 0.994425
0.979529 1.05399 0.931636 0.997546
1.05127 1.09686 0.961203 0.997124
1.0475 1.10746 0.9486 0.997111
1.10457 1.1415 0.970319 0.997244
1.07994 1.11804 0.968697 0.997129
1.05397 1.10394 0.957475 0.997142
1.06297 1.10207 0.967463 0.996959
1.06212 1.0921 0.975594 0.996878
1.06022 1.09215 0.973659 0.99703
1.0623 1.08806 0.979447 0.996812
1.06412 1.08199 0.986832 0.996607
1.06436 1.0846 0.984433 0.996855
1.06522 1.08083 0.988914 0.996608
1.0736 1.08344 0.994586 0.996317
1.0645 1.07775 0.99108 0.996595
1.0724 1.07916 0.997463 0.996264
1.07438 1.07874 1 0.995958
1.06948 1.07429 0.999313 0.99621
1.06871 1.07308 1 0.995927
1.04331 1.04715 1 0.996338
1.06411 1.0685 1 0.995889
1.04346 1.04726 1 0.996375
1.01363 1.01507 1 0.99858
0.999397 1 1 0.999397
1.01311 1.01476 1 0.99838
1.04133 1.04509 1 0.996401
1 1 1 1
1.0106 1.01239 1 0.998226
1 1 1 1
1.07647 1.08562 0.995161 0.996391
1.06871 1.07387 0.999101 0.996092
1.06373 1.06849 0.999678 0.995863
1.05631 1.06067 1 0.995886
1.0527 1.0572 1 0.995744
1.05278 1.05708 1 0.99593
1.02517 1.02856 1 0.996707
1.04103 1.04502 1 0.996177
1.01954 1.022 1.0006 0.996996
1.00186 1.00325 1.00012 0.998501
1.00789 1.00774 1.00282 0.997341
1.00115 1.00022 1.00206 0.998876
1 1 1 1
1.00347 1 1.00426 0.999211
1 1 1 1
1 1 1 1
1.07193 1.12001 0.959934 0.997022
1.00393 1.06366 0.945973 0.997753
0.954292 1.00949 0.950628 0.994415
1.06668 1.08427 0.987411 0.996314
1.0526 1.06242 0.994342 0.996397
1.04779 1.05144 0.999648 0.996872
1.0725 1.08149 0.995381 0.996287
1.06301 1.07058 0.996841 0.996069
1.07038 1.10677 0.970475 0.996551
1.05963 1.08379 0.981418 0.996216
1.04013 1.05128 0.993046 0.996322
1.04435 1.08842 0.962809 0.996572
1.03255 1.05688 0.980662 0.996247
0.988822 1.04366 0.949838 0.997487
1.07597 1.10862 0.973245 0.997238
1.08678 1.12852 0.965594 0.997321
1.04894 1.0793 0.974146 0.997663
1.0419 1.10498 0.945625 0.99713
1.11062 1.14655 0.971339 0.997241
1.08127 1.12002 0.968186 0.997133
1.06918 1.09318 0.98099 0.997001
1.06381 1.10106 0.969104 0.996969
1.06276 1.09196 0.976324 0.996862
1.06508 1.08311 0.986654 0.996656
1.06293 1.08827 0.979857 0.996793
1.06475 1.0826 0.986863 0.996605
1.07306 1.08482 0.992788 0.996347
1.0656 1.0812 0.988928 0.996604
1.0733 1.08313 0.994589 0.996316
1.07737 1.082 0.999742 0.995985
1.07211 1.07889 0.997443 0.996265
1.07461 1.07896 1 0.995963
1.04424 1.04814 1 0.996276
1.06831 1.07268 1 0.995934
1.04477 1.04861 1 0.99634
1.01236 1.01378 1 0.998601
1.04446 1.04826 1 0.996376
1.0133 1.01475 1 0.998573
0.999429 1 1 0.999429
0.999714 1 1 0.999714
1.01352 1.01501 1 0.998538
1 1 1 1
1.06744 1.08265 0.989506 0.996407
1.07148 1.07723 0.998462 0.996198
1.07433 1.08413 0.994424 0.996522
1.06493 1.06929 1 0.995926
1.07112 1.07604 0.999341 0.996084
1.06374 1.06889 0.999293 0.995888
1.05692 1.0613 1 0.995875
1.03692 1.04054 1 0.996522
1.05261 1.05692 1 0.995922
1.02823 1.03163 1 0.996708
1.00847 1.01019 1 0.998298
1.01802 1.02056 1.00052 0.996997
1.0013 1.00223 1.00054 0.998524
1 1 1 1
1.00154 1 1.00265 0.998896
1 1 1 1
1 1 1 1
1.06974 1.10446 0.97157 0.996907
1.06387 1.11092 0.960506 0.997024
1.01165 1.07094 0.946772 0.997752
1.06727 1.09222 0.980609 0.996484
1.06398 1.08179 0.987181 0.99631
1.04797 1.05829 0.993782 0.996442
1.07098 1.07927 0.996003 0.9963
1.06973 1.10525 0.971233 0.996526
1.05389 1.07856 0.98088 0.996174
1.03508 1.07795 0.963535 0.996572
1.07252 1.09542 0.981972 0.997066
1.07479 1.10697 0.973666 0.997195
1.08796 1.1293 0.965948 0.997359
1.06807 1.08644 0.986147 0.996907
1.08245 1.12196 0.967553 0.997137
1.06884 1.09293 0.980908 0.996986
1.06707 1.08356 0.987976 0.99677
1.06341 1.09179 0.977088 0.996846
1.06532 1.08337 0.986632 0.996658
1.07266 1.0841 0.993045 0.996378
1.06535 1.08317 0.986895 0.996604
1.07295 1.08468 0.992816 0.996347
1.07827 1.08337 0.999274 0.996014
1.07293 1.08275 0.994595 0.996314
1.07797 1.08262 0.999714 0.995988
1.04311 1.04708 1 0.996217
1.07481 1.07916 1 0.995968
1.0454 1.0493 1 0.996279
1.01034 1.01178 1 0.998575
1.04625 1.05009 1 0.996342
1.01176 1.01319 1 0.998586
0.999431 1 1 0.999431
1.01287 1.01432 1 0.99857
0.999445 1 1 0.999445
1 1 1 1
1.0657 1.08235 0.98826 0.996318
1.07241 1.08169 0.995185 0.996212
1.06937 1.08398 0.990078 0.996405
1.07301 1.07732 1 0.996005
1.07219 1.07891 0.997509 0.996251
1.07243 1.08277 0.993772 0.996652
1.04728 1.05105 1 0.996415
1.06505 1.06942 1 0.995914
1.07365 1.07828 0.999626 0.996076
1.05743 1.06182 1 0.995864
1.03768 1.0413 1 0.996521
1.01414 1.01592 1 0.998254
1.02992 1.03332 1 0.996709
1.00614 1.00784 1 0.998315
1 1 1 1
1.00066 1.00119 1.00093 0.998544
1 1 1 1
1 1 1 1
1.06834 1.09159 0.981844 0.996794
1.07046 1.10581 0.971059 0.996884
1.05856 1.10523 0.960632 0.997025
1.06695 1.09179 0.980677 0.996501
1.06117 1.07918 0.986962 0.996305
1.07026 1.10508 0.971894 0.9965
1.07013 1.08783 0.986784 0.996905
1.07247 1.09525 0.98209 0.997062
1.07356 1.10527 0.974084 0.997152
1.06837 1.08645 0.986382 0.996928
1.06581 1.07996 0.990128 0.996732
1.06845 1.09267 0.980799 0.996972
1.06755 1.0835 0.988509 0.996732
1.07174 1.08276 0.993327 0.996471
1.06559 1.08367 0.986612 0.996661
1.07254 1.08399 0.993028 0.99638
1.07788 1.08322 0.999034 0.996035
1.07295 1.08466 0.992838 0.996346
1.07842 1.0836 0.999199 0.996016
1.04075 1.04473 1 0.996186
1.07868 1.08336 0.999686 0.995991
1.04375 1.04771 1 0.99622
1.00781 1.0093 1 0.998522
1.04659 1.0505 1 0.996282
1.00957 1.01103 1 0.998554
0.999404 1 1 0.999404
1.01115 1.01259 1 0.998575
0.999458 1 1 0.999458
0.999454 1 1 0.999454
1.0673 1.08363 0.9883 0.996586
1.07332 1.08371 0.994219 0.996171
1.0653 1.08323 0.987064 0.996343
1.07665 1.08194 0.999068 0.996039
1.07263 1.08135 0.995726 0.996197
1.0712 1.08525 0.990616 0.996404
1.04828 1.05212 1 0.99635
1.07249 1.07721 0.9996 0.99601
1.07282 1.0806 0.996482 0.996303
1.01437 1.01612 1 0.99827
1.04603 1.0498 1 0.996415
1.06528 1.06966 1 0.995903
1.0387 1.04232 1 0.996521
1.01279 1.01455 1 0.998264
1 1 1 1
1.0043 1.00597 1 0.998332
1 1 1 1
1 1 1 1
1.06715 1.08444 0.987215 0.996795
1.06863 1.09175 0.981977 0.996783
1.07057 1.1065 0.97057 0.996861
1.06686 1.09152 0.980822 0.996518
1.0669 1.07874 0.992308 0.99669
1.07018 1.08803 0.986643 0.996917
1.0725 1.09512 0.982239 0.997057
1.0687 1.08648 0.986644 0.996949
1.06592 1.08042 0.989805 0.996742
1.07256 1.08226 0.994562 0.996453
1.06805 1.08344 0.989068 0.996694
1.07266 1.08297 0.994039 0.996418
1.07609 1.08202 0.998396 0.996114
1.07245 1.08391 0.993015 0.996382
1.0774 1.08281 0.998962 0.996037
1.03865 1.04265 1 0.996168
1.07831 1.08357 0.999127 0.996017
1.04114 1.04512 1 0.996188
1.00513 1.00697 1 0.998175
1.04425 1.04821 1 0.996224
1.00693 1.00859 1 0.998359
1 1 1 1
1.00879 1.01027 1 0.998535
0.999439 1 1 0.999439
0.999478 1 1 0.999478
1.06677 1.07998 0.991051 0.996688
1.0728 1.08367 0.993632 0.996312
1.0677 1.08311 0.989155 0.996579
1.07643 1.08212 0.998747 0.995994
1.07281 1.08329 0.994127 0.996171
1.06498 1.08417 0.985878 0.996369
1.04489 1.04882 1 0.996253
1.07646 1.08163 0.999183 0.99604
1.07296 1.08104 0.996329 0.996182
1.01119 1.01292 1 0.99829
1.04671 1.05056 1 0.996328
1.07169 1.07676 0.999272 0.996015
1 1 1 1
1.01481 1.01656 1 0.99828
1.04467 1.04843 1 0.996414
1.01132 1.01306 1 0.998276
1 1 1 1
1 1 1 1
1.06562 1.07702 0.992697 0.996694
1.06782 1.08471 0.987585 0.996801
1.06875 1.09179 0.982073 0.996772
1.07358 1.08207 0.995741 0.996393
1.06613 1.07846 0.991844 0.996701
1.07022 1.08823 0.986481 0.996928
1.06599 1.08088 0.989441 0.996752
1.07244 1.08224 0.994463 0.996454
1.07544 1.08119 0.998551 0.996125
1.0735 1.08311 0.994741 0.996365
1.07623 1.08186 0.998712 0.996077
1.03666 1.04065 1 0.996163
1.07701 1.08249 0.998889 0.996039
1.03911 1.04311 1 0.996169
1.00324 1.00509 1 0.998161
1.04178 1.04576 1 0.99619
1.00459 1.00643 1 0.998173
1 1 1 1
1.00609 1.00793 1 0.99817
0.999692 1 1 0.999692
0.999468 1 1 0.999468
1.06352 1.07497 0.992671 0.996654
1.07382 1.08243 0.995632 0.996397
1.06632 1.07937 0.99119 0.996696
1.07616 1.08124 0.999303 0.995989
1.07347 1.08409 0.993888 0.996299
1.06801 1.0825 0.990008 0.996571
1.04095 1.04493 1 0.99619
1.07647 1.08168 0.999198 0.995979
1.07227 1.08286 0.994023 0.996172
1.00777 1.00952 1 0.998267
1.04411 1.04804 1 0.996243
1.07617 1.08129 0.999221 0.99604
1 1 1 1
1.01227 1.014 1 0.998299
1.04544 1.04932 1 0.996306
1 1 1 1
1.01529 1.01703 1 0.99829
1 1 1 1
1.07415 1.08225 0.996075 0.996429
1.065 1.07647 0.992645 0.996681
1.06845 1.0849 0.987988 0.996807
1.07515 1.08072 0.998715 0.996118
1.07311 1.08196 0.995392 0.996412
1.06536 1.07817 0.991379 0.996711
1.07233 1.08223 0.994377 0.996454
1.07492 1.08072 0.998501 0.996125
1.03412 1.0381 1 0.996173
1.0764 1.08174 0.999022 0.996039
1.03725 1.04125 1 0.996156
1.00164 1.0035 1 0.99814
1.03946 1.04345 1 0.99617
1.00271 1.00456 1 0.998159
1 1 1 1
1.00394 1.00578 1 0.998171
1 1 1 1
0.99944 1 1 0.99944
1.07428 1.08215 0.996311 0.996403
1.06269 1.07493 0.991922 0.99667
1.07585 1.08073 0.999432 0.996047
1.0742 1.08285 0.9956 0.996396
1.0659 1.0788 0.99131 0.996704
1.03818 1.04215 1 0.996186
1.07624 1.08121 0.999412 0.995986
1.07425 1.08458 0.994166 0.996286
1.00496 1.00676 1 0.998213
1.04075 1.04473 1 0.996189
1.07651 1.08125 0.999648 0.995963
1 1 1 1
1.0087 1.01045 1 0.998272
1.04338 1.04732 1 0.996233
1 1 1 1
1.01331 1.01503 1 0.998306
1 1 1 1
1.07527 1.08058 0.998954 0.996135
1.0742 1.08213 0.996236 0.996418
1.06438 1.0759 0.992599 0.996667
1.03212 1.03606 1 0.996192
1.07468 1.08029 0.998684 0.996119
1.07261 1.08181 0.995047 0.996431
1.07441 1.08025 0.998459 0.996126
1.03479 1.03877 1 0.996169
1.00039 1.00225 1 0.99814
1.03783 1.04184 1 0.996149
1.00125 1.00311 1 0.998138
1 1 1 1
1.00222 1.00407 1 0.998157
1 1 1 1
1 1 1 1
1.07623 1.08094 0.999564 0.99608
1.07382 1.08215 0.995834 0.996453
1.06192 1.07494 0.99117 0.996687
1.03571 1.03965 1 0.996207
1.07601 1.08082 0.999502 0.996044
1.07455 1.08324 0.995565 0.996395
1.0025 1.00433 1 0.998175
1.03761 1.04158 1 0.996184
1.07625 1.08111 0.99952 0.995982
1 1 1 1
1.0057 1.0075 1 0.998216
1.04054 1.04452 1 0.996189
1 1 1 1
1.00959 1.01133 1 0.998278
1 1 1 1
1.03185 1.03578 1 0.996206
1.07482 1.08021 0.998879 0.996132
1.07427 1.08205 0.996387 0.996408
0.999395 1.00122 1 0.998177
1.03266 1.03661 1 0.996189
1.07423 1.07987 0.998649 0.99612
1.03548 1.03947 1 0.996166
1.00007 1.00193 1 0.998141
1 1 1 1
1.00088 1.00274 1 0.998137
1 1 1 1
1 1 1 1
1.03314 1.03706 1 0.996219
1.0756 1.08056 0.999295 0.996111
1.07331 1.08209 0.995362 0.996502
1.00067 1.00218 1 0.998501
1.03507 1.03901 1 0.996206
1.07609 1.08083 0.999573 0.996041
1 1 1 1
1.00318 1.00501 1 0.998176
1.0371 1.04107 1 0.996181
1 1 1 1
1.00643 1.00823 1 0.998219
1 1 1 1
0.998855 1.0007 1 0.998158
1.03197 1.0359 1 0.996207
1.0744 1.07987 0.998808 0.99613
1 1 1 1
0.999193 1.00102 1 0.998176
1.0332 1.03716 1 0.996186
0.999726 1.00159 1 0.99814
1 1 1 1
1 1 1 1
0.999427 1.00095 1 0.998481
1.03313 1.03705 1 0.99622
1.07506 1.08028 0.999024 0.996143
1 1 1 1
1.00101 1.00284 1 0.998175
1.03463 1.03857 1 0.996206
1 1 1 1
1.00383 1.00566 1 0.998177
1 1 1 1
0.999438 1 1 0.999438
0.999042 1.0007 1 0.99834
1.03203 1.03596 1 0.996207
1 1 1 1
0.998981 1.00081 1 0.998177
1 1 1 1
0.999445 1 1 0.999445
0.999601 1.00127 1 0.998338
1.03298 1.0369 1 0.99622
0.999715 1 1 0.999715
1.00158 1.00341 1 0.998178
1 1 1 1
1 1 1 1
0.998944 1.00075 1 0.998199
1 1 1 1
0.999723 1 1 0.999723
0.999839 1.00164 1 0.998198
1 1 1 1
1 1 1 1
1 1 1 1

VECTORS lamdaE float
1.00252 0.999932 0.992511
1.00205 1.00075 0.996215
1.00196 1.00013 0.992922
1.0023 1.00015 0.992539
1.00249 0.999924 0.99256
1.00255 1.0001 0.99235
1.00339 1.00077 0.98963
1.00212 1.00081 0.996142
1.00171 1.00005 0.996903
1.00133 1.00082 0.996909
1.00175 1.00127 0.991969
1.00343 1.0015 0.987558
1.00171 0.999956 0.99336
1.0014 1.00007 0.993588
1.00144 1.00034 0.993306
1.00188 1.00015 0.992977
1.00189 1.00047 0.992733
1.00201 0.999981 0.992981
1.00365 1.00066 0.989406
1.00177 1.00002 0.996499
1.00215 1.00017 0.992675
1.00239 1.00003 0.99256
1.00337 1.0003 0.990192
1.00343 1.00047 0.989897
1.00247 1.00038 0.992137
1.00334 1.00128 0.989171
1.00531 1.00142 0.985238
1.00218 1.00084 0.996059
1.00199 0.999941 0.994862
1.00173 1.0005 0.994812
1.00209 1.0012 0.996003
1.00339 1.00159 0.987525
1.0022 0.999814 0.992809
1.00218 0.999935 0.992796
1.00377 1.00037 0.990052
1.00055 1.00241 0.99685
1.00366 1.001 0.989704
1.00346 1.00216 0.986837
1.00526 1.00271 0.983462
1.00072 1.00083 0.997094
1.00175 0.999979 0.996509
1.00168 1.00003 0.994995
1.00167 0.999958 0.996574
1.00123 1.00007 0.993794
1.0034 0.999861 0.98947
1.00162 0.999988 0.996886
1.00374 1.00018 0.990343
1.00149 1.0001 0.993414
1.00156 1.00003 0.993389
1.00129 1.00084 0.993098
1.00389 1.00054 0.989197
1.00155 1.00004 0.995108
1.00173 1.00021 0.993113
1.00188 1.00084 0.992461
1.00197 1.00002 0.992989
1.00358 1.00025 0.989957
1.00364 1.0011 0.988953
1.00365 1.0004 0.989668
1.00532 1.00139 0.985347
1.00166 0.999994 0.996552
1.00199 1.0001 0.992943
1.00314 0.99994 0.991287
1.00328 1.00021 0.990383
1.00339 1.00035 0.990086
1.00525 0.999864 0.986974
1.00532 1.00025 0.986356
1.00254 1.00078 0.991638
1.00325 1.00224 0.988319
1.00532 1.00225 0.98431
1.0053 0.999238 0.986718
1.00238 0.999922 0.996296
1.00197 1.00121 0.996114
1.00216 1.00044 0.996252
1.00335 1.00165 0.987492
1.00227 0.999894 0.996281
1.00231 1.00004 0.996311
1.00362 1.00035 0.988475
1.00087 1.00179 0.994658
1.00345 1.00094 0.988111
1.00339 1.00245 0.987907
1.00531 1.00262 0.983433
1.00109 1.0012 0.996667
1.00128 1.00295 0.98982
1.00372 1.00026 0.988483
1.00374 1.00039 0.988294
1.00534 1.00027 0.985875
1.0027 1.00328 0.989341
1.00536 1.00161 0.984417
1.00457 1.00374 0.983247
1.00541 1.00146 0.984238
1.00043 1.00011 0.997541
1.00053 1.00064 0.997265
1.00207 0.999989 0.996319
1.00182 0.999978 0.996477
1.00171 0.999964 0.996567
1.00156 0.999994 0.995139
1.00343 0.999861 0.990205
1.00186 0.999985 0.994888
1.00361 1.0002 0.989619
1.00168 0.99997 0.996586
1.00324 0.99972 0.989783
1.00364 1.00005 0.99062
1.00539 0.998384 0.987869
1.00372 1.00022 0.990255
1.00535 0.998897 0.987401
1.00173 0.999953 0.99336
1.00131 1.00024 0.993553
1.00124 1.00128 0.992773
1.00155 0.99999 0.993415
1.00378 1.00023 0.989725
1.00387 1.00035 0.989447
1.00391 1.00098 0.988744
1.00533 1.00135 0.985452
1.00172 0.999972 0.996568
1.00159 1.0001 0.993376
1.00336 0.999829 0.990118
1.00349 1.00018 0.990147
1.00216 1.00139 0.993762
1.00357 1.00201 0.988546
1.00361 1.0003 0.989854
1.00526 0.999579 0.987313
1.00532 1.00225 0.984446
1.00532 1.00052 0.986168
1.0053 0.999259 0.986735
1.00325 0.999758 0.989749
1.0032 0.999979 0.990696
1.00536 0.998162 0.988666
1.00528 0.99893 0.987958
1.00528 0.99968 0.987139
1.00532 0.99659 0.989677
1.00137 1.00159 0.996368
1.00533 0.998113 0.987768
1.0032 1.00316 0.986298
1.00534 1.00327 0.982557
1.0053 1.00043 0.985616
1.00528 0.996387 0.989391
1.00182 1.00358 0.988128
1.00347 1.00431 0.985329
1.00233 0.999894 0.996283
1.00234 1.0001 0.996298
1.00361 1.00036 0.988451
1.00124 1.00141 0.996576
1.00289 1.00271 0.987085
1.00351 1.00085 0.988093
1.00536 1.00254 0.983396
1.00092 1.00121 0.996846
1.00132 1.00308 0.98981
1.00374 1.00031 0.989298
1.00377 1.00048 0.989077
1.00533 1.00029 0.985839
1.00212 1.00336 0.987738
1.00535 1.00163 0.984381
1.00489 1.0034 0.98322
1.00538 1.00123 0.984521
1.00171 1.00318 0.988835
1.00097 1.00255 0.990943
1.00245 1.00367 0.986925
1.00528 0.999736 0.986545
1.00536 1.0009 0.985166
1.00535 0.997669 0.98833
1.00362 1.0039 0.984595
1.00531 0.999575 0.986445
1.0054 1.00312 0.982938
1.00543 0.999017 0.986343
1.00026 0.999402 0.997999
1.00027 0.999993 0.997741
1.00034 1.00055 0.997458
1.00161 1.00323 0.989016
1.00087 1.0013 0.996814
1.00223 0.999934 0.996279
1.00191 0.999988 0.996391
1.00341 1.00024 0.98895
1.00327 0.999868 0.989565
1.00169 0.99996 0.996553
1.00165 0.999959 0.996586
1.00322 0.999732 0.98978
1.00351 1.00003 0.989908
1.00538 0.998393 0.987878
1.00354 1.00029 0.988705
1.00533 0.998913 0.987395
1.00321 0.999693 0.98984
1.00539 0.998305 0.987952
1.00538 0.998567 0.98768
1.00527 0.995074 0.991603
1.00529 0.999295 0.987054
1.00521 0.995456 0.991119
1.00167 0.99997 0.996575
1.00114 1.00018 0.993808
1.00339 0.999786 0.989121
1.0037 1.00015 0.98991
1.00121 1.00221 0.996441
1.00392 1.00147 0.988779
1.00381 1.00027 0.989624
1.00527 0.999286 0.987651
1.00532 1.00077 0.985977
1.00532 1.00219 0.984588
1.00528 0.99928 0.986752
1.00323 0.999751 0.989752
1.00338 1.00001 0.990463
1.00537 0.998082 0.988491
1.0053 0.999223 0.987601
1.00162 1.0016 0.996194
1.00322 1.00293 0.987418
1.00518 1.00357 0.982995
1.00528 0.99973 0.987091
1.0053 0.996287 0.990062
1.00529 1.00031 0.985705
1.00533 0.998373 0.987634
1.00528 0.99644 0.989375
1.00194 1.00343 0.988122
1.00325 1.00423 0.985253
1.00538 0.998435 0.987834
1.00536 0.998518 0.98833
1.0053 0.995854 0.990636
1.00531 0.995647 0.990777
1.00533 0.997372 0.988678
1.00529 0.995007 0.991094
1.00253 1.00353 0.987001
1.00529 0.995415 0.990437
1.00512 1.0042 0.982477
1.00535 1.00155 0.984121
1.0053 0.998133 0.987742
1.00526 0.995342 0.990534
1.00378 1.00454 0.984077
1.00301 1.00398 0.986598
1.00462 1.00396 0.98374
1.00357 1.00034 0.988562
1.00068 1.00109 0.996997
1.00118 1.00317 0.989807
1.0036 1.00047 0.988325
1.00533 1.00031 0.985805
1.0022 1.00339 0.98775
1.00514 1.00316 0.983193
1.00534 1.00166 0.984343
1.00537 1.00097 0.984808
1.00158 1.00332 0.98886
1.00075 1.00268 0.99094
1.00247 1.00416 0.986924
1.00529 0.999755 0.986507
1.00535 1.00093 0.98513
1.00535 0.997639 0.988334
1.00397 1.00356 0.984557
1.00532 0.999689 0.986328
1.00541 1.0031 0.982849
1.00542 0.998617 0.986666
1.00061 1.00202 0.99192
1.00311 1.00385 0.986003
1.0019 1.00463 0.98723
1.00283 1.00141 0.987707
1.00535 0.996638 0.989429
1.00532 0.998716 0.987234
1.00531 0.995394 0.990347
1.00494 1.00423 0.982414
1.00533 0.996831 0.988999
1.00531 1.00119 0.984922
1.00549 0.997203 0.988055
1.00036 1.00379 0.990718
1.00029 1.00113 0.993369
1.00023 0.998879 0.998226
1.0002 0.999307 0.99809
1.00018 0.999812 0.99791
1.00126 1.00318 0.989747
1.00071 1.00103 0.997022
1.00165 1.00321 0.988948
1.00106 1.00142 0.996652
1.0035 1.00033 0.988712
1.00336 1.00003 0.98926
1.0053 0.998929 0.987395
1.00536 0.998406 0.987887
1.00323 0.999749 0.989784
1.00171 0.999944 0.996583
1.00323 0.999688 0.989845
1.00538 0.998313 0.987959
1.00537 0.998586 0.987686
1.00528 0.995033 0.991604
1.00528 0.999311 0.98703
1.00526 0.995386 0.991119
1.00539 0.998328 0.987932
1.00529 0.995036 0.991631
1.00525 0.995194 0.991448
1.00508 0.994969 0.991827
1.00526 0.995875 0.99045
1.0052 0.994928 0.991521
1.00324 0.999751 0.989762
1.00359 0.999972 0.99023
1.00538 0.997977 0.988325
1.00532 0.999507 0.987242
1.00181 1.0017 0.996018
1.00353 1.00284 0.988275
1.00498 1.00361 0.983424
1.00528 0.999765 0.987043
1.00527 0.995989 0.990447
1.00533 0.998633 0.987502
1.00529 1.00022 0.985794
1.00528 0.996497 0.989358
1.00204 1.00333 0.988117
1.00308 1.00408 0.985181
1.00539 0.998112 0.98818
1.00536 0.998489 0.988328
1.0053 0.995853 0.990647
1.00528 0.996004 0.990397
1.00253 1.00353 0.986964
1.00477 1.00413 0.9825
1.00539 1.00178 0.983883
1.00534 0.997472 0.988616
1.00531 0.994966 0.991119
1.0053 0.997887 0.988022
1.00528 0.995454 0.990401
1.00527 0.99533 0.990417
1.00374 1.00463 0.984059
1.00421 1.00401 0.983662
1.00251 1.00404 0.986629
1.00532 0.995737 0.990779
1.0053 0.996026 0.990402
1.00508 0.994963 0.991846
1.00522 0.994932 0.991394
1.00531 0.994989 0.990873
1.00528 0.99491 0.991018
1.00449 1.00406 0.983251
1.00527 0.994873 0.990842
1.00542 1.00345 0.98233
1.00537 0.999505 0.985983
1.00527 0.996624 0.989246
1.00531 0.99516 0.990527
1.00198 1.0051 0.986618
1.00514 1.00474 0.981948
1.00322 1.00285 0.985845
1.00514 1.00402 0.982382
1.0053 0.999771 0.98647
1.00061 1.00283 0.990936
1.00146 1.00354 0.988886
1.00223 1.00444 0.986911
1.00534 1.00095 0.985095
1.00534 0.997611 0.988337
1.00437 1.00305 0.984524
1.0054 1.00308 0.982752
1.00533 0.999817 0.986213
1.0054 0.998242 0.98699
1.00047 1.00217 0.991927
1.00316 1.0035 0.986147
1.00172 1.00483 0.987092
1.00332 1.00156 0.987781
1.00534 0.996637 0.989441
1.00533 0.998684 0.987228
1.00532 0.995369 0.990376
1.00516 1.00431 0.982281
1.00533 0.997107 0.988707
1.00529 1.00101 0.984913
1.00549 0.99703 0.988358
1.00044 1.00171 0.992585
1.0018 1.00509 0.987357
1.0036 1.00376 0.984712
1.00338 1.00261 0.987057
1.0031 1.00154 0.988546
1.00532 0.994973 0.99083
1.00532 0.996045 0.989611
1.00534 0.994883 0.99057
1.00516 1.00334 0.983028
1.00541 0.995627 0.989838
1.00523 0.999248 0.986575
1.00074 1.00434 0.989448
1.00028 1.0051 0.989603
1.00017 1.00301 0.991682
1.0002 1.00383 0.990723
1.00021 1.00026 0.995096
1.00026 1.00095 0.993919
1.00038 0.998136 0.996584
1.00021 0.99881 0.998295
1.00017 0.999244 0.998153
1.00043 1.0029 0.991112
1.00032 1.00071 0.997446
1.00129 1.00309 0.989721
1.00075 1.00109 0.996966
1.00167 1.00318 0.988883
1.00126 1.00145 0.996483
1.00527 0.999329 0.987003
1.00535 0.998601 0.987689
1.0053 0.995336 0.991119
1.00529 0.994999 0.991605
1.00538 0.998322 0.987966
1.00322 0.999675 0.989847
1.00538 0.998332 0.987934
1.00529 0.995012 0.991631
1.00527 0.995151 0.991453
1.00508 0.994967 0.991805
1.00529 0.995851 0.990453
1.00518 0.994927 0.99153
1.00531 0.995051 0.991586
1.00508 0.99496 0.991829
1.00511 0.994967 0.99174
1.00523 0.994948 0.991538
1.00529 0.994866 0.99118
1.00526 0.994936 0.991149
1.00539 0.997782 0.988522
1.00536 0.998479 0.988327
1.00529 0.99586 0.990657
1.00525 0.996363 0.990017
1.00255 1.00347 0.986925
1.00448 1.0045 0.982529
1.00541 1.002 0.983649
1.00534 0.997568 0.988554
1.00532 0.994915 0.991144
1.00527 0.99549 0.990365
1.0053 0.997621 0.988302
1.00528 0.995309 0.9903
1.00362 1.00473 0.984042
1.00399 1.00432 0.983585
1.00223 1.00437 0.986655
1.00531 0.995424 0.991146
1.00529 0.996036 0.990407
1.00509 0.994961 0.991812
1.00523 0.994932 0.991398
1.00428 1.00435 0.983315
1.00541 1.00346 0.982415
1.0054 0.999687 0.985675
1.0053 0.995086 0.990758
1.00528 0.994915 0.990983
1.00526 0.996487 0.989255
1.00528 0.994872 0.990822
1.0053 0.995133 0.990551
1.0048 1.00482 0.981973
1.00512 1.00441 0.982223
1.00218 1.00493 0.986689
1.0035 1.0033 0.985969
1.00508 0.994962 0.991894
1.00513 0.994951 0.991567
1.00521 0.994957 0.99156
1.00526 0.994915 0.991084
1.00529 0.994874 0.99089
1.00531 0.99492 0.99082
1.00532 1.00468 0.981467
1.00533 0.994827 0.990661
1.00531 1.00172 0.983945
1.00535 0.998512 0.986837
1.00526 0.995966 0.989682
1.00532 0.994995 0.990558
1.00198 1.00506 0.986831
1.00342 1.00387 0.985855
1.00516 1.0048 0.981537
1.00415 1.00233 0.985561
1.00511 1.00437 0.981963
1.00032 1.00224 0.991936
1.00532 0.996635 0.989452
1.00192 1.00504 0.986953
1.0031 1.0034 0.9863
1.00358 1.00163 0.987855
1.00535 0.998652 0.987223
1.00532 0.995342 0.990406
1.00529 1.00408 0.982151
1.0053 1.00089 0.984899
1.00533 0.997366 0.988416
1.00549 0.996864 0.988659
1.00039 1.00164 0.99262
1.00154 1.00511 0.987374
1.00399 1.00341 0.984821
1.00313 1.00284 0.986939
1.0035 1.0011 0.987589
1.00532 0.994965 0.990863
1.00532 0.996011 0.989642
1.00533 0.994903 0.990582
1.00516 1.00344 0.982979
1.00543 0.99577 0.989641
1.00522 0.999306 0.986873
1.00129 1.00487 0.988202
1.00309 1.00514 0.986158
1.00357 1.00385 0.984531
1.00392 1.00223 0.986702
1.00459 1.00216 0.986199
1.00533 0.994826 0.990812
1.00534 0.995034 0.99027
1.0053 0.994837 0.990504
1.00503 1.00127 0.984863
1.00522 0.997729 0.987879
1.00062 1.00451 0.98945
1.00054 1.0051 0.988923
0.999702 1.00507 0.989681
1.00047 1.00453 0.990441
1.00028 1.00459 0.990499
1.00004 1.00265 0.992238
1.00001 1.00324 0.9917
1.00009 0.999843 0.995634
1.00007 1.00404 0.990727
1.00019 1.00021 0.995185
1.0003 0.997645 0.997078
1.00024 1.00086 0.994454
1.00023 0.998275 0.997572
1.00017 0.998634 0.998367
0.999923 1.00182 0.992966
1.00066 1.0026 0.991169
1.00005 0.999661 0.998096
1.00057 1.00065 0.997245
1.00137 1.00287 0.989697
1.00085 1.00115 0.996884
1.00532 0.995825 0.990455
1.00529 0.99509 0.991458
1.00516 0.994926 0.99154
1.00508 0.994965 0.991783
1.0053 0.99498 0.99163
1.00539 0.998335 0.987936
1.00531 0.995041 0.991583
1.00508 0.994964 0.991833
1.0051 0.994968 0.991742
1.00523 0.994944 0.991506
1.00528 0.994861 0.991207
1.00526 0.994934 0.991157
1.00508 0.994957 0.991853
1.00525 0.994948 0.991592
1.00522 0.994949 0.991376
1.00528 0.994924 0.991433
1.0053 0.994893 0.991001
1.00531 0.994928 0.991055
1.0053 0.995117 0.991514
1.00529 0.996047 0.990411
1.0051 0.994958 0.991777
1.00524 0.994933 0.991403
1.00399 1.00455 0.983379
1.0054 1.00347 0.982495
1.00542 0.999829 0.985372
1.0053 0.995189 0.990643
1.00529 0.994919 0.990949
1.00529 0.994871 0.990801
1.00525 0.996349 0.989264
1.00529 0.995101 0.990576
1.00448 1.00504 0.981996
1.00472 1.00502 0.982064
1.00214 1.00454 0.986757
1.0031 1.00291 0.986085
1.00508 0.994961 0.991892
1.00513 0.994951 0.991609
1.00521 0.994954 0.991527
1.00527 0.994916 0.991085
1.00525 1.00464 0.981543
1.00532 1.00187 0.98376
1.00534 0.998537 0.986811
1.00529 0.994871 0.990921
1.0053 0.994914 0.990825
1.00526 0.995926 0.989696
1.00533 0.99483 0.990651
1.0053 0.99494 0.990683
1.00508 1.00477 0.981616
1.00498 1.0048 0.981919
1.00375 1.00316 0.985642
1.00157 1.00496 0.987123
1.00276 1.00382 0.98579
1.00524 0.994951 0.991518
1.00526 0.994932 0.991327
1.00532 0.994889 0.990821
1.00532 0.994892 0.990699
1.00524 1.00379 0.982343
1.00531 0.994784 0.990597
1.00524 1.00079 0.984343
1.0053 0.997923 0.98742
1.0053 0.995332 0.989858
1.00037 1.00463 0.989425
1.00235 1.00506 0.986009
1.00384 1.00391 0.98595
1.005 1.0045 0.982294
1.00429 1.0042 0.984095
1.00504 1.00435 0.982544
1.00034 1.00166 0.992652
1.0013 1.00514 0.987391
1.00533 0.994958 0.990896
1.0026 1.00315 0.986819
1.00476 1.00343 0.984932
1.00405 1.00054 0.986643
1.00531 0.995978 0.989673
1.00533 0.994925 0.990594
1.00515 1.0035 0.982946
1.00521 0.999384 0.987175
1.00545 0.995897 0.989442
1.00119 1.00495 0.98821
1.00233 1.00516 0.986177
1.00416 1.00417 0.983621
1.00389 1.00161 0.986851
1.00436 1.00166 0.98604
1.00533 0.994828 0.990819
1.00536 0.995086 0.990259
1.00533 0.994831 0.990453
1.00502 1.00123 0.985113
1.00522 0.997842 0.987765
1.00203 1.00512 0.987358
1.0016 1.00514 0.986483
1.00452 1.00267 0.984866
1.00251 1.00162 0.986405
1.00525 1.00105 0.986268
1.00534 0.994808 0.990654
1.0054 0.995625 0.98937
1.00538 0.99497 0.989851
1.00505 0.999816 0.986499
1.00512 0.998643 0.987305
1.00053 1.0046 0.989454
1.00083 1.00507 0.98877
0.99945 1.00378 0.991478
0.999525 1.00507 0.989743
0.999839 1.0047 0.990479
0.999578 1.0047 0.990684
0.999843 1.0031 0.992037
0.999432 1.00508 0.990617
0.999798 1.00438 0.991006
1.00005 1.00248 0.99238
1.00004 1.00258 0.992231
1.00004 0.999572 0.995941
0.999905 1.00319 0.991711
1.00013 0.999723 0.995691
1.00021 0.997415 0.997412
1.0002 1.00006 0.995278
1.00026 0.997713 0.99705
1.00004 0.99839 0.998585
0.999821 1.00074 0.994271
1.00006 1.00179 0.99291
0.99989 0.998851 0.998578
1.00093 1.0024 0.991224
1.00024 0.999931 0.997848
1.00068 1.00089 0.997105
1.00527 0.994856 0.991234
1.00509 0.994968 0.991744
1.00525 0.994932 0.991165
1.00523 0.994939 0.991473
1.00508 0.994968 0.991837
1.00531 0.995032 0.99158
1.00508 0.994958 0.991884
1.00524 0.99495 0.99159
1.00523 0.994951 0.991393
1.00528 0.994919 0.991414
1.0053 0.994896 0.991004
1.00531 0.994922 0.991021
1.00525 0.994951 0.991551
1.00531 0.994926 0.991454
1.00529 0.994912 0.991317
1.00535 0.994872 0.990761
1.00509 0.994961 0.99189
1.00514 0.994951 0.991651
1.0052 0.99495 0.991494
1.00527 0.994917 0.991086
1.00518 1.00458 0.981622
1.00534 1.00203 0.983573
1.00532 0.998596 0.986784
1.00529 0.994868 0.990953
1.00529 0.99491 0.990831
1.00532 0.994832 0.990641
1.00525 0.995916 0.989708
1.0053 0.994899 0.990809
1.0052 1.00481 0.98169
1.00477 1.00475 0.981876
1.00437 1.0032 0.985716
1.00143 1.00472 0.987435
1.00261 1.00426 0.985737
1.00523 0.99495 0.991512
1.00526 0.994934 0.99134
1.00532 0.994897 0.990841
1.00523 1.00393 0.982356
1.00524 1.00102 0.984262
1.0053 0.997818 0.987431
1.00532 0.994894 0.990714
1.00531 0.995336 0.990031
1.00533 0.994786 0.990614
1.00019 1.00422 0.989728
1.00493 1.00431 0.982348
1.00494 1.00452 0.982133
1.00454 1.00349 0.983917
1.00385 1.00331 0.986056
1.00238 1.00498 0.986005
1.0053 0.99493 0.991405
1.00533 0.994899 0.991094
1.00534 0.994884 0.990654
1.00531 0.994845 0.990556
1.0051 1.00323 0.983304
1.0053 0.994813 0.990452
1.00512 1.00078 0.984964
1.0053 0.997007 0.987839
0.99998 1.00299 0.991306
1.00127 1.00513 0.98814
1.00348 1.00453 0.985879
1.00285 1.00394 0.985719
1.00456 1.00321 0.984482
1.005 1.00457 0.982199
1.00102 1.00507 0.988216
1.00171 1.00515 0.986196
1.00533 0.994829 0.990825
1.00391 1.00104 0.98699
1.00484 1.00452 0.982697
1.00374 1.0021 0.985877
1.00538 0.995139 0.990249
1.00536 0.994823 0.990402
1.00502 1.00126 0.985362
1.00522 0.997958 0.987651
1.00155 1.00511 0.987423
1.00233 1.00516 0.98604
1.00445 1.00287 0.98465
1.00338 1.00261 0.986249
1.00514 1.00133 0.985846
1.00535 0.994811 0.990649
1.00541 0.995489 0.989619
1.00537 0.995085 0.990019
1.00507 0.999714 0.986497
1.00505 0.998987 0.987034
0.999758 1.00501 0.988675
0.999621 1.005 0.988051
1.00493 1.00037 0.98648
1.00411 1.0007 0.987032
1.00543 0.994756 0.990452
1.00536 0.994784 0.990383
1.00526 0.997478 0.98776
1.0052 0.999256 0.986493
1.00117 1.00508 0.98862
0.999585 1.00439 0.991103
0.997911 1.0042 0.994181
0.999506 1.0049 0.990467
0.998515 1.00504 0.990922
0.999855 1.00435 0.990953
0.999336 1.00368 0.992442
0.999506 1.00511 0.990689
0.999134 1.00074 0.995524
0.999334 1.00505 0.991019
0.999329 1.00504 0.990494
0.999996 1.00428 0.990796
0.999979 1.00256 0.992356
0.999996 1.00252 0.992361
0.999957 0.99946 0.996115
0.99998 1.00267 0.992228
1.00005 0.999515 0.995964
1.00012 0.997367 0.997558
1.00012 0.999643 0.995747
1.00018 0.997468 0.99739
1.00017 0.997817 0.997009
1.00003 0.999884 0.994891
0.999869 1.00093 0.994184
0.999837 0.998222 0.998797
1.00012 1.00196 0.992855
0.999966 0.998963 0.998434
1.00048 0.999936 0.997566
1.00531 0.994898 0.991007
1.00523 0.994953 0.99141
1.00531 0.994916 0.990988
1.00527 0.994916 0.991394
1.00524 0.994953 0.991589
1.00508 0.994959 0.991916
1.00524 0.994949 0.991571
1.0053 0.994925 0.991448
1.00529 0.994917 0.991273
1.00533 0.994871 0.990792
1.00532 0.994929 0.991454
1.00529 0.994898 0.99141
1.00534 0.994878 0.99101
1.00523 0.99495 0.991507
1.00526 0.994935 0.991354
1.00533 0.994901 0.990861
1.00517 1.00401 0.982377
1.00523 1.00127 0.984181
1.00529 0.997674 0.987441
1.00532 0.994896 0.990729
1.00533 0.994799 0.990632
1.0053 0.995272 0.990203
1.00488 1.00416 0.982401
1.00507 1.00482 0.98174
1.00444 1.0045 0.983749
1.0003 1.00406 0.990028
1.00344 1.00317 0.986135
1.00219 1.00476 0.985986
1.00531 0.994934 0.991415
1.00533 0.99489 0.991057
1.00534 0.994884 0.99066
1.00508 1.00311 0.983258
1.00507 1.00068 0.985083
1.00533 0.996805 0.988149
1.00532 0.994838 0.990531
1.00531 0.994852 0.990416
0.999917 1.00326 0.991532
1.00114 1.00512 0.988106
1.0046 1.00255 0.9842
1.00469 1.00455 0.982607
1.00348 1.00408 0.985203
1.00305 1.0044 0.985985
1.00532 0.994898 0.991338
1.00538 0.994872 0.990713
1.00535 0.994851 0.990514
1.00529 0.994788 0.990337
1.00432 1.00174 0.985254
1.0053 0.995312 0.989722
1.00491 0.99976 0.986285
1.00009 1.00213 0.992666
1.00007 1.00304 0.991964
0.999727 1.00497 0.989801
1.00176 1.00511 0.986874
1.00277 1.00469 0.986355
1.00427 1.00413 0.984153
1.00361 1.00208 0.986527
1.00446 1.00207 0.98742
1.0012 1.00511 0.987493
1.00314 1.00521 0.985598
1.00535 0.994813 0.990643
1.0042 1.00278 0.986099
1.0044 1.00298 0.984437
1.00525 1.00154 0.985435
1.00542 0.995338 0.989869
1.00536 0.99519 0.990187
1.00509 0.999589 0.986493
1.00497 0.999301 0.986763
1.0007 1.00474 0.988254
1.00105 1.00514 0.98747
1.00494 1.00042 0.986216
1.00442 1.00128 0.986792
1.00542 0.994767 0.990458
1.00539 0.9948 0.990374
1.0052 0.997381 0.987875
1.00518 0.999426 0.98651
0.998361 1.00485 0.991543
1.00548 0.994761 0.99069
1.00235 1.00495 0.987946
1.0048 0.99969 0.98689
1.00537 0.994744 0.990705
1.00506 0.996973 0.987558
1.00506 1.00046 0.98599
0.999596 1.00448 0.990731
0.998172 1.00359 0.99428
0.996481 1.00363 0.996656
0.999732 1.00419 0.9909
0.99939 1.00512 0.990758
0.997898 1.00499 0.992872
1.00001 1.0041 0.990781
0.99945 1.00503 0.990574
0.997709 1.00221 0.996025
0.999505 1.00494 0.99089
0.997954 1.00101 0.997969
0.997654 1.00392 0.994147
0.999384 1.00511 0.99084
1.00034 1.00489 0.989507
1.00029 1.00397 0.99048
1 1.00252 0.992359
0.999957 1.00261 0.992337
0.999836 0.999521 0.996281
0.999927 1.00264 0.992344
0.999964 0.999493 0.99613
0.999991 0.997526 0.997682
1.00006 0.999452 0.995993
1.00012 0.997434 0.997549
1.0002 0.997523 0.997362
1.0001 1.00153 0.993255
1.00001 0.999414 0.995347
0.999989 0.999991 0.994858
0.999914 0.997942 0.998889
0.999916 1.00086 0.994099
0.999879 0.998435 0.99875
1.00011 0.999093 0.998269
1.00531 0.99487 0.990823
1.0053 0.994922 0.991229
1.0053 0.994923 0.991443
1.00524 0.994948 0.99159
1.00532 0.994928 0.991447
1.00529 0.994892 0.991408
1.00533 0.99488 0.990952
1.00532 0.994899 0.991392
1.00533 0.994857 0.991377
1.00559 0.994747 0.991222
1.00531 0.994937 0.991425
1.00533 0.994888 0.99102
1.00534 0.99489 0.990666
1.00516 1.00296 0.983215
1.00495 1.00072 0.985216
1.00535 0.99664 0.988449
1.00533 0.994823 0.990505
1.0053 0.994856 0.99038
1.00457 1.00285 0.983911
1.00437 1.00427 0.982984
1.00393 1.00368 0.984691
1.00002 1.00312 0.991763
1.00072 1.00512 0.988072
1.00287 1.00466 0.986096
1.00531 0.994899 0.99132
1.00014 1.00203 0.992629
0.999949 1.00314 0.991816
1.00538 0.99487 0.990718
1.00535 0.994855 0.990533
1.00458 1.00191 0.985245
1.00498 0.999402 0.986656
1.00528 0.995237 0.989677
1.00528 0.994796 0.990281
1.00016 1.00467 0.990015
1.00191 1.00511 0.986825
1.00341 1.00278 0.986185
1.0044 1.00198 0.985944
1.00385 1.0047 0.983787
1.00257 1.004 0.986517
1.00539 0.994821 0.991181
1.00538 0.995047 0.990393
1.00534 0.994846 0.990472
1.00525 0.99505 0.989927
1.0035 1.00086 0.988002
1.00501 0.99755 0.988792
1.0003 1.00258 0.991777
0.999649 1.00366 0.991525
1.00125 1.00269 0.99086
1.00093 1.00512 0.98825
1.00228 1.00503 0.986594
1.00183 1.00219 0.988148
1.00237 1.00288 0.987358
1.00168 0.999174 0.993185
1.0009 1.00511 0.987843
1.00292 1.00516 0.986877
1.0054 0.994778 0.990465
1.00542 0.994817 0.990365
1.00475 1.00172 0.98654
1.00493 1.00053 0.985944
1.00514 0.997296 0.98799
1.00518 0.999599 0.98653
0.999106 1.00465 0.991489
1.00547 0.994738 0.990892
1.00144 1.00451 0.988806
1.00474 1 0.986656
1.00538 0.994737 0.990787
1.00512 0.997147 0.987753
1.00509 1.00015 0.985953
0.998316 1.00485 0.993768
1.00507 0.994666 0.990424
1.00182 1.00366 0.988855
1.00436 1.00176 0.984956
1.00509 0.995472 0.990547
1.00353 1.00075 0.986968
0.999038 0.994762 0.982801
0.998357 1.00326 0.994348
0.997199 1.0027 0.996631
0.996458 1.00248 0.997806
1.00002 1.00402 0.990763
0.999202 1.00505 0.990659
1.00005 1.00492 0.990762
0.996855 1.00238 0.996534
1.00027 1.00397 0.990484
1.00009 1.00486 0.989778
0.997171 1.00042 0.998887
0.999233 1.00513 0.990784
0.998226 1.00408 0.993606
0.996058 1.00375 0.997376
0.999205 1.00486 0.991461
0.999657 1.00507 0.990738
1.00065 1.00421 0.989724
1.00032 1.00407 0.990086
1.00025 1.005 0.990023
1.00006 1.0044 0.990096
0.999935 1.00259 0.992344
0.99997 1.00256 0.992343
0.999712 0.99949 0.995786
0.999972 1.00253 0.99232
0.999817 0.999521 0.995962
0.999982 0.997514 0.999059
0.999967 0.999499 0.996149
1.00002 0.997485 0.997672
1.00013 0.997489 0.997534
0.999981 1.00108 0.99381
1.00013 1.00145 0.993287
1.00008 0.99885 0.995886
1.00002 0.999466 0.995677
0.99992 0.997609 0.999005
0.999927 1.0002 0.994823
0.999899 0.997963 0.998872
0.999935 0.998488 0.998683
1.00532 0.994882 0.990892
1.0053 0.994886 0.991406
1.00532 0.994928 0.99144
1.00532 0.994897 0.991394
1.00534 0.994851 0.991321
1.00563 0.994766 0.991126
1.00542 0.994836 0.991405
1.00087 0.994665 0.980083
1.0054 0.9948 0.990319
1.00012 1.00243 0.992285
1.00531 0.994898 0.991302
1.00538 0.994868 0.990725
1.00535 0.99486 0.990551
1.0047 1.00155 0.98522
1.00503 0.999081 0.987014
1.00527 0.995265 0.989617
1.00529 0.994815 0.990225
1.00384 1.00256 0.985912
1.00458 1.00272 0.984533
1.00368 1.00477 0.98339
1.00011 1.00217 0.992593
1.00289 1.00353 0.986658
1.00041 1.00448 0.99022
1.00186 1.00511 0.986781
0.999752 1.00323 0.991672
1.00539 0.994851 0.991172
1.00028 1.00242 0.991981
0.999886 1.00362 0.991566
1.00048 1.00317 0.991183
1.00539 0.994913 0.990405
1.00531 0.994841 0.99044
1.00281 1.00162 0.988092
1.00491 0.997231 0.988982
1.00527 0.994977 0.989914
1.00084 1.00512 0.98826
1.0025 1.00478 0.986757
1.00262 0.999241 0.991914
1.00287 1.00387 0.986928
1.00331 1.00188 0.98805
1.00545 0.994836 0.990835
1.00535 0.994881 0.990502
1.00527 0.994847 0.990221
1.00463 0.998078 0.989977
1.00192 0.999536 0.991589
1.00032 1.00199 0.992159
1.00136 1.00349 0.988859
0.999903 1.00355 0.991289
1.0015 1.00512 0.988376
1.00177 1.00286 0.989282
1.00093 1.00132 0.991036
1.00152 0.99856 0.994261
1.00057 1.00396 0.991369
1.00003 1.00435 0.989688
1.00547 0.994714 0.991085
1.0054 0.994728 0.990856
1.00517 0.997317 0.987947
1.00466 1.0003 0.986427
1.00512 0.999824 0.985925
0.997951 1.00485 0.994866
1.00465 0.994669 0.990603
1.00168 1.0036 0.988792
1.00464 1.00182 0.98481
1.0049 0.995402 0.990841
1.00393 1.00067 0.987041
0.99887 0.994752 0.981129
0.997456 1.0048 0.994469
1.00368 0.994741 0.99054
1.00234 1.00289 0.986896
1.00318 1.0001 0.988254
1.00337 0.997355 0.99141
0.999971 0.994863 0.937032
0.994897 0.994719 0.959435
0.996376 0.996335 0.986479
0.996112 0.994762 0.845465
0.994698 0.995798 0.804955
0.998091 1.0021 0.996632
0.996536 1.00285 0.997933
0.995402 1.00414 0.998211
1.00032 1.00392 0.990493
0.999958 1.00493 0.990047
0.999388 1.00513 0.990726
0.998677 1.00435 0.993031
0.996655 1.00053 0.999792
0.999419 1.00505 0.99096
1.00043 1.00398 0.990146
1.00051 1.00454 0.98969
0.99664 1.00318 0.997187
0.998762 1.00497 0.991933
0.999277 1.00472 0.992118
0.996888 1.00477 0.994909
0.999359 1.00476 0.991443
1.00042 1.00459 0.989337
1.00025 1.00436 0.989957
0.999902 1.0047 0.99018
0.999529 1.00399 0.991962
0.999377 1.00505 0.991103
0.999954 1.00498 0.990173
1.00007 1.00435 0.990408
1.00008 1.00442 0.990078
0.999879 1.00278 0.99228
0.999919 1.00265 0.992352
0.999676 0.99951 0.995845
0.999927 1.00268 0.992324
0.999701 0.999525 0.995788
0.999938 0.997501 0.999097
0.999794 0.99954 0.995648
0.999936 0.997519 0.998421
1.00005 0.997455 0.997658
0.999909 1.00084 0.994159
1.00004 1.00103 0.993822
1.00009 0.99849 0.996274
1.00015 1.00138 0.993317
1.00006 0.998853 0.996206
0.999955 0.997193 0.999128
1.00005 0.999585 0.995217
0.999928 0.997784 0.998946
0.999903 0.998121 0.998855
1.00535 0.994844 0.991265
1.00531 0.994895 0.991397
1.0057 0.994789 0.991046
0.999964 0.99471 0.980064
1.00545 0.994822 0.991348
1.00541 0.994818 0.990363
1.0055 0.994742 0.991238
0.995556 0.994835 0.961251
1.00363 0.994807 0.978159
1.00028 1.00194 0.992561
1.00031 1.00224 0.992263
0.999796 1.00316 0.991938
0.999955 1.00291 0.992013
1.0054 0.994865 0.991164
1.00541 0.994869 0.990419
1.00528 0.994831 0.990408
1.00384 1.00169 0.988174
1.0051 0.996038 0.989208
1.00527 0.994853 0.989917
1.0027 0.998609 0.990562
1.00315 1.00427 0.986526
1.00333 1.0016 0.987995
1.00002 1.00354 0.991606
1.00222 1.00387 0.986944
1.00104 1.00513 0.988266
1.00034 1.00223 0.992183
0.999901 1.00356 0.991563
1.00548 0.994804 0.990818
1.00017 1.00267 0.991866
1.00135 1.00358 0.989146
0.997591 1.00363 0.994382
1.00536 0.994929 0.99047
1.00527 0.994838 0.990204
1.00333 0.997696 0.991709
1.00448 0.997542 0.989845
1.00178 1.00513 0.987894
1.00145 1.00271 0.988588
1.00126 0.998458 0.994338
1.00191 1.00176 0.990617
1.00404 0.996571 0.990144
1.00522 0.9948 0.990745
1.00429 0.997754 0.989734
1.00349 0.996923 0.992647
0.997524 1.00475 0.99405
1.00223 1.00445 0.986977
0.999283 1.00226 0.994081
0.998102 1.00325 0.994421
0.999969 0.995598 0.921545
0.997461 1.00467 0.996018
1.0012 1.00367 0.988714
1.00414 0.99468 0.99082
1.00466 0.995349 0.991127
1.00422 1.00053 0.987083
1.00478 1.00201 0.984648
0.998706 0.994755 0.979202
0.997575 1.00454 0.994734
1.00327 0.994751 0.990429
1.0025 1.00342 0.986846
1.00368 0.999968 0.988432
1.00352 0.997876 0.991216
0.999431 0.994867 0.922583
0.995355 0.994765 0.956214
0.996384 0.996414 0.986961
0.996828 0.994756 0.850642
0.994761 0.995356 0.800123
0.99779 1.00402 0.993922
0.998375 0.994831 0.855352
0.994785 0.994896 0.796487
1.00098 0.996193 0.993554
1.00141 1.00123 0.991025
1.0012 1.00061 0.99298
0.994931 0.996241 0.990459
0.997426 0.994717 0.936297
0.994907 0.99479 0.952044
0.99472 0.995297 0.869183
0.994767 0.994875 0.781777
0.996403 1.0029 0.998055
0.99554 1.00424 0.998061
0.995248 1.005 0.998328
1.0006 1.00381 0.990203
1.00039 1.00461 0.989654
0.998862 1.00507 0.991186
0.998539 1.00509 0.9924
0.997105 1.00235 0.997018
1.00039 1.00419 0.98995
0.998845 1.00494 0.992222
0.999237 1.00486 0.99113
1.00068 1.00454 0.989451
0.996983 1.00448 0.995283
0.997947 1.00448 0.993951
0.995582 1.00513 0.99652
0.999291 1.00499 0.990688
1.00058 1.00461 0.98949
1.00019 1.00461 0.990139
0.999153 1.00373 0.992457
0.999119 1.00437 0.992098
0.999691 1.00319 0.992252
0.997853 1.00316 0.995087
0.997742 1.0048 0.993041
0.998603 1.00509 0.991496
0.999356 1.00509 0.991081
0.999619 1.00486 0.99041
0.999716 1.00505 0.990325
1.00015 1.00442 0.990321
0.999958 1.0029 0.992113
1.00016 1.00442 0.990059
0.999933 1.00269 0.992301
0.999864 0.999528 0.996274
0.999921 1.00266 0.992359
0.999738 0.999488 0.996102
0.999901 0.99746 0.997913
0.999683 0.999523 0.995788
0.999929 0.99752 0.999107
0.999934 0.997563 0.99778
1.00031 1.00226 0.992237
0.99988 1.00077 0.994279
0.999946 1.00083 0.994157
1.00004 0.998392 0.996432
1.00005 1.00105 0.993838
1.0001 0.998468 0.996271
0.99999 0.996974 0.99919
1.00006 0.99897 0.996429
0.999945 0.997372 0.998458
0.999923 0.997783 0.997546
0.999377 0.994725 0.980014
1.00547 0.994816 0.991292
1.00534 0.994764 0.990403
0.996341 0.994782 0.961383
1.00386 0.994743 0.978481
1.00548 0.99481 0.991277
1.00369 0.994697 0.985404
0.998893 0.994753 0.96124
0.99911 0.994866 0.936598
0.996658 0.994762 0.873257
0.994798 0.99523 0.80457
0.99946 1.00306 0.992391
1.00024 1.00202 0.99255
1.00042 1.00212 0.992234
0.999834 1.00291 0.992278
0.998276 1.00491 0.993041
1.00013 1.00332 0.991483
1.00015 1.00407 0.990805
1.00005 1.00288 0.991948
1.00548 0.994828 0.990794
1.00534 0.994887 0.99044
1.00527 0.994834 0.990187
1.0034 0.997655 0.991839
1.00421 0.997788 0.989695
1.00112 0.998156 0.994417
1.00355 1.0016 0.990191
1.00298 1.00273 0.98789
1.00115 1.00374 0.989401
1.00168 1.00514 0.98737
0.999998 1.00347 0.991574
0.996298 1.00376 0.997203
1.00421 0.995639 0.990495
0.997544 1.0047 0.994066
1.00121 1.00429 0.989069
1.005 0.994818 0.990713
1.00396 0.998157 0.98987
1.00302 0.997105 0.992588
1.00016 1.00212 0.992824
0.999285 1.00202 0.994484
1.00295 0.996305 0.988974
1.003 0.999019 0.990877
1.00344 0.999103 0.990984
1.00115 0.997733 0.994975
0.998893 1.00475 0.992305
0.997718 1.0047 0.993382
0.997716 1.00308 0.995627
0.99983 0.996501 0.854228
1.00066 0.994885 0.937318
0.99813 1.00414 0.995006
1.00285 1.00373 0.986815
1.00289 0.994752 0.990305
1.00375 0.99834 0.991043
1.00409 0.999781 0.988654
0.999989 0.994828 0.934806
0.995823 0.994775 0.955714
0.996378 0.996795 0.987619
0.995835 0.994789 0.870356
0.994827 0.994882 0.79492
0.998223 1.00408 0.993929
0.999849 0.994883 0.85268
0.994732 0.994872 0.790199
1.00089 0.996814 0.993366
1.00143 1.00125 0.991063
1.00118 1.00035 0.993616
0.995042 0.997419 0.991402
0.996702 0.994696 0.92934
0.994918 0.994799 0.952391
0.994786 0.995009 0.870275
0.9948 0.995178 0.779389
0.996711 1.00473 0.996414
0.994768 0.994801 0.783217
0.99474 0.99475 0.779953
0.99671 1.00142 0.997338
0.999048 1.00171 0.99728
0.994844 0.998728 0.98786
0.994917 0.994817 0.956605
0.994882 0.994666 0.92338
0.994811 0.994866 0.873478
0.994884 0.994892 0.793919
0.995883 1.00444 0.997921
0.995601 1.00485 0.99814
0.994892 1.0043 0.999156
1.00052 1.00406 0.989941
1.00078 1.00459 0.989566
0.999347 1.00505 0.990817
0.998266 1.00514 0.992326
0.996841 1.00422 0.995658
1.00064 1.00463 0.989448
0.998011 1.00456 0.993575
0.999756 1.00487 0.99066
0.99554 1.00507 0.996721
0.995204 1.00517 0.997934
0.997552 1.0048 0.994251
1.00021 1.00473 0.990798
1.00063 1.00415 0.990098
0.999036 1.0034 0.992943
0.999245 1.00411 0.99208
0.9999 1.003 0.992157
0.997488 1.00331 0.995409
0.997983 1.00456 0.992469
0.99685 1.00496 0.994516
0.997557 1.00226 0.99664
0.999805 1.00243 0.993124
1.00421 0.99975 0.990253
0.998088 1.00472 0.992195
0.998209 1.00465 0.99305
0.998853 1.00516 0.990258
0.998949 1.0051 0.991581
0.999973 1.00505 0.990049
0.999342 1.00506 0.991057
0.999814 1.00475 0.990498
0.999811 1.00327 0.991744
1.00023 1.00443 0.990233
0.999929 1.00286 0.992128
0.999992 0.99956 0.99602
0.999897 1.00272 0.992324
0.99985 0.999519 0.995906
1.00001 0.997388 0.99774
0.999728 0.999501 0.995804
0.999955 0.997419 0.999121
0.999926 0.997491 0.999118
1.00045 1.00274 0.991847
0.999919 1.00104 0.994024
1.00031 1.0022 0.992256
1.00003 0.998337 0.996483
0.999933 1.00072 0.994267
0.999991 1.00077 0.994151
1.00006 0.998373 0.996425
1 0.996901 0.999216
1.00008 0.998503 0.996796
0.999999 0.997015 0.998613
0.999969 0.997309 0.997925
0.999258 0.995541 0.839237
0.994782 0.994866 0.781763
0.995964 0.994782 0.962132
1.00351 0.994695 0.978985
1.00552 0.99491 0.991314
1.00021 0.99481 0.958698
1.00334 0.994731 0.986083
0.999832 0.994867 0.93201
0.995821 0.994737 0.851553
0.994812 0.995101 0.800072
0.998 0.994792 0.969878
0.996272 0.99474 0.937736
0.994738 0.994705 0.871123
0.994811 0.995586 0.793009
0.999627 1.00397 0.992093
0.999745 1.00276 0.992447
1.00022 1.00208 0.992548
0.999863 1.0026 0.992633
0.997974 1.00411 0.994046
1.00036 1.00415 0.990226
0.999573 1.0039 0.991751
1.00078 1.0042 0.989344
1.00017 1.00401 0.990669
0.999618 1.00349 0.991883
1.00418 0.994859 0.990823
1.00487 0.994828 0.990679
1.00335 0.998489 0.990004
1.00233 0.996853 0.992528
0.999879 1.002 0.994542
0.999944 1.00221 0.991605
1.00001 1.00404 0.991386
0.997463 1.00461 0.994033
1.00218 0.995656 0.989585
0.998729 1.00498 0.992151
0.997531 1.00466 0.993721
1.00282 0.998852 0.990812
1.00305 0.999432 0.990474
1.00073 0.997669 0.995575
0.997945 1.00302 0.995952
0.999526 0.995485 0.988252
1.00061 1.00037 0.994346
0.996917 1.00253 0.99713
0.998488 1.00414 0.992448
0.996874 1.00518 0.993864
0.996522 1.00455 0.996229
0.994736 0.994797 0.802363
0.99983 0.99489 0.861787
1.00005 0.995608 0.921813
0.998534 1.00427 0.993918
1.0017 1.00134 0.991051
1.00077 0.997197 0.993165
1.00107 0.99994 0.994256
0.999827 0.995603 0.867923
0.996271 0.994739 0.922631
0.994931 0.994759 0.95211
0.995133 0.99838 0.992127
0.994788 0.994737 0.853902
0.994681 0.994852 0.796737
0.994828 0.995488 0.795534
0.996786 1.00475 0.996128
0.99476 0.994813 0.791968
0.994767 0.994759 0.779371
0.996857 0.999857 0.998037
0.998683 1.00161 0.9972
0.994842 0.99742 0.989705
0.994989 0.994799 0.95419
0.994872 0.994683 0.935509
0.994779 0.995153 0.853114
0.995176 0.994895 0.803374
0.995807 1.00415 1.00035
0.994746 0.994794 0.787694
0.994818 0.994831 0.781206
0.99479 1.00231 1.00017
0.994887 0.996594 0.964714
0.994807 0.994801 0.932592
0.994904 0.994909 0.850994
0.995801 0.994904 0.821257
0.996071 1.00467 0.997943
0.995228 1.00462 0.999292
0.994839 1.0044 0.999631
1.00045 1.00471 0.9894
1.00006 1.00473 0.990632
0.998055 1.00467 0.993195
0.995569 1.00478 0.99692
0.999613 1.00484 0.990796
0.997309 1.00485 0.994267
0.995032 1.00519 0.998041
0.994797 1.00529 0.998713
0.995368 1.0051 0.99772
0.997962 1.00506 0.993802
0.999357 1.00424 0.992052
0.99993 1.00279 0.992065
0.996938 1.00358 0.995724
0.997051 1.00487 0.994596
0.999035 1.00408 0.992406
0.99669 1.00321 0.996715
0.997471 1.004 0.994907
0.995239 1.00499 0.998132
1.00135 0.999324 0.994292
0.999343 1.00172 0.994056
1.00236 0.999949 0.991042
1.00495 0.999389 0.988112
1.00325 1.00153 0.989316
1.00321 0.999342 0.991051
0.998971 1.00442 0.992003
0.999193 1.00521 0.989582
0.998865 1.00449 0.993064
0.999696 1.00515 0.990329
1.00052 1.00509 0.988795
0.999462 1.00512 0.991658
0.999861 1.00508 0.990057
0.999872 1.00399 0.990948
0.999943 1.00472 0.990587
0.99994 1.00332 0.991753
1.00014 0.999741 0.995659
0.999983 1.00278 0.992145
0.999968 0.999632 0.995598
1.0001 0.997495 0.997551
0.999844 0.999507 0.995603
1.00001 0.99739 0.998429
0.999971 0.9974 0.999101
1.00039 1.00378 0.990476
1.00002 1.00137 0.993564
1.00029 1.00288 0.991627
1.00005 0.998426 0.996374
0.999923 1.00097 0.994043
1.00029 1.00214 0.992274
1.00002 0.996867 0.999223
1.00003 0.998353 0.996482
0.999926 1.00078 0.99426
1.00007 0.998357 0.996417
1 0.99691 0.99921
0.999987 0.996991 0.999183
0.994734 0.994794 0.780116
0.99918 0.994873 0.853125
0.994785 0.994772 0.780285
0.994806 0.994845 0.783221
0.999044 0.994847 0.958867
1.00275 0.994793 0.986771
0.999433 0.994794 0.926612
0.996352 0.994771 0.872777
0.994838 0.994871 0.795652
0.99819 0.994822 0.968651
0.996488 0.994708 0.922666
0.994747 0.99487 0.870889
0.994801 0.995126 0.785437
0.99492 0.994812 0.961001
0.994759 0.994698 0.921767
0.994806 0.99508 0.846811
0.994852 0.99489 0.798184
1.0004 1.00451 0.990787
0.998993 1.00405 0.992265
0.999838 1.0027 0.992497
0.997363 1.00349 0.995042
1.00094 1.00361 0.989651
1.00004 1.00442 0.990426
0.99894 1.00412 0.992017
1.00134 1.00378 0.989293
1.00094 1.00443 0.989281
1.00025 1.00385 0.990531
1.00209 0.994824 0.990145
1.00249 0.998686 0.990778
1.00307 0.999767 0.989967
1.00016 0.997533 0.996183
0.998801 1.00319 0.996258
0.997801 1.0046 0.994062
0.998655 1.00509 0.992014
0.999428 1.00369 0.992208
0.99935 0.996416 0.988941
0.99784 1.00514 0.993385
0.997696 1.00376 0.99631
1.00037 1.00015 0.994463
0.998007 1.00131 0.997086
0.996137 1.00076 0.987912
0.996712 1.00192 0.999151
0.994808 1.00506 0.997874
0.996699 1.00439 0.995708
0.995817 1.00523 0.99615
0.994764 0.994784 0.794297
0.994742 0.994761 0.797441
0.999825 0.996474 0.841503
0.996812 1.0048 0.995888
0.998652 1.00125 0.997134
0.997122 0.999104 0.998726
0.994735 0.994799 0.788629
0.994787 0.994676 0.922264
0.994925 0.994793 0.954297
0.994832 0.995827 0.992054
0.994773 0.995396 0.872631
0.994797 0.99477 0.779808
0.995554 0.994881 0.805431
0.996005 1.00367 1.00057
0.994761 0.994805 0.789367
0.994799 0.99483 0.782461
0.994806 1.00251 0.999048
0.994877 0.99572 0.966549
0.994947 0.994797 0.919487
0.995476 0.9949 0.815899
0.995216 0.997092 0.860184
0.994744 1.00503 1.00102
0.994779 0.994833 0.775832
0.994864 0.994847 0.79791
0.994854 0.994892 0.79769
0.994766 0.99969 0.988052
0.994835 0.995304 0.936786
0.997225 0.99489 0.873255
0.995697 1.00495 0.999434
0.995134 1.00469 0.999453
0.995302 1.00523 0.999013
0.999259 1.00483 0.990801
0.99724 1.00507 0.994285
0.994833 1.00526 0.998153
0.997374 1.00504 0.993875
0.995509 1.00496 0.997779
0.994793 1.00533 0.998588
0.994789 1.00513 0.999173
0.995445 1.00484 0.998121
0.996926 1.00476 0.994707
0.999885 1.00363 0.992336
0.996134 1.00391 0.996791
0.995227 1.00483 0.998031
0.997027 1.00425 0.994939
0.998798 1.00076 0.996638
0.998393 0.999563 0.998095
1.00217 1.00022 0.989858
0.998963 1.00129 0.994896
1.00255 0.999946 0.990739
1.00461 1.00118 0.98635
1.00503 1.00163 0.985096
1.00495 0.999558 0.987677
1.00412 0.999575 0.988023
1.0021 1.00366 0.988249
1.0021 1.00197 0.989589
1.00197 0.998948 0.991821
0.999814 1.00412 0.991809
0.999865 1.00519 0.989395
1.0009 1.00515 0.987659
1.00039 1.00515 0.990406
1.0008 1.00508 0.988774
1.00043 1.00443 0.989629
1.00003 1.00507 0.990059
1.0001 1.00377 0.990927
1.00016 1.00012 0.995269
1.00001 1.00322 0.99176
1.00012 0.999795 0.995211
1.00025 0.99757 0.997252
0.999958 0.999677 0.995263
1.0001 0.997459 0.998301
1.00005 0.997386 0.999033
1.00076 1.00394 0.989488
1.00012 1.00189 0.992477
1.00047 1.00368 0.990489
1.0001 0.998635 0.996103
1.00007 1.00131 0.993361
1.00026 1.00288 0.991408
1.00003 0.996909 0.999194
1.00005 0.998403 0.99639
0.999997 1.00081 0.994059
1.00001 0.996895 0.999222
1.00002 0.99836 0.996482
1.00001 0.996912 0.999205
0.994809 0.994813 0.785361
0.994745 0.994831 0.795295
0.999251 0.994838 0.851939
1.00098 1.00413 0.989383
0.994784 0.994803 0.785794
0.994782 0.994791 0.780188
0.99485 0.994848 0.797857
0.998251 0.994782 0.968347
0.996245 0.99474 0.937355
0.994674 0.995035 0.853679
0.994775 0.994863 0.797076
0.995575 0.994797 0.958488
0.994812 0.994698 0.934814
0.994772 0.995174 0.850887
0.994869 0.994894 0.799933
0.99492 0.994776 0.952874
0.994791 0.994814 0.930936
0.996264 0.995318 0.863656
0.995477 0.994905 0.821519
0.998902 1.00375 0.992786
0.999576 1.00443 0.991041
0.99914 1.00354 0.992445
1.00134 1.00234 0.990391
1.00102 1.00387 0.989633
0.999932 1.00471 0.990622
1.00146 1.00375 0.989249
1.00105 1.00443 0.989219
0.998496 0.997318 0.98945
0.999726 0.999923 0.994494
0.999128 1.00392 0.991945
0.999192 1.00014 0.997036
0.998401 1.00311 0.996383
0.998632 1.00513 0.992862
0.997217 1.00429 0.994792
0.995735 1.00037 0.988154
0.996814 1.00504 0.995945
0.996008 1.00346 0.997987
0.995944 1.00166 0.99924
0.995995 1.00526 0.996025
0.994871 1.00285 0.985198
0.995123 1.00356 0.998782
0.995691 1.00455 0.997958
0.996301 1.00557 0.996361
0.994748 0.994812 0.779117
0.994758 0.994788 0.79079
0.994744 0.994726 0.792292
0.995841 1.0036 1.00078
0.994822 1.00188 0.997872
0.994777 0.994818 0.790854
0.994758 0.994846 0.934178
0.994871 0.995633 0.963349
0.995454 0.995508 0.85876
0.994786 0.994831 0.783462
0.994892 0.994902 0.810427
0.994795 1.00494 1.00099
0.994779 0.994832 0.77623
0.994874 0.994858 0.796591
0.994806 1.00023 0.991796
0.99487 0.994918 0.799561
0.994836 0.996818 0.929534
0.996612 0.997385 0.874819
0.995186 1.00407 0.997131
0.994838 0.994845 0.789126
0.994796 0.994814 0.78781
0.994804 0.995573 0.792233
0.996406 0.996358 0.863489
0.994893 1.00121 0.970671
0.994918 0.995897 0.922313
0.995431 1.00498 0.999301
0.995125 1.00523 0.999077
0.994793 1.00528 0.998058
0.996842 1.00509 0.993942
0.995038 1.00461 0.997837
0.994802 1.00528 0.998508
0.995167 1.00446 0.998068
0.994782 1.0051 0.999084
0.996987 1.00253 0.999489
0.995092 1.00475 0.997919
0.996275 1.00472 0.995012
0.99799 1.00128 0.99737
0.99856 1.00032 0.994526
0.99555 0.999692 1.00154
1.00184 1.00005 0.991057
1.00432 1.00419 0.982908
1.00444 1.00301 0.984288
1.00285 0.999896 0.990351
1.00444 1.00139 0.985885
1.00508 1.00207 0.984272
1.0052 1.00168 0.985086
1.00461 1.00171 0.985197
1.00428 1.00044 0.987748
1.00422 1.00017 0.987553
1.00364 0.999716 0.98796
1.00101 1.00514 0.987577
1.00149 1.00398 0.988341
1.00085 1.00249 0.98986
1.00061 1.00517 0.98921
1.00135 1.00515 0.987681
1.00074 1.00497 0.988329
1.00098 1.00508 0.988752
1.00061 1.00433 0.989613
1.0002 1.00067 0.993825
1.00041 1.00376 0.99092
1.00023 1.00012 0.994403
1.00011 0.99768 0.998779
1.00011 0.999896 0.994845
1.00019 0.99754 0.998093
1.00013 0.997455 0.99893
1.00075 1.00429 0.989252
1.00032 1.00271 0.991429
1.0007 1.00406 0.989679
1.00017 0.998968 0.995676
1.00023 1.00192 0.992351
1.00054 1.00365 0.990495
1.00006 0.99702 0.999131
1.00012 0.998572 0.996125
1.00007 1.00129 0.993159
1.00003 0.996899 0.999205
1.00005 0.998385 0.996407
1.00001 0.996894 0.999222
0.99477 0.99482 0.78532
0.994802 0.994806 0.785751
0.994739 0.994843 0.794259
1.00105 1.00393 0.989387
1.00028 1.00499 0.988813
1.00188 1.00195 0.99078
0.994874 0.994861 0.796712
0.994794 0.994803 0.786966
0.994797 0.994776 0.780264
0.996316 0.994786 0.958788
0.994855 0.994672 0.922218
0.994772 0.995381 0.872279
0.994873 0.994871 0.794137
0.99491 0.994826 0.954183
0.9948 0.994797 0.926603
0.996057 0.996407 0.862252
0.995353 0.994905 0.816035
0.994897 0.994879 0.953124
0.99483 0.994868 0.932012
0.997131 0.994897 0.872864
0.994876 0.994901 0.795717
0.998222 1.00307 0.994184
0.999278 1.00354 0.992634
0.999474 1.00461 0.9913
1.00132 1.00244 0.990315
1.00067 1.00435 0.989619
1.00154 1.00376 0.989202
0.995519 1.00002 0.988741
0.995674 1.00182 0.999414
0.998439 1.00338 0.993913
0.997721 1.00247 0.99796
0.997878 1.00459 0.995757
0.99603 1.00474 0.996061
0.995864 1.00543 0.996136
0.994812 1.00302 0.985195
0.99532 1.00523 0.998182
0.994654 1.00411 0.997798
0.995488 1.00514 0.997815
0.994731 1.00077 0.983672
0.994943 1.00518 0.99461
0.994747 1.00263 0.999212
0.994867 0.994853 0.779636
0.994759 0.994821 0.778262
0.994753 0.994788 0.787304
0.994845 1.00471 1.00093
0.994828 1.00052 0.987295
0.994777 0.99483 0.776641
0.994808 0.996399 0.929521
0.99607 0.994887 0.860325
0.994887 0.994856 0.795244
0.994871 0.994872 0.793916
0.995044 1.00388 0.997638
0.994821 0.994846 0.78824
0.994813 0.994805 0.789135
0.994907 1.00151 0.967641
0.994787 0.995283 0.784871
0.995991 0.997312 0.861467
0.994864 0.996724 0.936255
0.994924 1.00513 0.988291
0.994773 0.994823 0.787169
0.994781 0.994791 0.781235
0.994787 0.99541 0.804243
0.994799 0.99503 0.844983
0.994817 0.995356 0.933334
0.99483 1.00136 0.961357
0.995045 1.00523 0.999072
0.994846 1.00527 0.998067
0.994908 1.00518 0.997928
0.995541 1.00413 0.998016
0.994783 1.00531 0.998925
0.995944 1.0033 0.999564
0.997885 1.00156 0.998958
0.997023 1.00181 0.998075
1.00104 0.999945 0.993564
1.0018 1.00519 0.986713
1.00135 0.999701 0.992725
1.00436 1.00406 0.983633
1.00422 1.00349 0.983261
1.00509 1.00061 0.985321
1.00508 1.00168 0.984651
1.00449 1.00282 0.984306
1.00444 1.00165 0.985429
1.0049 1.0027 0.984203
1.00513 1.00196 0.984356
1.00516 1.0011 0.9857
1.0048 1.0019 0.985178
1.00393 1.00181 0.985305
1.00229 1.00256 0.988339
1.00371 1.00114 0.987606
1.00352 1.00084 0.987404
1.00107 1.00521 0.987518
1.00149 1.00511 0.987562
1.00067 1.00417 0.988435
1.00175 1.00515 0.98771
1.00115 1.00486 0.988347
1.0002 1.00156 0.992964
1.00101 1.00412 0.989587
1.00025 1.00068 0.993785
1.0002 0.997971 0.998667
1.00032 1.00003 0.994385
1.00024 0.997716 0.997936
1.0002 0.997535 0.998821
1.00151 1.00393 0.988843
1.00058 1.00318 0.990844
1.00096 1.00409 0.989216
1.00022 0.999423 0.995125
1.00033 1.0027 0.991516
1.0006 1.00414 0.989878
1.00008 0.997163 0.999033
1.00018 0.998877 0.995705
1.00032 1.00192 0.992227
1.00005 0.996971 0.999151
1.00014 0.998517 0.996147
1.00003 0.996918 0.999216
0.994831 0.994846 0.786954
0.994773 0.994835 0.785757
0.994806 0.994801 0.786024
0.999966 1.0053 0.988947
1.00231 1.00168 0.991958
1.00085 1.00408 0.989401
1.00053 1.00479 0.98871
1.0008 1.00205 0.991354
1.00088 1.00261 0.990927
0.999098 1.00119 0.994572
0.994831 0.994835 0.783328
0.994873 0.994862 0.795344
0.994796 0.994829 0.788103
0.99489 0.994915 0.810437
0.995294 0.994826 0.952827
0.994832 0.995033 0.921067
0.99593 0.994926 0.874678
0.994948 0.995111 0.952158
0.994838 0.997918 0.918174
0.996431 0.997062 0.873984
0.995087 0.994917 0.80499
0.994814 0.995839 0.956343
0.994894 0.997848 0.919677
0.994905 0.994992 0.851516
0.994782 0.995153 0.783746
0.995892 1.00506 0.996474
0.998077 1.00342 0.99471
0.99896 1.0041 0.992479
1.00124 1.00292 0.990242
0.994812 1.00254 0.98505
0.994568 1.0043 0.996856
0.996155 1.005 0.996103
0.996681 1.00534 0.995906
0.994789 1.00532 0.998601
0.995148 1.00527 0.997691
0.995936 1.00354 0.999367
0.995064 1.00163 0.980706
0.995244 1.00516 0.99471
0.996058 1.00266 0.999636
0.995719 1.00133 0.976404
0.994672 1.00292 0.999761
0.994751 0.994832 0.781731
0.994847 0.994852 0.784681
0.994769 0.994838 0.777391
0.994792 1.00393 0.99814
0.994876 1.00122 0.971569
0.994804 0.994847 0.787369
0.994903 0.996741 0.923561
0.995829 0.994953 0.874438
0.994804 0.994833 0.79023
0.99476 0.994987 0.796138
0.994907 1.00511 0.989346
0.99478 0.994834 0.787675
0.994769 0.994802 0.781196
0.994814 1.00106 0.961439
0.994808 0.995064 0.799874
0.994753 0.995239 0.849087
0.994852 0.996033 0.919985
0.994941 1.00401 0.983075
0.994827 0.994818 0.785833
0.994752 0.994868 0.782197
0.99473 0.994704 0.870028
0.994817 0.994879 0.93165
0.994796 0.99973 0.956737
0.994869 1.00526 0.998608
0.994831 1.00519 0.997963
0.995316 1.00428 0.997842
0.995198 1.00373 0.999635
0.996402 1.0031 0.999295
1.0003 1.00085 0.994953
1.00345 0.999662 0.99262
1.00269 1.0052 0.985829
1.00432 1.0022 0.984942
1.00416 1.00389 0.984355
1.00448 1.00344 0.983229
1.00474 1.00149 0.985061
1.00525 0.997992 0.987413
1.00515 1.00011 0.986055
1.00504 1.0008 0.985349
1.00507 1.00178 0.984812
1.00506 1.00152 0.984655
1.00455 1.00268 0.984321
1.00492 1.00356 0.983311
1.00489 1.00264 0.984249
1.00514 1.00191 0.984449
1.0039 1.00169 0.987655
1.00422 1.00172 0.986219
1.00461 1.00194 0.985271
1.00235 1.00358 0.987348
1.0025 1.00242 0.988317
1.00312 1.00206 0.987465
1.00038 1.00203 0.992162
1.00139 1.00521 0.987578
1.0019 1.00509 0.987544
1.00133 1.00478 0.988364
1.00023 1.00155 0.992945
1.00017 0.998414 0.998471
1.00024 1.00076 0.993748
1.0002 0.997991 0.998611
1.00023 0.997623 0.998723
1.00127 1.00489 0.989486
1.00169 1.00514 0.988305
1.00089 1.0037 0.98985
1.00122 1.00431 0.988837
1.00022 0.999956 0.994592
1.00052 1.0033 0.990842
1.00097 1.00431 0.989178
1.00008 0.997508 0.9989
1.00022 0.999397 0.995149
1.0004 1.00272 0.991599
1.00007 0.997162 0.999063
1.00019 0.998845 0.995737
1.00006 0.996948 0.999171
0.994787 0.994848 0.778016
0.994823 0.994838 0.78611
0.994776 0.994828 0.786185
1.00061 1.00529 0.988675
1.00023 1.00161 0.992564
1.00208 1.00011 0.989218
0.998532 1.00367 0.991484
1.00179 0.999228 0.993281
1.00087 1.00496 0.988595
1.00003 1.0026 0.991941
1.00059 1.00357 0.990913
0.999248 1.00087 0.995528
0.999095 1.00318 0.994853
0.994765 0.994755 0.781978
0.99481 0.99484 0.784731
0.994871 0.994849 0.794002
0.995363 0.994881 0.806944
0.996001 0.994887 0.860117
0.994902 0.994882 0.951044
0.994815 0.995562 0.93101
0.994867 0.996433 0.951856
0.994902 0.997469 0.932197
0.995113 0.997138 0.861001
0.994807 0.995162 0.781504
0.994961 0.998145 0.953677
0.994779 0.996085 0.931942
0.994804 0.994966 0.874864
0.99472 0.995684 0.807534
0.998423 1.00018 0.997139
0.995593 1.00509 0.996772
0.99823 1.00281 0.995249
0.994671 1.00291 0.977291
0.994857 1.00515 0.994215
0.995045 1.0053 0.997506
0.994734 1.00443 0.99956
0.995394 1.0034 0.999456
0.994719 1.0015 1.00027
0.994781 1.00189 0.977064
0.995901 1.00156 1.0018
0.994913 1.00015 0.984433
0.994788 0.994808 0.795168
0.994777 0.994843 0.780735
0.994831 0.994843 0.789926
0.994943 1.00509 0.989688
0.99484 0.999948 0.959308
0.994798 0.994842 0.788186
0.994854 0.995369 0.932275
0.99476 0.995469 0.86972
0.99478 0.994778 0.78151
0.99484 0.994876 0.795605
0.995217 1.00462 0.983884
0.994815 0.994813 0.785969
0.994782 0.994857 0.783485
0.994836 0.998513 0.957862
0.99474 0.994927 0.870089
0.994845 0.994836 0.924023
0.994821 1.00256 0.981561
0.994729 0.994802 0.780488
0.996494 0.994763 0.873081
0.994794 0.994712 0.921222
0.99488 0.994854 0.957549
0.995357 1.0052 0.998047
0.995091 1.00457 0.997719
0.997616 1.00039 0.997681
0.994965 1.00449 0.999636
0.999225 1.00144 0.995675
1.00431 0.9956 0.992358
1.00371 1.00522 0.984918
1.00428 1.00203 0.984816
1.00489 0.998375 0.987662
1.00482 1.00347 0.983195
1.00471 1.00135 0.985117
1.00491 0.99797 0.988094
1.0053 0.99551 0.989701
1.00529 0.99751 0.987526
1.00526 0.997894 0.987444
1.00524 1.00007 0.98614
1.00515 1.00015 0.985988
1.00491 1.00089 0.985378
1.00527 1.00279 0.98353
1.00504 1.00172 0.984749
1.00507 1.00129 0.984659
1.00494 1.00355 0.984241
1.00444 1.00374 0.98376
1.005 1.00264 0.984294
1.00232 1.00353 0.987591
1.00331 1.00173 0.987571
1.00349 1.00236 0.986733
1.00079 1.00275 0.992098
1.00213 1.00388 0.987443
1.00271 1.00238 0.988297
1.00025 0.9992 0.995689
1.00049 1.00215 0.992516
1.0016 1.00519 0.987641
1.00032 1.00151 0.992917
1.00021 0.998568 0.998391
1.00022 0.99814 0.998551
1.00177 1.00258 0.988616
1.00211 1.00515 0.987617
0.999764 1.00513 0.989341
1.00097 1.00453 0.988977
1.00116 1.0048 0.98827
1.0001 1.00056 0.99413
1.00074 1.00391 0.989839
1.00102 1.00463 0.988824
1.00007 0.997807 0.998792
1.00022 0.999887 0.994627
1.00043 1.00332 0.990841
1.00007 0.997419 0.998941
1.00023 0.999292 0.995172
1.00007 0.997081 0.999093
0.994769 0.99482 0.794434
0.994791 0.994845 0.778495
0.994805 0.994856 0.78517
1.00316 1.00328 0.985732
1.00048 1.00494 0.988417
0.999482 1.0023 0.99334
1.00003 1.00485 0.990856
1.00342 1.0003 0.989113
1.00076 0.998613 0.996325
1.00372 1.00096 0.988193
0.995873 1.00502 0.994869
0.999523 1.00388 0.990895
0.9991 0.999255 0.996479
0.997495 1.00324 0.994846
0.998208 1.00223 0.995506
0.994796 0.994904 0.797961
0.994784 0.994766 0.781391
0.994796 0.994845 0.785829
0.994834 0.996472 0.797484
0.995265 0.99561 0.859453
0.994927 0.997557 0.919907
0.995632 0.995087 0.951693
0.995339 0.998357 0.954287
0.994773 0.996143 0.802579
0.994818 0.996631 0.923459
0.99478 0.995389 0.854684
0.994884 0.996446 0.959986
0.994795 0.99483 0.933761
0.994728 0.995509 0.872179
0.999844 0.99515 1.00153
0.998788 1.00032 0.996991
0.995143 1.00547 0.997053
0.994796 1.00222 0.977179
0.996033 1.00009 1.0007
0.995953 1.0027 0.999364
0.996619 0.999847 1.00217
0.994901 0.999247 0.984538
0.995735 0.998655 0.992838
0.994725 0.994785 0.79741
0.994779 0.99481 0.79528
0.9948 0.99484 0.779524
0.994861 1.00459 0.984024
0.994849 0.999799 0.956924
0.994796 0.994815 0.786392
0.994832 0.994854 0.919039
0.994664 0.994965 0.852948
0.994836 0.994864 0.797745
0.994832 1.00486 0.981203
0.994742 0.994839 0.795432
0.995944 0.994744 0.851099
0.994937 0.995165 0.952738
0.994824 0.994703 0.934472
0.995202 1.00006 0.989329
0.999325 0.995538 0.838681
0.996246 0.994751 0.937877
0.994928 0.994763 0.951006
0.994774 1.00535 0.997594
0.997242 1.00168 0.997355
1.00061 0.998368 0.993796
0.99833 1.00191 0.996402
1.00376 0.996351 0.992087
1.00498 0.995281 0.991009
1.00412 1.00195 0.984694
1.00484 0.998371 0.98755
1.00503 0.996136 0.989651
1.00466 1.00111 0.98518
1.00487 0.997895 0.988036
1.00533 0.994908 0.990242
1.00528 0.994873 0.99095
1.00531 0.99549 0.989715
1.00532 0.995468 0.989746
1.00537 0.997409 0.987579
1.00528 0.997475 0.987712
1.00527 0.997792 0.987474
1.00536 1.00077 0.984995
1.00523 0.999943 0.986057
1.00514 1.00022 0.985918
1.00547 1.00351 0.98236
1.00526 1.00285 0.983522
1.00496 1.00166 0.984684
1.00307 1.00285 0.98682
1.00419 1.00386 0.9842
1.00382 1.00385 0.984218
1.0011 1.00331 0.989731
1.00275 1.0029 0.987528
1.00272 1.00183 0.987473
0.999911 1.00058 0.997799
1.00089 1.00277 0.990649
1.00235 1.0039 0.987535
1.00024 0.999052 0.998143
1.00059 1.00217 0.991904
1.00025 0.998615 0.998302
1.00494 1.00128 0.986496
1.0028 1.00181 0.988017
1.00218 1.00432 0.987535
1.0013 1.00495 0.988414
1.00151 1.00518 0.987631
0.999866 1.00521 0.989191
0.999973 1.00148 0.993547
1.00085 1.0046 0.988985
1.00113 1.00418 0.988226
1.00005 0.998154 0.998678
1.00009 1.00059 0.994144
1.00057 1.00421 0.989826
1.00005 0.997798 0.998821
1.0002 0.999902 0.994653
1.00006 0.997373 0.998982
0.994755 0.994799 0.784753
0.994783 0.994815 0.794737
0.994799 0.99484 0.779053
1.00343 1.00323 0.985662
1.00473 1.00461 0.984901
1.0018 1.00483 0.987015
0.999867 1.00532 0.99021
1.0049 0.999983 0.989036
0.997534 0.998072 0.999124
0.997771 1.00321 0.994798
1.00188 1.00154 0.989959
1.00091 1.00008 0.99316
0.998726 0.999096 0.997134
0.997931 1.00358 0.994804
0.999318 1.00239 0.995022
0.996417 0.994752 0.846368
0.994753 0.994869 0.792004
0.994807 0.994777 0.781751
0.994827 0.994903 0.797176
0.994778 0.995326 0.874255
0.994829 0.995342 0.919717
0.994787 0.997851 0.953569
0.994879 0.997221 0.957147
0.9948 0.995027 0.871614
0.994834 0.994812 0.920886
0.994918 0.997179 0.961328
0.995035 0.994649 0.923697
0.999003 0.995228 1.00523
0.999799 0.99501 1.00151
0.998471 1.0002 0.996987
0.994833 0.999135 0.984823
0.996288 0.999481 1.00253
0.995913 0.998766 0.992496
0.995272 0.996044 0.990583
0.999771 0.997492 0.852229
0.994733 0.994761 0.793927
0.994778 0.99482 0.79508
0.994845 1.00445 0.981738
0.994957 0.994852 0.951156
0.994738 0.994848 0.794184
0.994886 0.994679 0.922442
0.996391 0.994778 0.872367
0.995218 0.998336 0.985707
0.999239 0.994875 0.853132
0.996459 0.99471 0.922855
0.994922 0.994803 0.952145
0.996065 0.99771 0.985767
0.999147 0.994854 0.936854
0.994922 0.994806 0.959343
0.996656 1.00208 0.997048
0.99995 0.999011 0.993772
1.0032 0.997874 0.991685
1.00307 0.997139 0.991832
1.00488 0.995182 0.990923
1.00516 0.994801 0.990911
1.00481 0.998318 0.987441
1.00494 0.99631 0.989549
1.00533 0.994738 0.990354
1.00484 0.997859 0.987975
1.00533 0.994931 0.990192
1.00528 0.994801 0.990791
1.00532 0.994845 0.990842
1.00527 0.994861 0.990972
1.00529 0.994927 0.990962
1.00533 0.995842 0.989755
1.00531 0.995545 0.989875
1.00534 0.995418 0.989793
1.00543 0.998324 0.987013
1.00537 0.997456 0.987513
1.00529 0.997424 0.987898
1.00547 1.00235 0.983331
1.0054 1.00079 0.984997
1.00522 0.999844 0.985977
1.00456 1.00288 0.984578
1.00543 1.00334 0.982501
1.00522 1.00291 0.983514
1.00147 1.00371 0.988562
1.00298 1.00326 0.98672
1.00363 1.00362 0.98417
1.00033 1.00063 0.997393
1.00131 1.00305 0.989755
1.00282 1.00269 0.987455
1.00016 1.00034 0.99631
1.00103 1.00255 0.990779
1.0003 0.999416 0.997933
1.00531 1.00358 0.983188
1.00389 1.00232 0.986318
1.00302 1.00202 0.987459
1.00365 1.00228 0.987425
1.00214 1.00429 0.987583
1.00135 1.00516 0.988
1.00032 1.00179 0.992757
1.00098 1.00501 0.988393
1.00029 1.00521 0.987655
1.00006 0.998521 0.998478
0.999981 1.00122 0.993558
1.00087 1.00461 0.988993
1.00001 0.998112 0.998716
1.00007 1.00045 0.994184
1.00003 0.99771 0.998851
0.998567 0.994829 0.854471
0.994754 0.994799 0.790813
0.994788 0.99481 0.795195
1.00344 1.00377 0.985604
1.00268 1.00516 0.985365
1.00443 1.00434 0.984296
1.0049 1.00296 0.98429
1.00132 1.00159 0.991663
0.999126 1.00326 0.994764
1.00177 1.00117 0.991711
1.00109 1.00042 0.993339
1.00462 0.994768 0.9922
1.00209 0.996946 0.995572
1.00131 0.997923 0.99608
1.00038 0.998037 0.99678
0.999835 1.00137 0.994538
0.997416 0.994719 0.93439
0.996951 0.994762 0.850928
0.994707 0.994853 0.79817
0.994788 0.994986 0.856247
0.994791 0.994833 0.931946
0.994915 0.996717 0.959266
0.994924 0.996399 0.963156
0.994811 0.994692 0.936829
0.995798 0.994799 0.960689
0.997374 0.996125 1.00407
0.997734 0.995887 1.00531
1.00008 0.995036 1.00137
0.995824 0.998147 0.992305
0.996421 0.995883 0.991617
1.00001 0.996018 0.921025
0.999813 0.994899 0.860202
0.994739 0.994737 0.790508
0.995317 0.997818 0.981642
0.994918 0.994783 0.951554
0.999311 0.994838 0.852105
0.996241 0.994739 0.93742
0.996081 0.997286 0.986008
0.999754 0.994864 0.93202
0.995389 0.994804 0.956999
0.999649 0.994836 0.984775
0.997596 0.994828 0.968817
0.999509 0.999365 0.993739
1.00233 0.997104 0.991706
1.00503 0.99462 0.991557
1.00476 0.995202 0.99083
1.00511 0.994767 0.990853
1.00529 0.994644 0.990736
1.00481 0.996451 0.989446
1.00532 0.994738 0.990306
1.00533 0.99477 0.99052
1.00533 0.994952 0.990142
1.00527 0.99481 0.990785
1.00533 0.994841 0.99065
1.00531 0.994847 0.99083
1.00535 0.994857 0.990791
1.00526 0.99485 0.990992
1.00529 0.994913 0.990968
1.00527 0.995185 0.990709
1.00534 0.996847 0.988915
1.00533 0.995856 0.989759
1.00531 0.995605 0.990035
1.0054 1.0008 0.984772
1.00545 0.998451 0.986805
1.00535 0.997492 0.987445
1.00531 1.0032 0.982999
1.00549 1.00231 0.983418
1.00545 1.00081 0.984999
1.00235 1.00359 0.987267
1.00411 1.00319 0.984639
1.00528 1.0035 0.98264
1.00064 1.00135 0.996941
1.00159 1.00359 0.988521
1.00288 1.00349 0.986633
1.00051 1.00083 0.997238
1.0014 1.00289 0.989782
1.00045 1.00031 0.9975
1.0053 1.00379 0.983242
1.00534 1.00297 0.983287
1.00328 1.00405 0.985036
1.00296 1.00252 0.986122
1.00263 1.00294 0.987237
1.00182 1.00417 0.98715
1.00192 1.00352 0.987622
1.00117 1.00517 0.987913
1.00071 1.0025 0.991474
1.00009 0.999072 0.998179
1.00008 1.00203 0.992756
1.00057 1.00516 0.988376
1.00001 0.998528 0.998553
0.999982 1.00132 0.993533
0.999978 0.998096 0.998748
0.999969 0.994846 0.936895
0.99984 0.994887 0.851819
0.994739 0.994776 0.784568
1.00307 1.00578 0.983681
1.00413 1.00396 0.983684
1.0027 1.00125 0.990002
1.00444 1.00311 0.984386
1.00518 0.999584 0.986287
1.00394 0.99656 0.990856
1.00119 1.00017 0.99349
1.00485 0.995058 0.991437
1.0019 0.996772 0.995635
1.00419 0.997231 0.991087
1.00207 0.998201 0.993907
1.00158 0.998785 0.994659
1.00111 0.998132 0.996141
1.00132 0.997575 0.996438
0.99501 0.994788 0.959597
0.997025 0.994692 0.929356
0.996062 0.994789 0.869957
0.994793 0.994663 0.923032
0.994923 0.996324 0.963697
0.995762 0.995425 0.966553
0.998847 0.994829 0.990576
0.998884 0.995671 1.00273
0.997219 0.996555 1.0054
0.998212 0.99729 0.992756
0.998847 0.99476 0.960326
1.00055 0.994885 0.936864
0.999772 0.99747 0.839723
0.995904 0.99728 0.986463
0.995993 0.994794 0.956999
0.999138 0.99481 0.926757
0.999133 0.996265 0.985362
0.997577 0.994827 0.967685
1.00237 0.996924 0.987429
1.00333 0.994724 0.984791
1.00137 0.997114 0.991721
1.00445 0.994648 0.991631
1.00522 0.994792 0.990857
1.00505 0.994706 0.990795
1.00529 0.994663 0.990686
1.00539 0.994819 0.990468
1.00532 0.994741 0.990257
1.00533 0.99478 0.99052
1.00536 0.994842 0.990548
1.00526 0.99482 0.990778
1.00533 0.994841 0.990672
1.00535 0.99487 0.990708
1.0053 0.994849 0.990819
1.00535 0.994851 0.990785
1.0053 0.994936 0.990938
1.00529 0.994903 0.990973
1.00527 0.995142 0.990733
1.00528 0.996219 0.989789
1.00534 0.999267 0.986558
1.00535 0.997085 0.988574
1.00534 0.995874 0.989763
1.00536 1.00253 0.983351
1.00542 1.00092 0.984791
1.00547 0.998593 0.986596
1.00316 1.00282 0.986824
1.00486 1.00358 0.983021
1.00549 1.00233 0.983511
1.00129 1.00172 0.996369
1.0024 1.00354 0.987156
1.00361 1.00362 0.984707
1.00092 1.00141 0.996713
1.00181 1.00341 0.988485
1.00071 1.00079 0.997056
1.00536 1.00119 0.984733
1.00525 1.00333 0.983181
1.00457 1.00396 0.983228
1.00529 1.00244 0.983386
1.00411 1.00354 0.984679
1.00314 1.00312 0.985976
1.00258 1.00467 0.987025
1.00232 1.00419 0.987165
1.00117 1.00307 0.989863
1.00106 1.00511 0.987844
1.00044 1.00268 0.99148
1.00018 1.00014 0.997657
1.00005 0.998987 0.998298
0.999885 1.00204 0.992768
0.999968 0.998457 0.998619
0.995548 0.994926 0.963224
0.999457 0.994891 0.920822
0.999845 0.99603 0.86712
1.00527 0.997185 0.988167
1.00424 1.00086 0.988382
1.00416 1.00316 0.984479
1.00439 0.99666 0.990874
1.00519 0.999663 0.986354
1.00515 0.996078 0.989918
1.00516 0.995323 0.990676
1.00139 0.996919 0.995714
1.00464 0.995794 0.991115
1.00168 0.998158 0.994093
1.00362 0.998091 0.990406
1.00317 0.994815 0.994543
1.00122 0.998407 0.994914
1.00093 0.998412 0.996205
0.998388 0.994673 0.988996
0.995552 0.99477 0.958075
0.996696 0.994719 0.922868
0.995396 0.995316 0.968077
0.998785 0.994846 0.993046
0.999355 0.995328 1.00134
1.00363 0.995507 0.976835
0.999547 0.994849 0.958317
1.0002 0.995586 0.921129
0.998269 0.997089 0.985917
0.997276 0.994817 0.967273
1.00162 0.995838 0.988095
1.00269 0.99474 0.985272
1.00342 0.996996 0.990103
1.00544 0.994708 0.990679
1.00391 0.994665 0.991713
1.00521 0.994779 0.990858
1.00539 0.994876 0.990474
1.00529 0.994678 0.990637
1.00539 0.994814 0.990476
1.0054 0.994848 0.990525
1.00533 0.99479 0.990521
1.00535 0.994842 0.990554
1.00533 0.994891 0.990758
1.00533 0.994842 0.990694
1.00535 0.994872 0.990704
1.00531 0.994883 0.990926
1.00534 0.994846 0.990779
1.00529 0.994905 0.990922
1.00528 0.995213 0.990838
1.00527 0.995098 0.990756
1.00528 0.995997 0.989963
1.00532 0.998582 0.987497
1.00533 1.00154 0.984438
1.00533 0.999546 0.986285
1.00536 0.997307 0.988233
1.00346 1.0015 0.987366
1.00532 1.00258 0.983371
1.00543 1.00101 0.98481
1.00196 1.00152 0.996004
1.00317 1.00255 0.98678
1.00462 1.00372 0.983032
1.0015 1.00179 0.996175
1.00246 1.00342 0.987033
1.00111 1.00166 0.996471
1.00536 0.998876 0.986537
1.00531 1.00125 0.984692
1.00545 1.00259 0.983291
1.00505 1.00316 0.983128
1.00494 1.00401 0.982885
1.00361 1.00366 0.984888
1.00514 1.00273 0.984324
1.00317 1.00344 0.986029
1.00159 1.00349 0.988605
1.00231 1.00425 0.987132
1.00109 1.0033 0.989895
1.00043 1.00125 0.997125
1.00025 1.00287 0.991489
1.00004 0.999906 0.99787
0.999971 0.998949 0.998397
0.999286 0.994808 0.985451
0.996518 0.994824 0.958331
1.00003 0.994832 0.936602
1.00539 0.995504 0.989649
1.00532 0.99527 0.989958
1.0053 0.996858 0.988402
1.00487 0.996766 0.990893
1.00519 0.999616 0.986428
1.00521 0.995907 0.989983
1.00539 0.994813 0.99002
1.00495 0.994977 0.991152
1.00171 0.99813 0.994305
1.00358 0.997936 0.991101
1.00519 0.994772 0.991111
1.00366 0.994672 0.993278
1.0026 0.994847 0.994386
1.00137 0.997948 0.995171
0.998964 0.994629 0.988896
0.996345 0.994788 0.957104
0.999069 0.994839 0.995657
1.00478 0.995885 0.989496
1.0036 0.995359 0.976951
0.998882 0.994867 0.958471
1.00151 0.994784 0.988655
1.00217 0.994756 0.985776
1.00365 0.995946 0.99046
1.00543 0.994705 0.990827
1.00546 0.994741 0.990918
1.00549 0.994849 0.991263
1.00522 0.994771 0.990854
1.00541 0.994858 0.990487
1.0054 0.994846 0.990801
1.00538 0.994807 0.990484
1.0054 0.994845 0.990551
1.00534 0.99487 0.990841
1.00535 0.994842 0.99056
1.00534 0.994892 0.990754
1.00529 0.994916 0.990984
1.00536 0.994873 0.9907
1.0053 0.994884 0.990924
1.00531 0.994923 0.991091
1.00529 0.994873 0.990906
1.00528 0.995213 0.990754
1.00533 0.997636 0.9884
1.00528 0.995781 0.990136
1.00531 0.998452 0.987637
1.00532 1.0009 0.985201
1.00359 1.00087 0.987949
1.00535 1.00151 0.984467
1.00533 0.999838 0.986012
1.00233 1.00087 0.996074
1.00345 1.00161 0.987415
1.00517 1.00281 0.983388
1.00206 1.00143 0.996007
1.00319 1.00255 0.986745
1.0017 1.00191 0.99604
1.00535 0.996505 0.988828
1.00535 0.998679 0.986825
1.00546 1.00107 0.984782
1.00528 1.00134 0.984644
1.00546 1.00266 0.983183
1.00434 1.00359 0.983797
1.00541 1.00394 0.982538
1.00388 1.00339 0.984885
1.0022 1.00373 0.98737
1.00359 1.00351 0.986104
1.00151 1.00361 0.98863
1.00078 1.00183 0.996687
1.00081 1.0035 0.989924
1.00024 1.00101 0.997311
1.00001 0.999636 0.998058
1.0037 0.995135 0.992271
0.998938 0.995124 0.982906
0.996368 0.994824 0.959232
1.00536 0.994931 0.990251
1.00534 0.995405 0.989803
1.00532 0.994859 0.99074
1.00533 0.995478 0.989908
1.00531 0.996631 0.988625
1.00543 0.994758 0.99042
1.00523 0.995806 0.990034
1.00535 0.994956 0.990015
1.00534 0.994708 0.99083
1.00358 0.99727 0.991788
1.0052 0.994754 0.990761
1.00301 0.994603 0.993519
1.00167 0.994861 0.994257
0.999428 0.994588 0.98853
1.00547 0.994793 0.991428
1.00509 0.995354 0.989476
1.00339 0.995177 0.977164
1.00373 0.994869 0.9908
1.00541 0.994683 0.990971
1.00543 0.994737 0.990881
1.00553 0.994844 0.991378
1.0054 0.99484 0.991337
1.00542 0.994843 0.990503
1.00539 0.994847 0.9908
1.00534 0.994879 0.991098
1.00541 0.994843 0.990577
1.00534 0.994874 0.990841
1.00528 0.994915 0.991129
1.00534 0.994892 0.990751
1.00529 0.994917 0.990983
1.00527 0.994898 0.991284
1.0053 0.994885 0.990922
1.00531 0.994927 0.991051
1.00533 0.996683 0.989471
1.00528 0.995216 0.990669
1.00534 0.997677 0.988395
1.00532 1.00034 0.985834
1.0053 0.998313 0.987778
1.00533 1.00087 0.985231
1.00351 1.00069 0.990134
1.00268 0.999899 0.992457
1.00358 1.00091 0.988893
1.00535 1.00148 0.984497
1.00224 1.00081 0.996136
1.00342 1.00146 0.987462
1.00206 1.0014 0.996035
1.00531 0.994883 0.991003
1.0053 0.995503 0.990247
1.00533 0.996523 0.989061
1.00529 0.999583 0.986348
1.00534 0.99842 0.987115
1.00541 1.00106 0.984716
1.00506 1.00282 0.98349
1.00547 1.00271 0.983077
1.00471 1.00319 0.983752
1.00299 1.00304 0.986558
1.00425 1.00317 0.984887
1.00212 1.00375 0.987399
1.00144 1.00217 0.996129
1.00155 1.00371 0.988668
1.00063 1.00169 0.996861
0.999986 1.00079 0.997527
1.00539 0.994827 0.991231
1.00351 0.995019 0.991682
0.998937 0.995292 0.980426
1.00532 0.994813 0.990751
1.00536 0.995015 0.990192
1.00529 0.995223 0.989973
1.00532 0.994871 0.990751
1.00533 0.995633 0.989858
1.00537 0.994838 0.990814
1.0054 0.994753 0.990376
1.00533 0.995081 0.990016
1.0053 0.994719 0.990868
1.0052 0.99476 0.990411
1.00271 0.99453 0.993728
1.00533 0.994862 0.991423
1.00544 0.994819 0.991425
1.00539 0.994918 0.989453
1.0054 0.99473 0.990837
1.00557 0.994844 0.991491
1.00541 0.994853 0.991313
1.00534 0.994901 0.991371
1.00539 0.994847 0.990799
1.00534 0.99488 0.991058
1.00527 0.994922 0.991295
1.00534 0.994878 0.99084
1.00528 0.994916 0.991127
1.00519 0.994931 0.991485
1.00529 0.994917 0.990982
1.00528 0.9949 0.991258
1.00533 0.995929 0.990408
1.00531 0.994931 0.991011
1.00534 0.996703 0.989459
1.0053 0.999886 0.98639
1.00535 0.997717 0.988391
1.00532 1.00032 0.985868
1.00352 1.00052 0.990278
1.00535 1.00083 0.985261
1.00375 1.00054 0.989974
1.0027 0.999627 0.992586
1.00233 1.00024 0.994443
1.00378 1.00092 0.989627
1.00223 1.0007 0.996186
1.0053 0.994866 0.991
1.00529 0.995249 0.990658
1.0053 0.994887 0.991033
1.00528 0.998201 0.987816
1.0053 0.995441 0.990358
1.00532 0.996605 0.989294
1.0053 0.999534 0.986324
1.00535 1.00157 0.984357
1.00538 1.00107 0.984652
1.00518 1.0027 0.983485
1.00338 1.0019 0.987124
1.00492 1.00307 0.983713
1.00294 1.00316 0.986632
1.00192 1.00179 0.995945
1.00209 1.0037 0.987434
1.0012 1.00193 0.996357
1.00041 1.00162 0.996998
1.00534 0.994886 0.991089
1.00535 0.994829 0.991295
1.00293 0.994956 0.991118
1.0053 0.994885 0.990948
1.00533 0.994812 0.990702
1.00536 0.995091 0.990134
1.00533 0.994891 0.990761
1.00539 0.994848 0.990784
1.00537 0.994749 0.990332
1.00527 0.994736 0.990903
1.00534 0.994899 0.991401
1.00533 0.994864 0.991378
1.00541 0.99484 0.99142
1.00532 0.99492 0.991443
1.00542 0.994866 0.991288
1.00533 0.9949 0.991364
1.00528 0.994932 0.991421
1.00534 0.994881 0.991018
1.00528 0.994922 0.9913
1.00514 0.99496 0.991651
1.00528 0.994916 0.991126
1.0052 0.994931 0.991476
1.00532 0.995456 0.991014
1.0053 0.994901 0.991232
1.0053 0.995953 0.990405
1.00529 0.999523 0.986815
1.00536 0.996726 0.989447
1.00529 0.999871 0.986427
1.00347 1.00047 0.990358
1.00533 1.00029 0.985902
1.00374 1.00041 0.990096
1.00265 0.999685 0.992578
1.00399 1.00039 0.98982
1.00217 0.999782 0.992979
1.00159 1.0006 0.996842
1.00527 0.994916 0.991077
1.00532 0.994888 0.991039
1.00529 0.994875 0.991011
1.00531 0.997607 0.988451
1.0053 0.995104 0.990775
1.0053 0.99488 0.991066
1.00536 1.00055 0.985457
1.00529 0.998133 0.987818
1.0053 0.995375 0.99047
1.0053 0.999487 0.9863
1.00535 1.00161 0.984325
1.00339 1.00112 0.98799
1.00537 1.00255 0.983467
1.00332 1.00199 0.98711
1.00202 1.00113 0.996142
1.00283 1.00323 0.986684
1.00185 1.00179 0.995973
1.00104 1.00185 0.996585
1.00532 0.99491 0.991234
1.00536 0.994881 0.991016
1.00529 0.994828 0.991362
1.00529 0.994887 0.990957
1.00534 0.99481 0.990653
1.0054 0.994856 0.990754
1.00531 0.994926 0.991439
1.00534 0.994902 0.991412
1.00533 0.994868 0.991334
1.00531 0.994921 0.991455
1.00525 0.994947 0.99158
1.00533 0.994899 0.991357
1.00527 0.994935 0.991453
1.00512 0.994959 0.991701
1.00528 0.994923 0.991305
1.00515 0.994959 0.99165
1.00531 0.995195 0.991319
1.00522 0.994931 0.991468
1.00528 0.995498 0.991012
1.00532 0.999189 0.98713
1.00527 0.995974 0.990401
1.0053 0.999508 0.98684
1.0034 1.00044 0.990459
1.00528 0.999855 0.986466
1.00368 1.00038 0.990164
1.00252 0.999853 0.992559
1.00395 1.00031 0.989921
1.00217 0.999742 0.992992
1.00166 0.999966 0.993359
1.00525 0.994925 0.991275
1.00524 0.994931 0.991285
1.00526 0.994913 0.991053
1.00528 0.996541 0.989674
1.00533 0.994924 0.991
1.00529 0.994885 0.99102
1.00529 0.999958 0.986258
1.0053 0.997198 0.988844
1.00531 0.99498 0.990891
1.00349 1.00053 0.988467
1.00534 1.0006 0.985419
1.00528 0.998069 0.987821
1.00535 1.00163 0.984292
1.00342 1.00109 0.98795
1.00207 1.00064 0.996291
1.00328 1.00218 0.987108
1.00207 1.00123 0.996061
1.00174 1.00173 0.996079
1.00528 0.994929 0.991438
1.00531 0.994908 0.991196
1.00539 0.994874 0.990943
1.00529 0.994892 0.990967
1.00524 0.994954 0.991599
1.00532 0.994923 0.991442
1.00533 0.994902 0.991423
1.00531 0.994922 0.991467
1.00526 0.994944 0.991582
1.00512 0.994956 0.991812
1.00527 0.994938 0.991486
1.00513 0.994961 0.991744
1.00529 0.995167 0.991408
1.00515 0.994958 0.991649
1.00529 0.995259 0.991314
1.00536 0.998879 0.98741
1.00524 0.995553 0.991011
1.00534 0.999168 0.987131
1.00342 1.00038 0.9888
1.0053 0.999495 0.986864
1.00361 1.0004 0.989376
1.00217 0.999949 0.996271
1.0039 1.00031 0.989969
1.00209 0.999862 0.992976
1.00172 0.999789 0.993391
1.00524 0.994945 0.991431
1.0052 0.994935 0.991444
1.00525 0.994927 0.991309
1.00526 0.995747 0.990718
1.00524 0.994931 0.99124
1.00526 0.994909 0.991028
1.00522 0.999029 0.987438
1.00528 0.996534 0.989672
1.00534 0.994931 0.990961
1.00354 1.00025 0.988682
1.00529 0.99968 0.986532
1.0053 0.996777 0.989235
1.00215 1.0002 0.996367
1.00352 1.00048 0.988434
1.00532 1.00065 0.985379
1.00345 1.00104 0.987913
1.00211 1.00067 0.996248
1.0021 1.00129 0.995966
1.00523 0.994951 0.991517
1.00529 0.994933 0.991423
1.00531 0.994907 0.991157
1.00513 0.994955 0.991864
1.00523 0.994951 0.991573
1.00532 0.994921 0.991446
1.00525 0.994941 0.991584
1.00512 0.994955 0.991809
1.0053 0.995843 0.990727
1.00513 0.994963 0.991787
1.00529 0.995516 0.991056
1.00537 0.998015 0.988377
1.00527 0.995309 0.991308
1.00538 0.998858 0.987404
1.00337 1.00017 0.989104
1.00537 0.999149 0.987135
1.00346 1.00035 0.988806
1.00206 1.00001 0.996296
1.00367 1.00038 0.988473
1.00198 0.999999 0.994707
1.00167 0.999855 0.993392
1.0052 0.994949 0.991573
1.00516 0.994952 0.991644
1.00523 0.994941 0.991444
1.00526 0.995698 0.990847
1.00519 0.994939 0.991477
1.00525 0.994928 0.991343
1.00528 0.99871 0.98768
1.00527 0.996005 0.990352
1.00524 0.99493 0.991194
1.00355 1.00022 0.988714
1.00522 0.998956 0.987478
1.00528 0.996546 0.98967
1.0022 0.999955 0.996359
1.00355 1.00025 0.988664
1.00528 0.999391 0.986808
1.0022 1.00023 0.996342
1.00355 1.00044 0.9884
1.00212 1.00073 0.996214
1.00515 0.994955 0.991742
1.00522 0.994951 0.991543
1.00529 0.994936 0.991408
1.00533 0.995869 0.990666
1.00513 0.994955 0.991827
1.00523 0.994948 0.991546
1.00513 0.994955 0.991805
1.0053 0.995824 0.990727
1.00536 0.997905 0.988506
1.00529 0.995861 0.990703
1.00538 0.998321 0.987995
1.00332 0.999968 0.989379
1.00539 0.998835 0.987398
1.00336 1.00018 0.989111
1.00193 1.00002 0.996358
1.00347 1.00032 0.988809
1.00201 1.00003 0.996313
1.00208 1 0.992786
1.00514 0.994954 0.991708
1.0052 0.994946 0.99151
1.00527 0.9956 0.990977
1.00516 0.994952 0.991646
1.00523 0.994938 0.991456
1.00532 0.999151 0.987107
1.00527 0.995618 0.990846
1.00518 0.994942 0.99151
1.00351 1.00027 0.988768
1.00528 0.999012 0.987331
1.00528 0.996271 0.989987
1.00217 0.999921 0.996312
1.00354 1.00025 0.988712
1.00521 0.998889 0.98752
1.00223 0.99998 0.996367
1.00355 1.00026 0.988642
1.00226 1.00024 0.996313
1.00533 0.995953 0.990538
1.00515 0.994955 0.991768
1.00521 0.994952 0.991568
1.00535 0.997955 0.988472
1.00532 0.995867 0.990664
1.00513 0.994954 0.99179
1.00529 0.995808 0.990727
1.00537 0.997872 0.988493
1.00326 0.999853 0.989607
1.00539 0.998633 0.987613
1.00332 0.99997 0.989384
1.00184 1.00001 0.996433
1.00338 1.00018 0.989121
1.00188 1.00005 0.996393
1.00196 1.00005 0.996339
1.0053 0.995518 0.991072
1.00515 0.994954 0.991697
1.00519 0.994943 0.991448
1.00533 0.998977 0.987295
1.00528 0.995534 0.990978
1.00516 0.994954 0.991647
1.00343 1.00024 0.988943
1.00531 0.999182 0.987111
1.00529 0.995537 0.990846
1.00206 0.999981 0.996293
1.00349 1.0003 0.98877
1.00527 0.999307 0.986981
1.0022 0.999927 0.99633
1.00352 1.00029 0.988706
1.00229 0.999975 0.996365
1.00534 0.998639 0.987662
1.00533 0.995669 0.990885
1.00515 0.994955 0.991794
1.00322 0.999782 0.989768
1.00536 0.997913 0.988477
1.00531 0.995861 0.990663
1.00538 0.997836 0.988481
1.00328 0.999825 0.989609
1.00177 0.999996 0.996478
1.00332 0.999972 0.989389
1.00181 1.00001 0.996445
1.00182 1.00007 0.996419
1.00534 0.998804 0.987501
1.0053 0.995483 0.991103
1.00515 0.994955 0.991686
1.00351 1.00012 0.990661
1.00532 0.998994 0.987304
1.00529 0.995469 0.990979
1.00194 1.00003 0.996326
1.00341 1.00028 0.988945
1.00529 0.999212 0.987117
1.00211 0.999971 0.9963
1.00347 1.00033 0.988771
1.00224 0.99992 0.996347
1.00335 0.999783 0.989626
1.00533 0.998346 0.988014
1.00532 0.995392 0.991233
1.00169 0.999977 0.996543
1.00322 0.999765 0.989759
1.00537 0.997874 0.988482
1.00329 0.999797 0.989608
1.00174 0.999988 0.9965
1.00178 1.00003 0.996462
1.00355 0.999948 0.990833
1.00532 0.998809 0.987509
1.00531 0.995447 0.991134
1.00128 1.00008 0.997044
1.00333 1.00014 0.989204
1.00531 0.99901 0.987316
1.00198 1.00003 0.99632
1.00339 1.00031 0.988944
1.00216 0.999957 0.996306
1.00167 0.999899 0.993484
1.00337 0.999806 0.990351
1.00533 0.998044 0.988361
1.00171 0.999976 0.99655
1.00324 0.999753 0.989757
1.00175 0.999979 0.996517
1.00109 1.00003 0.994003
1.00342 0.999914 0.990155
1.00531 0.998819 0.987515
1.00153 1.00005 0.995112
1.0033 1.00015 0.989228
1.00202 1.00001 0.996316
1.0017 0.99997 0.996544
1.00321 0.999805 0.989735
1.00168 0.99997 0.996549
1.00145 0.999961 0.99527
1.00328 0.99991 0.989537
1.00187 1.00004 0.996369
1.00171 0.999985 0.996536
1.00176 1 0.996459

TENSORS stress float
0.002658 -0.000189343 0.000309672
-0.000189343 0.00139378 -5.79145e-05
0.000309672 -5.79145e-05 0.00136522
0.00811475 0.000169295 0.000380358
0.000169295 0.00493451 4.90107e-05
0.000380358 4.90107e-05 0.00495114
0.00225449 -0.00011908 0.000122691
-0.00011908 0.00112644 -2.19728e-05
0.000122691 -2.19728e-05 0.00108282
0.00247194 -0.000105444 0.000290346
-0.000105444 0.00125562 -3.26882e-05
0.000290346 -3.26882e-05 0.00123928
0.00263324 -0.000164743 0.000300487
-0.000164743 0.00137 -5.03372e-05
0.000300487 -5.03372e-05 0.00134555
0.00274286 -0.000198661 0.000324005
-0.000198661 0.00144773 -6.10811e-05
0.000324005 -6.10811e-05 0.00141939
0.00215824 -0.000224785 6.19414e-05
-0.000224785 0.000905699 -1.61388e-05
6.19414e-05 -1.61388e-05 0.000754548
0.00826465 0.000162096 -1.00433e-05
0.000162096 0.00502177 -3.3726e-06
-1.00433e-05 -3.3726e-06 0.00504254
0.00727062 0.000279687 0.000186733
0.000279687 0.00440733 2.15941e-05
0.000186733 2.15941e-05 0.00437289
0.00758683 8.89732e-05 0.000127814
8.89732e-05 0.00456744 9.08576e-06
0.000127814 9.08576e-06 0.00454653
0.00203912 0.000263255 0.000344735
0.000263255 0.00101637 5.40795e-05
0.000344735 5.40795e-05 0.000994153
0.000259686 0.000296448 2.58431e-05
0.000296448 -0.000253638 2.33586e-05
2.58431e-05 2.33586e-05 -0.000444275
0.00200055 -2.92739e-05 0.000280438
-2.92739e-05 0.000947181 5.6375e-06
0.000280438 5.6375e-06 0.000953291
0.00175755 8.27559e-06 7.97446e-05
8.27559e-06 0.000816331 3.42096e-06
7.97446e-05 3.42096e-06 0.000763681
0.00192756 -0.000117017 -7.65052e-05
-0.000117017 0.000929616 1.4688e-05
-7.65052e-05 1.4688e-05 0.000861436
0.00212426 -0.00010307 9.31487e-05
-0.00010307 0.00105056 -6.36307e-06
9.31487e-05 -6.36307e-06 0.001011
0.00232276 -0.000111858 0.000135256
-0.000111858 0.00117291 -2.49832e-05
0.000135256 -2.49832e-05 0.00112661
0.00222223 -0.000120561 0.000109705
-0.000120561 0.0011059 -1.63214e-05
0.000109705 -1.63214e-05 0.00106436
0.00228271 -0.000261314 -4.79182e-05
-0.000261314 0.000987303 8.29923e-06
-4.79182e-05 8.29923e-06 0.000846208
0.00674369 -0.000173017 0.000373246
-0.000173017 0.00407092 -1.95012e-05
0.000373246 -1.95012e-05 0.00409828
0.00234188 -7.96957e-05 0.000283979
-7.96957e-05 0.00117245 -2.45389e-05
0.000283979 -2.45389e-05 0.00116011
0.00255933 -0.000134365 0.00029402
-0.000134365 0.0013161 -4.15001e-05
0.00029402 -4.15001e-05 0.0012961
0.00207396 -0.000174881 7.70971e-05
-0.000174881 0.000886315 -1.28768e-05
7.70971e-05 -1.28768e-05 0.000771156
0.00214529 -0.000216013 6.92589e-05
-0.000216013 0.000900325 -1.5724e-05
6.92589e-05 -1.5724e-05 0.000764082
0.00265189 -0.000181019 0.000330771
-0.000181019 0.00138329 -5.868e-05
0.000330771 -5.868e-05 0.00135862
0.00219023 -0.000233439 5.85811e-05
-0.000233439 0.000936468 -1.69989e-05
5.85811e-05 -1.69989e-05 0.000765791
0.00216288 -0.0004618 1.73264e-05
-0.0004618 0.000587185 -6.48635e-06
1.73264e-05 -6.48635e-06 0.000299407
0.00831209 0.000160449 -0.000408724
0.000160449 0.00504055 -4.18197e-05
-0.000408724 -4.18197e-05 0.00506892
0.00482963 0.000204584 -0.000167768
0.000204584 0.00280716 -2.1042e-05
-0.000167768 -2.1042e-05 0.00278167
0.00497062 0.000145088 -0.00017675
0.000145088 0.00289512 -2.18479e-05
-0.00017675 -2.18479e-05 0.00287284
0.00855216 0.000101514 -2.91087e-06
0.000101514 0.0052094 -2.00521e-06
-2.91087e-06 -2.00521e-06 0.00523111
0.000245249 0.000282169 -1.4095e-06
0.000282169 -0.000255534 -1.23263e-06
-1.4095e-06 -1.23263e-06 -0.00044398
0.00214725 8.19849e-05 0.000292929
8.19849e-05 0.00104066 3.0321e-05
0.000292929 3.0321e-05 0.00103089
0.00227114 0.000174619 0.000305819
0.000174619 0.00114989 4.76836e-05
0.000305819 4.76836e-05 0.00112621
0.00301786 0.000268764 0.000178111
0.000268764 0.00146399 2.81065e-05
0.000178111 2.81065e-05 0.00135637
0.00798272 -0.000209198 6.07526e-05
-0.000209198 0.00489484 3.95818e-06
6.07526e-05 3.95818e-06 0.0048498
0.00317474 0.000370201 0.000193879
0.000370201 0.00161687 3.71572e-05
0.000193879 3.71572e-05 0.00147883
0.000229175 0.000273502 2.59251e-05
0.000273502 -0.00025616 3.25844e-05
2.59251e-05 3.25844e-05 -0.00044853
0.00133674 0.000476088 2.96858e-05
0.000476088 0.000183976 5.86676e-06
2.96858e-05 5.86676e-06 -0.000165296
0.00632166 -9.86655e-05 0.000242179
-9.86655e-05 0.00388044 3.17053e-05
0.000242179 3.17053e-05 0.00387225
0.00667177 9.19866e-05 3.02203e-06
9.19866e-05 0.00400764 -2.20017e-06
3.02203e-06 -2.20017e-06 0.00404469
0.00439676 0.000106215 -0.00014099
0.000106215 0.00252685 -6.96505e-06
-0.00014099 -6.96505e-06 0.00251703
0.00653826 5.72969e-05 0.000361836
5.72969e-05 0.00392334 5.26838e-06
0.000361836 5.26838e-06 0.00396168
0.00165295 9.31614e-05 8.17688e-05
9.31614e-05 0.0007531 6.51993e-06
8.17688e-05 6.51993e-06 0.000704477
0.000428878 1.61583e-05 1.24954e-05
1.61583e-05 -0.000187126 2.81238e-06
1.24954e-05 2.81238e-06 -0.000284682
0.00689394 0.000253504 0.000209966
0.000253504 0.00418653 2.16541e-05
0.000209966 2.16541e-05 0.0041599
0.00297869 0.00010063 0.000163215
0.00010063 0.00144374 1.23371e-05
0.000163215 1.23371e-05 0.00137809
0.00176079 -0.000104021 -9.54138e-05
-0.000104021 0.000835973 1.333e-05
-9.54138e-05 1.333e-05 0.000772608
0.00180987 -0.000136079 -8.8815e-05
-0.000136079 0.000866658 1.69293e-05
-8.8815e-05 1.69293e-05 0.000796324
0.0020148 -8.12753e-05 -6.46265e-05
-8.12753e-05 0.000975753 1.23295e-05
-6.46265e-05 1.23295e-05 0.000909197
0.00236627 -0.000262864 -0.000164949
-0.000262864 0.00103022 3.2653e-05
-0.000164949 3.2653e-05 0.000904146
0.00426194 -4.3053e-05 -0.000143861
-4.3053e-05 0.00244818 -8.5954e-07
-0.000143861 -8.5954e-07 0.00243896
0.00205595 -8.20636e-05 9.62341e-05
-8.20636e-05 0.00100376 -4.95479e-06
9.62341e-05 -4.95479e-06 0.000969365
0.00245583 -8.70652e-05 0.000139722
-8.70652e-05 0.00125512 -2.36588e-05
0.000139722 -2.36588e-05 0.00120732
0.00217027 -0.000111447 9.96186e-05
-0.000111447 0.00107601 -1.05539e-05
9.96186e-05 -1.05539e-05 0.00103578
0.002158 -0.000152173 -3.91017e-05
-0.000152173 0.000926315 3.46968e-06
-3.91017e-05 3.46968e-06 0.000826403
0.00230787 -0.000280887 -5.534e-05
-0.000280887 0.00101192 9.70423e-06
-5.534e-05 9.70423e-06 0.000853127
0.00223418 -0.000230301 -4.25659e-05
-0.000230301 0.000955605 6.15184e-06
-4.25659e-05 6.15184e-06 0.00083032
0.00229868 -0.000472596 -1.03369e-05
-0.000472596 0.000674767 2.76935e-06
-1.03369e-05 2.76935e-06 0.000387342
0.00655068 -1.88018e-05 0.000359517
-1.88018e-05 0.00392821 -5.1271e-06
0.000359517 -5.1271e-06 0.00396779
0.00225682 -5.30672e-05 0.000277824
-5.30672e-05 0.00112025 -1.72838e-05
0.000277824 -1.72838e-05 0.00111315
0.00253109 -2.95946e-05 6.04415e-05
-2.95946e-05 0.0011963 -1.22915e-06
6.04415e-05 -1.22915e-06 0.00112003
0.00200253 -0.000138671 6.9498e-05
-0.000138671 0.000844262 -8.60584e-06
6.9498e-05 -8.60584e-06 0.000741621
0.0021 -0.000195045 7.43501e-05
-0.000195045 0.000885253 -1.47472e-05
7.43501e-05 -1.47472e-05 0.000760869
0.00201445 -0.000284345 2.13492e-06
-0.000284345 0.000417073 -1.76102e-06
2.13492e-06 -1.76102e-06 0.000227879
0.00207616 -0.000408647 1.25492e-05
-0.000408647 0.000479821 -3.77456e-06
1.25492e-05 -3.77456e-06 0.000235455
0.00266057 -0.000148347 0.000330597
-0.000148347 0.00138114 -5.30608e-05
0.000330597 -5.30608e-05 0.00135606
0.00218265 -0.000191722 5.05503e-05
-0.000191722 0.000969002 -1.53838e-05
5.05503e-05 -1.53838e-05 0.000791878
0.0021146 -0.000517162 2.10675e-05
-0.000517162 0.000591113 -6.52554e-06
2.10675e-05 -6.52554e-06 0.000257392
0.00210424 -0.000619413 1.80076e-06
-0.000619413 0.000293209 2.42441e-06
1.80076e-06 2.42441e-06 -3.38198e-05
0.00775294 0.0003346 -0.000418727
0.0003346 0.0047134 -5.36619e-05
-0.000418727 -5.36619e-05 0.00472349
0.00843833 6.27138e-05 -0.000368575
6.27138e-05 0.00513893 -3.47752e-05
-0.000368575 -3.47752e-05 0.00516073
0.00796101 0.000221427 -0.000397133
0.000221427 0.00481962 -4.5466e-05
-0.000397133 -4.5466e-05 0.00484344
0.000198343 0.00026533 -2.54756e-05
0.00026533 -0.000278359 -2.30214e-05
-2.54756e-05 -2.30214e-05 -0.000466227
0.00742088 0.000277876 -2.0815e-06
0.000277876 0.00449329 -2.77172e-06
-2.0815e-06 -2.77172e-06 0.00451105
0.00779848 0.000302937 -8.07355e-06
0.000302937 0.00473112 -3.93762e-06
-8.07355e-06 -3.93762e-06 0.00474383
0.000361146 0.000178909 2.18394e-07
0.000178909 -0.000266272 -3.08022e-07
2.18394e-07 -3.08022e-07 -0.000415165
0.00463086 -1.3295e-05 -0.000162112
-1.3295e-05 0.00272151 -1.14058e-05
-0.000162112 -1.14058e-05 0.00268934
0.000309364 0.000261668 1.79695e-06
0.000261668 -0.000245327 -3.98716e-07
1.79695e-06 -3.98716e-07 -0.000424769
0.00202907 0.000310534 8.17499e-05
0.000310534 0.000911841 5.3421e-06
8.17499e-05 5.3421e-06 0.000750715
0.00126252 0.000481178 9.70514e-07
0.000481178 0.00011899 3.40208e-07
9.70514e-07 3.40208e-07 -0.000234349
0.00712322 -5.86043e-05 0.000296706
-5.86043e-05 0.00437539 3.79065e-05
0.000296706 3.79065e-05 0.00437384
0.000472268 0.000178888 3.11618e-05
0.000178888 -5.39133e-05 1.69611e-05
3.11618e-05 1.69611e-05 -0.000164147
0.000452525 0.000140443 1.379e-05
0.000140443 -0.000214255 1.22183e-05
1.379e-05 1.22183e-05 -0.000349668
0.000453681 0.000212956 1.82444e-05
0.000212956 -0.000196562 2.0692e-05
1.82444e-05 2.0692e-05 -0.00035811
0.00154339 0.000391058 1.29213e-05
0.000391058 7.23953e-05 4.33447e-06
1.29213e-05 4.33447e-06 -0.000181609
0.0036856 0.000331299 0.000193564
0.000331299 0.00201095 3.43349e-05
0.000193564 3.43349e-05 0.00188836
0.00145727 0.000472985 2.57505e-05
0.000472985 0.000151513 6.69634e-06
2.57505e-05 6.69634e-06 -0.00017095
0.000719418 0.000417837 2.57886e-05
0.000417837 -0.000109808 5.16481e-06
2.57886e-05 5.16481e-06 -0.000461827
0.00187222 0.000712616 9.34938e-06
0.000712616 0.000321009 -5.90642e-06
9.34938e-06 -5.90642e-06 -0.000120636
0.00524704 -0.000147016 0.000169581
-0.000147016 0.00317888 1.91405e-05
0.000169581 1.91405e-05 0.00316516
0.00586128 -0.00015417 1.18947e-05
-0.00015417 0.00358145 3.30525e-06
1.18947e-05 3.30525e-06 0.00356493
0.0071561 8.52508e-05 -0.000382827
8.52508e-05 0.00430357 -2.17733e-05
-0.000382827 -2.17733e-05 0.00433879
0.00677411 8.4087e-05 -0.000373836
8.4087e-05 0.00406901 -1.33926e-05
-0.000373836 -1.33926e-05 0.00410746
0.00662809 8.38496e-05 -2.47203e-07
8.38496e-05 0.00398559 -4.5492e-06
-2.47203e-07 -4.5492e-06 0.00402155
0.00425793 4.77361e-05 -0.000151987
4.77361e-05 0.00243583 -8.90387e-06
-0.000151987 -8.90387e-06 0.00243214
0.00155459 4.54914e-05 7.21538e-05
4.54914e-05 0.000543373 2.32845e-06
7.21538e-05 2.32845e-06 0.000467407
0.00459672 0.000169946 -0.000145269
0.000169946 0.00266213 -9.44632e-06
-0.000145269 -9.44632e-06 0.00264311
0.00164809 0.000113775 7.33921e-05
0.000113775 0.000581928 4.17855e-06
7.33921e-05 4.17855e-06 0.000489732
0.00659158 0.000108049 0.000366046
0.000108049 0.00396944 7.36569e-06
0.000366046 7.36569e-06 0.00400131
0.000296481 1.03849e-05 1.60634e-05
1.03849e-05 -0.000264743 1.65472e-06
1.60634e-05 1.65472e-06 -0.000357927
0.00293243 5.60918e-05 0.000161655
5.60918e-05 0.00142543 8.5667e-06
0.000161655 8.5667e-06 0.00136875
0.00132076 9.33589e-05 3.4994e-06
9.33589e-05 -6.1075e-05 9.85646e-07
3.4994e-06 9.85646e-07 -0.000193931
0.00289837 0.000156244 0.000169238
0.000156244 0.00138329 1.60933e-05
0.000169238 1.60933e-05 0.00130558
0.00143504 0.000196236 2.00357e-06
0.000196236 -2.21663e-05 1.16046e-06
2.00357e-06 1.16046e-06 -0.000184007
0.00203204 3.54409e-05 -0.00028114
3.54409e-05 0.000962593 4.89378e-06
-0.00028114 4.89378e-06 0.000971905
0.00172938 -3.31781e-05 -8.15224e-05
-3.31781e-05 0.000804908 4.84155e-06
-8.15224e-05 4.84155e-06 0.000750211
0.00209746 -4.89269e-05 -5.8599e-05
-4.89269e-05 0.00102285 1.11115e-05
-5.8599e-05 1.11115e-05 0.000955846
0.00175471 -0.000121649 -9.64289e-05
-0.000121649 0.000833284 1.61123e-05
-9.64289e-05 1.61123e-05 0.000767019
0.00226773 -0.000129023 -0.000150398
-0.000129023 0.000983652 1.58111e-05
-0.000150398 1.58111e-05 0.000899015
0.00234716 -0.000216065 -0.00015812
-0.000216065 0.00101425 2.70625e-05
-0.00015812 2.70625e-05 0.000905471
0.00244122 -0.00030704 -0.000174668
-0.00030704 0.00109863 3.59164e-05
-0.000174668 3.59164e-05 0.000951199
0.00244115 -0.000485422 -3.48924e-05
-0.000485422 0.000766822 1.10135e-05
-3.48924e-05 1.10135e-05 0.000479163
0.00665146 -0.000125507 2.65257e-06
-0.000125507 0.004009 -2.16555e-06
2.65257e-06 -2.16555e-06 0.00403956
0.00194611 1.23505e-05 0.000102897
1.23505e-05 0.000921348 -5.91867e-06
0.000102897 -5.91867e-06 0.000899121
0.00121311 -2.18029e-05 -7.57571e-05
-2.18029e-05 0.000327073 3.09223e-06
-7.57571e-05 3.09223e-06 0.000251349
0.00208571 -0.000103054 -4.12324e-05
-0.000103054 0.000887653 3.94543e-06
-4.12324e-05 3.94543e-06 0.0007986
0.00576273 -0.000131798 0.000332153
-0.000131798 0.00340052 -3.28361e-05
0.000332153 -3.28361e-05 0.00339728
0.00285258 -0.00028314 -5.24141e-05
-0.00028314 0.00140312 6.24603e-06
-5.24141e-05 6.24603e-06 0.00124231
0.00219163 -0.000190419 -3.92727e-05
-0.000190419 0.000935607 4.52249e-06
-3.92727e-05 4.52249e-06 0.000824689
0.00212404 -0.000287351 -8.82365e-06
-0.000287351 0.000487307 2.05543e-06
-8.82365e-06 2.05543e-06 0.000304795
0.0023496 -0.000541344 -8.76641e-06
-0.000541344 0.000757133 2.67755e-06
-8.76641e-06 2.67755e-06 0.000420046
0.00218861 -0.000415419 -1.04102e-05
-0.000415419 0.00055676 3.01724e-06
-1.04102e-05 3.01724e-06 0.00030852
0.002134 -0.000621721 1.00472e-06
-0.000621721 0.000316464 -1.05353e-07
1.00472e-06 -1.05353e-07 -1.08533e-05
0.000308553 3.58302e-06 1.69549e-05
3.58302e-06 -0.000261408 -9.15287e-09
1.69549e-05 -9.15287e-09 -0.000351632
0.00190646 -2.72491e-05 6.11499e-05
-2.72491e-05 0.00077644 -3.17462e-06
6.11499e-05 -3.17462e-06 0.000692135
0.00205914 -0.000104537 1.65782e-06
-0.000104537 0.000450802 3.00497e-07
1.65782e-06 3.00497e-07 0.000334051
0.00206493 -0.000230346 3.28413e-07
-0.000230346 0.000459393 -4.8304e-07
3.28413e-07 -4.8304e-07 0.000303919
0.00218244 -0.000351943 7.55839e-06
-0.000351943 0.000523991 -1.88233e-06
7.55839e-06 -1.88233e-06 0.000316996
0.00214474 -0.000403298 2.99475e-07
-0.000403298 0.000141664 -9.49364e-08
2.99475e-07 -9.49364e-08 -3.16983e-05
0.00795593 -8.09717e-06 0.000315851
-8.09717e-06 0.00485372 -3.11136e-05
0.000315851 -3.11136e-05 0.00486373
0.00200787 -0.000560789 2.39059e-06
-0.000560789 0.000158685 1.65074e-06
2.39059e-06 1.65074e-06 -0.000118038
0.000405213 -0.000254396 2.24545e-05
-0.000254396 -0.000174541 -2.84606e-05
2.24545e-05 -2.84606e-05 -0.000352475
0.0011297 -0.000495005 1.97773e-05
-0.000495005 3.49242e-05 -5.85243e-06
1.97773e-05 -5.85243e-06 -0.00034511
0.0022784 -0.000689795 3.29626e-07
-0.000689795 0.000478688 3.37882e-06
3.29626e-07 3.37882e-06 9.24921e-05
0.00218394 -0.00068703 1.50703e-06
-0.00068703 0.000250629 3.35782e-06
1.50703e-06 3.35782e-06 -4.90119e-05
0.000302472 -0.000199123 2.16047e-05
-0.000199123 -0.000173987 -2.43227e-05
2.16047e-05 -2.43227e-05 -0.000328046
0.00146045 -0.000230097 -1.42925e-06
-0.000230097 0.000590504 -4.48553e-06
-1.42925e-06 -4.48553e-06 0.000296908
0.00756395 0.000305844 -0.000417844
0.000305844 0.00459113 -4.81304e-05
-0.000417844 -4.81304e-05 0.00460573
0.00792647 0.000300946 -0.000414612
0.000300946 0.00481192 -5.24845e-05
-0.000414612 -5.24845e-05 0.00482862
0.000330122 0.00017908 -1.73789e-05
0.00017908 -0.000287278 -1.50001e-05
-1.73789e-05 -1.50001e-05 -0.000437632
0.00766904 -2.69572e-05 -0.000303795
-2.69572e-05 0.00468508 -2.75893e-05
-0.000303795 -2.75893e-05 0.00469618
7.47797e-05 0.000238639 -2.29666e-05
0.000238639 -0.000351458 -2.60797e-05
-2.29666e-05 -2.60797e-05 -0.000524965
0.000282777 0.000251176 -2.13825e-05
0.000251176 -0.000261378 -2.19281e-05
-2.13825e-05 -2.19281e-05 -0.000441171
0.00121607 0.000483649 -3.2756e-05
0.000483649 7.64825e-05 -6.53597e-06
-3.2756e-05 -6.53597e-06 -0.00027954
0.00700716 -6.12641e-05 -1.13166e-05
-6.12641e-05 0.00429402 1.56198e-06
-1.13166e-05 1.56198e-06 0.0042952
0.000734914 0.000154088 2.1459e-06
0.000154088 0.000114287 3.41506e-07
2.1459e-06 3.41506e-07 7.20333e-06
0.00174408 0.000190058 7.7213e-05
0.000190058 0.000626731 7.582e-06
7.7213e-05 7.582e-06 0.000509606
0.0017791 0.000269711 8.18055e-05
0.000269711 0.000673459 9.59608e-06
8.18055e-05 9.59608e-06 0.000528956
0.00150537 0.000388336 -1.44548e-07
0.000388336 5.50065e-05 -4.04306e-07
-1.44548e-07 -4.04306e-07 -0.000199988
0.000139264 0.00023366 -5.79883e-07
0.00023366 -0.000284981 -2.08399e-07
-5.79883e-07 -2.08399e-07 -0.000445304
0.00140622 0.000468809 6.2947e-07
0.000468809 0.000118231 7.80865e-09
6.2947e-07 7.80865e-09 -0.000204658
0.000941939 0.000419274 3.83138e-06
0.000419274 2.76124e-05 -1.79551e-06
3.83138e-06 -1.79551e-06 -0.000318794
0.00191024 0.000723216 -2.09095e-06
0.000723216 0.000341417 9.23392e-08
-2.09095e-06 9.23392e-08 -9.91797e-05
0.000456749 0.000215001 2.25893e-05
0.000215001 -7.86727e-05 2.25606e-05
2.25893e-05 2.25606e-05 -0.000212928
0.000748615 9.65725e-05 1.59327e-05
9.65725e-05 0.000162318 1.76006e-05
1.59327e-05 1.76006e-05 6.1449e-05
0.000261641 0.000332633 2.5549e-06
0.000332633 -0.000125774 -4.77671e-07
2.5549e-06 -4.77671e-07 -0.000399075
0.00149699 0.000326661 8.61087e-06
0.000326661 1.36633e-05 2.98325e-06
8.61087e-06 2.98325e-06 -0.000204141
0.00152938 0.000440971 1.89293e-05
0.000440971 0.000116119 5.90619e-06
1.89293e-05 5.90619e-06 -0.000173821
0.00226933 0.000592639 4.32246e-06
0.000592639 0.000304401 -1.65752e-06
4.32246e-06 -1.65752e-06 2.74287e-05
0.000402465 0.000325711 1.05384e-05
0.000325711 -0.00018247 6.60427e-06
1.05384e-05 6.60427e-06 -0.000499184
0.00226004 0.000730637 3.39763e-06
0.000730637 0.000467266 -4.87391e-06
3.39763e-06 -4.87391e-06 7.87991e-05
0.00203702 0.000795426 5.71041e-06
0.000795426 0.000603397 -8.86432e-06
5.71041e-06 -8.86432e-06 7.57385e-05
0.00189113 0.000757808 -1.0527e-05
0.000757808 0.000223459 -9.79199e-06
-1.0527e-05 -9.79199e-06 -0.000195759
0.00451281 -0.000148923 0.00011122
-0.000148923 0.00268168 1.0676e-05
0.00011122 1.0676e-05 0.00266967
0.00501302 -0.000181932 1.66006e-05
-0.000181932 0.00302392 -1.49749e-07
1.66006e-05 -1.49749e-07 0.00300225
0.00557573 -0.000200584 -0.000141625
-0.000200584 0.00339508 -1.28513e-05
-0.000141625 -1.28513e-05 0.0033687
0.000513859 -0.000213759 2.53408e-05
-0.000213759 -2.53499e-05 -2.02531e-05
2.53408e-05 -2.02531e-05 -0.000157568
0.00697851 4.74275e-05 0.000264943
4.74275e-05 0.0042617 -2.85639e-05
0.000264943 -2.85639e-05 0.00426332
0.00738123 0.000247683 -0.000410207
0.000247683 0.00446604 -3.87945e-05
-0.000410207 -3.87945e-05 0.0044893
0.00688443 0.000114426 -0.000375762
0.000114426 0.00413699 -1.88209e-05
-0.000375762 -1.88209e-05 0.00417266
0.000292485 0.000115717 -1.59033e-05
0.000115717 -0.000298199 -7.36848e-06
-1.59033e-05 -7.36848e-06 -0.000412827
0.000258422 4.8215e-05 -1.59716e-05
4.8215e-05 -0.000294888 -3.71912e-06
-1.59716e-05 -3.71912e-06 -0.000393628
0.00657281 -1.62192e-06 -0.000359834
-1.62192e-06 0.00394137 -3.87849e-06
-0.000359834 -3.87849e-06 0.00398092
0.00652094 -4.63559e-06 1.65145e-07
-4.63559e-06 0.00390902 -1.34947e-06
1.65145e-07 -1.34947e-06 0.00394895
0.000267806 2.03673e-06 -2.1475e-07
2.03673e-06 -0.000286657 1.88508e-07
-2.1475e-07 1.88508e-07 -0.00037821
0.00157636 5.44723e-05 7.29851e-05
5.44723e-05 0.000545225 3.62849e-06
7.29851e-05 3.62849e-06 0.000464794
0.00131204 9.6666e-05 4.47475e-08
9.6666e-05 -6.35004e-05 -2.35545e-08
4.47475e-08 -2.35545e-08 -0.000197234
0.000353077 0.000114203 -8.7887e-07
0.000114203 -0.000268208 -4.1349e-07
-8.7887e-07 -4.1349e-07 -0.000393299
0.00138327 0.000196119 -2.15847e-07
0.000196119 -4.43427e-05 -1.48938e-07
-2.15847e-07 -1.48938e-07 -0.000207532
0.000256096 -3.39865e-05 1.68232e-05
-3.39865e-05 -0.000294238 -1.62969e-07
1.68232e-05 -1.62969e-07 -0.000382991
0.00126953 4.14569e-05 3.35463e-06
4.14569e-05 -7.75195e-05 7.05241e-07
3.35463e-06 7.05241e-07 -0.000203908
0.00135526 0.000146618 2.51164e-06
0.000146618 -5.61807e-05 1.15811e-06
2.51164e-06 1.15811e-06 -0.000201231
0.00219219 0.000150318 1.59295e-06
0.000150318 0.000107041 6.54744e-07
1.59295e-06 6.54744e-07 3.98785e-05
0.00146916 0.000259145 4.87404e-06
0.000259145 -5.48475e-06 2.07349e-06
4.87404e-06 2.07349e-06 -0.00019174
0.00217731 0.000326981 2.42437e-06
0.000326981 0.000109774 1.89216e-07
2.42437e-06 1.89216e-07 -5.99037e-06
0.00656002 -8.77141e-05 -0.000364206
-8.77141e-05 0.00394411 5.83922e-06
-0.000364206 5.83922e-06 0.00397842
0.00161802 -0.000169505 -8.13182e-05
-0.000169505 0.000756854 1.09571e-05
-8.13182e-05 1.09571e-05 0.000693902
-0.000219993 -1.16779e-05 -8.20209e-06
-1.16779e-05 -0.000598365 1.20539e-06
-8.20209e-06 1.20539e-06 -0.000703985
0.00219822 -9.30779e-05 -0.000146278
-9.30779e-05 0.000952293 1.11265e-05
-0.000146278 1.11265e-05 0.000875927
0.00867155 0.000156136 -8.22877e-05
0.000156136 0.0052771 3.93697e-06
-8.22877e-05 3.93697e-06 0.00523867
0.00312873 -0.000342132 -0.000177413
-0.000342132 0.00158952 3.67363e-05
-0.000177413 3.67363e-05 0.00143993
0.0023137 -0.000170522 -0.000153461
-0.000170522 0.000999307 2.10965e-05
-0.000153461 2.10965e-05 0.000904435
0.00221889 -0.000289347 -2.2297e-05
-0.000289347 0.000547999 4.52761e-06
-2.2297e-05 4.52761e-06 0.000372366
0.00227328 -0.000420493 -3.00821e-05
-0.000420493 0.000613815 9.62207e-06
-3.00821e-05 9.62207e-06 0.000362087
0.00248227 -0.000554733 -3.96708e-05
-0.000554733 0.000854526 1.20787e-05
-3.96708e-05 1.20787e-05 0.000516825
0.00214086 -0.000620769 -3.78781e-07
-0.000620769 0.000327393 -2.49632e-06
-3.78781e-07 -2.49632e-06 5.94523e-07
0.000260603 -1.1797e-07 4.23581e-08
-1.1797e-07 -0.000290215 3.84562e-07
4.23581e-08 3.84562e-07 -0.000381258
0.00203131 -0.000106157 -3.9641e-05
-0.000106157 0.000867489 8.29525e-07
-3.9641e-05 8.29525e-07 0.000785036
0.00173761 -0.000100722 -1.42772e-05
-0.000100722 0.000235263 9.46996e-07
-1.42772e-05 9.46996e-07 0.000115236
0.00201864 -0.000226488 -1.29225e-05
-0.000226488 0.000422009 2.11274e-06
-1.29225e-05 2.11274e-06 0.00026159
0.0083057 -1.85761e-05 5.51242e-06
-1.85761e-05 0.00507679 -4.25148e-07
5.51242e-06 -4.25148e-07 0.00508808
0.00169208 -0.000247953 9.89856e-06
-0.000247953 0.000680015 2.6506e-07
9.89856e-06 2.6506e-07 0.000497591
0.00180214 -0.000522472 7.53891e-07
-0.000522472 0.000480692 -1.72653e-06
7.53891e-07 -1.72653e-06 0.000109962
0.00219983 -0.000357198 -1.05777e-05
-0.000357198 0.000531856 2.99925e-06
-1.05777e-05 2.99925e-06 0.000322921
0.0022225 -0.000412672 2.35284e-06
-0.000412672 0.000188058 -1.01382e-06
2.35284e-06 -1.01382e-06 2.28921e-05
0.00221862 -0.000685477 1.7264e-06
-0.000685477 0.000438532 -6.32756e-08
1.7264e-06 -6.32756e-08 5.43685e-05
0.00215337 -0.000565511 2.33181e-07
-0.000565511 0.000263475 -1.54458e-07
2.33181e-07 -1.54458e-07 -1.54909e-05
0.00222416 -0.000689844 6.46576e-07
-0.000689844 0.000281651 4.08608e-07
6.46576e-07 4.08608e-07 -1.90798e-05
0.000375407 -0.000223563 1.95054e-06
-0.000223563 -0.000139536 4.90076e-07
1.95054e-06 4.90076e-07 -0.000290633
0.000691119 -0.000253383 -1.0812e-06
-0.000253383 0.000123921 2.73847e-07
-1.0812e-06 2.73847e-07 -0.000183623
0.00126049 -5.00404e-05 4.07071e-06
-5.00404e-05 -6.71802e-05 1.75881e-08
4.07071e-06 1.75881e-08 -0.00019564
0.0021245 -0.000165724 -1.83046e-07
-0.000165724 0.000495975 1.24076e-07
-1.83046e-07 1.24076e-07 0.000363943
0.00204124 -0.00016533 1.27895e-06
-0.00016533 1.69005e-05 -5.24462e-07
1.27895e-06 -5.24462e-07 -7.09374e-05
0.0022431 -0.000341548 -6.39241e-07
-0.000341548 0.000168309 6.1515e-07
-6.39241e-07 6.1515e-07 5.14415e-05
0.0020906 -0.000493776 -1.37174e-06
-0.000493776 0.000151763 8.80283e-07
-1.37174e-06 8.80283e-07 -6.93072e-05
0.00226334 -0.000452055 5.07163e-06
-0.000452055 0.000116542 -1.14643e-06
5.07163e-06 -1.14643e-06 -2.07934e-06
0.000364111 -0.000234451 1.96716e-05
-0.000234451 -0.000173339 -2.82533e-05
1.96716e-05 -2.82533e-05 -0.000344181
0.00222528 -0.000622729 8.57468e-07
-0.000622729 0.000221871 1.50234e-06
8.57468e-07 1.50234e-06 -1.66147e-05
0.00165619 -0.000455461 1.57344e-05
-0.000455461 0.000471924 -1.00694e-05
1.57344e-05 -1.00694e-05 0.000114016
0.00189858 -0.000764865 7.54065e-06
-0.000764865 0.000308923 3.99021e-06
7.54065e-06 3.99021e-06 -0.000164088
0.00247152 -0.000765974 4.99893e-07
-0.000765974 0.000501494 3.06553e-06
4.99893e-07 3.06553e-06 0.000127945
0.00240335 -0.000720642 -5.82429e-07
-0.000720642 0.000365671 2.84885e-06
-5.82429e-07 2.84885e-06 8.96084e-05
0.000830801 -0.000268277 3.05902e-06
-0.000268277 0.000181925 -2.57209e-06
3.05902e-06 -2.57209e-06 -0.000138966
0.00162723 -0.000301275 7.39858e-06
-0.000301275 0.000712095 -7.08322e-07
7.39858e-06 -7.08322e-07 0.000448632
0.00161354 -0.000390134 -1.78991e-06
-0.000390134 0.000691115 7.78272e-07
-1.78991e-06 7.78272e-07 0.000309068
0.00033575 0.000149663 -1.60393e-05
0.000149663 -0.000288127 -1.16758e-05
-1.60393e-05 -1.16758e-05 -0.00042713
0.00649185 -0.000100569 -0.000234731
-0.000100569 0.00396179 -1.98565e-05
-0.000234731 -1.98565e-05 0.00396055
0.00050011 0.000130748 -1.99186e-05
0.000130748 -2.86456e-05 -1.81841e-05
-1.99186e-05 -1.81841e-05 -0.000132456
0.000280971 0.000212728 -1.88932e-05
0.000212728 -0.000299601 -1.87811e-05
-1.88932e-05 -1.87811e-05 -0.000463379
0.00146292 0.000385922 -1.45614e-05
0.000385922 3.33867e-05 -4.92642e-06
-1.45614e-05 -4.92642e-06 -0.000222711
0.000369514 0.000231167 -2.18034e-05
0.000231167 -0.000153478 -2.67621e-05
-2.18034e-05 -2.67621e-05 -0.000309174
0.00113326 0.000432385 -2.43066e-05
0.000432385 0.000141089 -1.12266e-05
-2.43066e-05 -1.12266e-05 -0.000204059
0.00134763 0.000463575 -2.70872e-05
0.000463575 8.0827e-05 -6.94083e-06
-2.70872e-05 -6.94083e-06 -0.000242228
0.00194716 0.000740276 -1.13196e-05
0.000740276 0.000350259 6.33915e-06
-1.13196e-05 6.33915e-06 -9.19751e-05
0.000373998 0.000211585 -6.92548e-06
0.000211585 -0.000133808 1.83474e-06
-6.92548e-06 1.83474e-06 -0.00026259
0.000373137 7.08702e-05 -1.45116e-07
7.08702e-05 -7.04392e-05 1.23311e-06
-1.45116e-07 1.23311e-06 -0.000167323
0.00103334 0.000286412 -8.66131e-08
0.000286412 0.000332881 2.03716e-07
-8.66131e-08 2.03716e-07 8.8019e-05
0.00148724 0.000326341 -3.05325e-07
0.000326341 1.55217e-05 -2.34119e-07
-3.05325e-07 -2.34119e-07 -0.000203579
0.00147699 0.000434916 8.71165e-08
0.000434916 8.91815e-05 -3.12975e-07
8.71165e-08 -3.12975e-07 -0.000200666
0.00222796 0.000589425 -6.72873e-07
0.000589425 0.0002742 -2.9612e-07
-6.72873e-07 -2.9612e-07 -2.00197e-06
0.000650671 0.000322468 6.95864e-07
0.000322468 -2.7049e-05 1.06537e-06
6.95864e-07 1.06537e-06 -0.000331612
0.00227751 0.000726876 -1.13659e-06
0.000726876 0.000478483 -4.55398e-07
-1.13659e-06 -4.55398e-07 8.99335e-05
0.00196354 0.000798801 -1.33932e-06
0.000798801 0.000519867 -2.891e-06
-1.33932e-06 -2.891e-06 -1.18786e-05
0.00182439 0.000763255 -1.3025e-06
0.000763255 0.000155133 3.74002e-06
-1.3025e-06 3.74002e-06 -0.000260573
0.00050371 4.81446e-05 9.36456e-06
4.81446e-05 2.54111e-05 1.55708e-05
9.36456e-06 1.55708e-05 -5.56771e-05
0.00085871 0.000335553 5.43379e-06
0.000335553 0.000214879 8.49602e-07
5.43379e-06 8.49602e-07 -7.37283e-05
0.000709415 0.000172516 2.95184e-06
0.000172516 0.00019306 2.01427e-06
2.95184e-06 2.01427e-06 -6.32893e-05
-0.000892452 0.000161789 -7.45354e-06
0.000161789 -0.000870736 4.79703e-06
-7.45354e-06 4.79703e-06 -0.00116377
0.00225657 0.000509604 2.99295e-06
0.000509604 0.000222646 -2.50785e-06
2.99295e-06 -2.50785e-06 4.80504e-06
0.00220853 0.000661695 4.01017e-06
0.000661695 0.000348069 -2.59374e-06
4.01017e-06 -2.59374e-06 1.1882e-05
0.00225956 0.000647072 1.01575e-06
0.000647072 0.000217149 -1.86445e-06
1.01575e-06 -1.86445e-06 -3.67474e-05
0.00139915 0.000643591 -6.98252e-06
0.000643591 0.000328288 -7.14389e-06
-6.98252e-06 -7.14389e-06 -0.000161126
0.00258443 0.000832669 -6.61247e-06
0.000832669 0.000582223 -5.0559e-06
-6.61247e-06 -5.0559e-06 0.000207044
0.00235268 0.000942142 -1.77823e-05
0.000942142 0.000660643 -1.75611e-05
-1.77823e-05 -1.75611e-05 9.24135e-05
0.00217262 0.0008013 -6.36125e-06
0.0008013 0.000252096 -5.56508e-06
-6.36125e-06 -5.56508e-06 -0.000136637
0.000764596 0.000108415 -1.26024e-06
0.000108415 0.000250722 7.41277e-06
-1.26024e-06 7.41277e-06 0.000123654
0.000554697 3.00402e-05 4.13278e-06
3.00402e-05 6.68899e-05 1.31718e-05
4.13278e-06 1.31718e-05 1.31029e-05
0.00401435 -0.000131652 8.4067e-05
-0.000131652 0.00234369 7.62373e-06
8.4067e-05 7.62373e-06 0.00233605
0.00436472 -0.000175337 1.49457e-05
-0.000175337 0.00259284 -1.60343e-06
1.49457e-05 -1.60343e-06 0.0025731
0.00476948 -0.000228983 -8.67699e-05
-0.000228983 0.00288452 -1.13045e-05
-8.67699e-05 -1.13045e-05 0.00284771
0.000645885 -0.000231956 3.34324e-05
-0.000231956 7.67397e-05 -1.89667e-05
3.34324e-05 -1.89667e-05 -4.2485e-05
0.00651361 8.58378e-05 0.00023019
8.58378e-05 0.00397855 -2.61302e-05
0.00023019 -2.61302e-05 0.00397372
0.00048781 -0.000219557 3.48768e-06
-0.000219557 -4.92643e-05 7.43613e-07
3.48768e-06 7.43613e-07 -0.00018399
0.00738087 2.67593e-05 5.14367e-06
2.67593e-05 0.00451453 -5.76117e-08
5.14367e-06 -5.76117e-08 0.00451741
0.000323135 0.000138141 -1.63724e-05
0.000138141 -0.00028774 -9.54413e-06
-1.63724e-05 -9.54413e-06 -0.000416174
0.000275129 4.52247e-05 -1.4617e-05
4.52247e-05 -0.0002991 -4.59536e-06
-1.4617e-05 -4.59536e-06 -0.000402675
0.00135095 0.000196223 -2.70821e-06
0.000196223 -5.82743e-05 -1.37052e-06
-2.70821e-06 -1.37052e-06 -0.000222735
0.00131235 9.95077e-05 -3.62066e-06
9.95077e-05 -6.08681e-05 -9.00883e-07
-3.62066e-06 -9.00883e-07 -0.000195315
0.000311016 -5.27585e-06 -1.65048e-05
-5.27585e-06 -0.000262195 -1.60163e-06
-1.65048e-05 -1.60163e-06 -0.000352312
0.00662038 -0.000106454 -0.000371469
-0.000106454 0.00398702 6.90391e-06
-0.000371469 6.90391e-06 0.00402037
0.000304557 -4.10531e-06 -7.09937e-09
-4.10531e-06 -0.000264211 -6.81131e-07
-7.09937e-09 -6.81131e-07 -0.000352701
0.00127696 4.67465e-05 1.70688e-08
4.67465e-05 -7.14362e-05 5.39032e-08
1.70688e-08 5.39032e-08 -0.000198223
0.0013546 0.00014706 -1.71985e-08
0.00014706 -5.18276e-05 9.07709e-08
-1.71985e-08 9.07709e-08 -0.000197638
0.0021594 0.000148203 -1.14692e-07
0.000148203 8.47411e-05 2.20963e-07
-1.14692e-07 2.20963e-07 1.74297e-05
0.00143759 0.000258516 -3.47828e-07
0.000258516 -2.01756e-05 -8.41456e-08
-3.47828e-07 -8.41456e-08 -0.000207818
0.00218459 0.000328232 -4.42231e-07
0.000328232 0.000111533 1.84991e-07
-4.42231e-07 1.84991e-07 -5.00783e-06
0.00124516 -6.90223e-06 3.46299e-06
-6.90223e-06 -8.1025e-05 2.85504e-07
3.46299e-06 2.85504e-07 -0.000206694
0.00218307 6.91107e-05 1.83435e-06
6.91107e-05 0.000102446 5.63887e-07
1.83435e-06 5.63887e-07 4.27686e-05
0.00218038 0.000237178 1.42e-06
0.000237178 0.000103864 4.62265e-07
1.42e-06 4.62265e-07 1.83526e-05
0.00217749 0.000162957 5.73754e-06
0.000162957 3.0249e-05 1.00453e-06
5.73754e-06 1.00453e-06 1.40058e-05
0.00217592 0.000414706 3.30915e-06
0.000414706 0.000120857 -5.06889e-07
3.30915e-06 -5.06889e-07 -3.9248e-05
0.00229775 0.000345736 5.34897e-06
0.000345736 8.71684e-05 8.70865e-07
5.34897e-06 8.70865e-07 3.28881e-05
0.000303193 -6.75258e-06 -1.60035e-05
-6.75258e-06 -0.000259097 1.83546e-07
-1.60035e-05 1.83546e-07 -0.000352337
0.00213586 -6.17118e-05 -0.000144147
-6.17118e-05 0.000922601 7.5488e-06
-0.000144147 7.5488e-06 0.00085463
0.00138836 -9.65237e-05 -1.44186e-05
-9.65237e-05 4.35864e-07 1.27016e-06
-1.44186e-05 1.27016e-06 -0.000123275
0.00196794 -0.000223372 -1.97847e-05
-0.000223372 0.000380769 3.65279e-06
-1.97847e-05 3.65279e-06 0.000215295
0.00865148 -4.44959e-05 -0.000370735
-4.44959e-05 0.00529193 4.2244e-05
-0.000370735 4.2244e-05 0.00530436
0.00351083 -0.000360024 -0.000205022
-0.000360024 0.00186212 3.61169e-05
-0.000205022 3.61169e-05 0.00171541
0.00195549 -0.000542538 -3.05292e-05
-0.000542538 0.000619492 9.5751e-06
-3.05292e-05 9.5751e-06 0.000249312
0.00219679 -0.000361218 -2.78463e-05
-0.000361218 0.000525303 7.44671e-06
-2.78463e-05 7.44671e-06 0.000314699
0.00231604 -0.000422987 -5.94917e-07
-0.000422987 0.000244358 -1.41986e-06
-5.94917e-07 -1.41986e-06 8.76059e-05
0.00229795 -0.000570148 -8.92451e-07
-0.000570148 0.000369237 -9.77046e-07
-8.92451e-07 -9.77046e-07 8.80109e-05
0.00222989 -0.000688431 9.31271e-07
-0.000688431 0.000440778 -3.75792e-06
9.31271e-07 -3.75792e-06 5.71918e-05
0.0022842 -0.000695354 -2.09769e-07
-0.000695354 0.000323538 -2.44911e-06
-2.09769e-07 -2.44911e-06 2.1025e-05
0.000478569 -0.000235378 -2.0924e-05
-0.000235378 -7.52096e-05 2.45876e-05
-2.0924e-05 2.45876e-05 -0.000229596
-1.95389e-05 -0.000219537 -9.77736e-07
-0.000219537 -0.000303522 3.20575e-06
-9.77736e-07 3.20575e-06 -0.000623686
0.00131317 -4.63932e-05 8.2193e-07
-4.63932e-05 -3.49852e-05 -3.91177e-08
8.2193e-07 -3.91177e-08 -0.000156902
0.00208674 -0.000166045 -1.21487e-05
-0.000166045 0.000465794 1.52713e-06
-1.21487e-05 1.52713e-06 0.000333958
0.00205051 -0.000161267 2.44953e-06
-0.000161267 2.0349e-05 -3.62397e-07
2.44953e-06 -3.62397e-07 -6.28348e-05
0.00211345 -0.000336426 -1.90552e-06
-0.000336426 8.64361e-05 5.65469e-07
-1.90552e-06 5.65469e-07 -4.23678e-05
0.000299025 -0.000254944 -1.4114e-06
-0.000254944 -0.000205194 2.33861e-07
-1.4114e-06 2.33861e-07 -0.000380264
0.000745575 -0.000418374 -5.01762e-06
-0.000418374 -8.51972e-05 -3.92247e-07
-5.01762e-06 -3.92247e-07 -0.000449182
0.00198597 -0.000774183 -1.95129e-08
-0.000774183 0.000362871 1.23884e-06
-1.95129e-08 1.23884e-06 -0.000116074
0.00213816 -0.00049408 -1.41965e-06
-0.00049408 0.000189194 3.82604e-07
-1.41965e-06 3.82604e-07 -3.57278e-05
0.0023021 -0.000458803 9.90905e-07
-0.000458803 0.000133255 -7.28539e-07
9.90905e-07 -7.28539e-07 2.10281e-05
0.00254268 -0.000773266 1.02497e-06
-0.000773266 0.000547241 -1.45744e-06
1.02497e-06 -1.45744e-06 0.000176977
0.00221354 -0.000621333 2.15164e-07
-0.000621333 0.000211828 5.8001e-07
2.15164e-07 5.8001e-07 -2.65203e-05
0.00227337 -0.000716154 1.61674e-07
-0.000716154 0.000272692 8.90521e-07
1.61674e-07 8.90521e-07 -5.38284e-06
0.000820852 -0.000282161 4.35625e-07
-0.000282161 0.000180392 -1.01996e-06
4.35625e-07 -1.01996e-06 -0.000147974
0.000614959 -0.000284804 7.9942e-07
-0.000284804 3.44047e-05 -1.62217e-07
7.9942e-07 -1.62217e-07 -0.000329344
0.000547613 -0.000246321 5.30224e-06
-0.000246321 6.73993e-05 1.96051e-06
5.30224e-06 1.96051e-06 -0.000215848
0.00203012 -8.0897e-05 1.74571e-06
-8.0897e-05 8.64258e-06 -2.29897e-07
1.74571e-06 -2.29897e-07 -6.75985e-05
0.00208154 -0.000245459 -1.06545e-06
-0.000245459 3.52569e-05 -2.77775e-07
-1.06545e-06 -2.77775e-07 -6.37985e-05
0.00218986 -0.000161438 7.18938e-06
-0.000161438 5.34795e-05 -9.20673e-07
7.18938e-06 -9.20673e-07 2.67613e-05
0.00228744 -0.000371366 3.73122e-06
-0.000371366 8.1113e-05 -4.18682e-07
3.73122e-06 -4.18682e-07 1.83537e-05
0.00220448 -0.000555635 4.42495e-07
-0.000555635 0.00013755 2.3777e-07
4.42495e-07 2.3777e-07 -3.51324e-05
0.00231803 -0.000478324 1.99025e-06
-0.000478324 7.90511e-05 -1.6589e-07
1.99025e-06 -1.6589e-07 1.73148e-05
0.000816149 -0.000313007 8.8859e-06
-0.000313007 7.31566e-05 -7.71159e-06
8.8859e-06 -7.71159e-06 -0.000241155
0.00226229 -0.000664336 8.24169e-07
-0.000664336 0.000169525 3.19624e-08
8.24169e-07 3.19624e-08 -2.5299e-05
0.00187544 -0.000807543 -2.84092e-07
-0.000807543 0.000462093 7.18476e-07
-2.84092e-07 7.18476e-07 -8.24146e-05
0.0023384 -0.000896445 1.13707e-05
-0.000896445 0.000481027 4.12291e-06
1.13707e-05 4.12291e-06 -8.99719e-06
0.00258983 -0.000788784 3.30781e-06
-0.000788784 0.000558051 3.15005e-06
3.30781e-06 3.15005e-06 0.000208617
0.00248482 -0.000766563 2.72936e-07
-0.000766563 0.000385866 -2.62836e-07
2.72936e-07 -2.62836e-07 0.000127394
0.000641046 -0.000175867 -2.05552e-06
-0.000175867 0.000210544 -2.32978e-06
-2.05552e-06 -2.32978e-06 -9.94998e-05
0.00172087 -0.000492713 -8.01489e-06
-0.000492713 0.000637426 -2.69192e-06
-8.01489e-06 -2.69192e-06 0.000221778
-0.000618497 -0.000110499 4.8311e-06
-0.000110499 -0.000644015 2.20954e-06
4.8311e-06 2.20954e-06 -0.00098268
0.00127176 -0.000525131 8.15063e-06
-0.000525131 0.000438339 6.33343e-06
8.15063e-06 6.33343e-06 -4.25046e-05
0.00147554 0.000326233 -1.07635e-05
0.000326233 1.5593e-05 -3.45668e-06
-1.07635e-05 -3.45668e-06 -0.000204823
0.000257084 5.57852e-05 -9.23157e-06
5.57852e-05 -0.000140003 -1.77505e-05
-9.23157e-06 -1.77505e-05 -0.000234081
0.000440653 0.000171339 -2.69634e-05
0.000171339 -8.19794e-05 -1.97353e-05
-2.69634e-05 -1.97353e-05 -0.000209804
0.000823971 0.000228099 -7.28396e-06
0.000228099 0.000202564 4.18674e-06
-7.28396e-06 4.18674e-06 -4.04953e-05
0.00141487 0.000429173 -2.02108e-05
0.000429173 5.43965e-05 -6.2986e-06
-2.02108e-05 -6.2986e-06 -0.000235594
0.00218817 0.000586054 -4.27e-06
0.000586054 0.000245723 1.62426e-06
-4.27e-06 1.62426e-06 -2.96317e-05
0.000766146 0.000292257 -1.22712e-05
0.000292257 4.54739e-05 -5.59033e-06
-1.22712e-05 -5.59033e-06 -0.000237538
0.00180334 0.000775708 -8.94577e-06
0.000775708 0.000401362 3.9543e-06
-8.94577e-06 3.9543e-06 -0.000123657
0.00231128 0.000724185 -3.05757e-06
0.000724185 0.000500462 4.41843e-06
-3.05757e-06 4.41843e-06 0.000111701
0.00174783 0.00076078 1.11412e-05
0.00076078 9.45766e-05 1.55345e-05
1.11412e-05 1.55345e-05 -0.000314562
0.000397948 3.32012e-05 -3.27026e-06
3.32012e-05 -3.67584e-05 4.49879e-07
-3.27026e-06 4.49879e-07 -0.000115481
0.000659067 0.000253179 -1.07976e-06
0.000253179 9.75667e-05 -2.13075e-09
-1.07976e-06 -2.13075e-09 -0.00018434
0.000363612 0.000166262 4.99149e-06
0.000166262 -2.70607e-05 -1.84005e-06
4.99149e-06 -1.84005e-06 -0.000286433
0.000603655 0.000254322 -5.2393e-06
0.000254322 7.24377e-05 6.08153e-06
-5.2393e-06 6.08153e-06 -0.000230374
0.0022293 0.000505791 -1.88016e-06
0.000505791 0.00020802 -1.4631e-06
-1.88016e-06 -1.4631e-06 -8.97536e-06
0.00218711 0.000660993 -7.63298e-07
0.000660993 0.000331354 -3.16892e-07
-7.63298e-07 -3.16892e-07 -4.94786e-06
0.00227046 0.000646746 1.14479e-07
0.000646746 0.000230084 -3.91773e-08
1.14479e-07 -3.91773e-08 -2.34599e-05
0.00179712 0.000680203 2.42694e-06
0.000680203 0.000597486 -4.75908e-07
2.42694e-06 -4.75908e-07 9.99629e-05
0.00250799 0.000818111 1.54638e-06
0.000818111 0.000544784 9.86755e-07
1.54638e-06 9.86755e-07 0.000168553
0.0021004 0.000899 -9.62852e-07
0.000899 0.000515483 -2.02958e-06
-9.62852e-07 -2.02958e-06 -4.00355e-05
0.00229202 0.00078878 -7.50538e-06
0.00078878 0.000344578 3.19675e-06
-7.50538e-06 3.19675e-06 -2.91321e-05
0.000607625 3.22488e-05 6.78119e-06
3.22488e-05 9.46405e-05 1.43151e-05
6.78119e-06 1.43151e-05 3.23431e-05
0.00122506 0.000117907 -1.86235e-06
0.000117907 0.000543548 1.17825e-05
-1.86235e-06 1.17825e-05 0.000312554
0.000367659 0.000402593 -9.55149e-06
0.000402593 -0.000157876 -2.13095e-06
-9.55149e-06 -2.13095e-06 -0.000530441
0.0011271 0.000241204 9.90644e-06
0.000241204 0.000463777 -5.42322e-06
9.90644e-06 -5.42322e-06 0.00012587
0.00128036 0.000169875 -4.22988e-06
0.000169875 0.000393884 1.38448e-05
-4.22988e-06 1.38448e-05 0.00012774
0.0022603 0.000555849 4.71121e-07
0.000555849 0.000136575 -1.77161e-06
4.71121e-07 -1.77161e-06 -4.40207e-05
0.00229844 0.000744514 -1.44611e-06
0.000744514 0.000320749 -3.32399e-06
-1.44611e-06 -3.32399e-06 -7.45072e-07
0.002265 0.000706287 -3.19363e-06
0.000706287 0.000186365 -1.01262e-06
-3.19363e-06 -1.01262e-06 -5.80665e-05
0.00196506 0.000935851 -7.12911e-06
0.000935851 0.000681171 -1.25822e-05
-7.12911e-06 -1.25822e-05 4.24154e-05
0.00265299 0.000876304 -7.37103e-06
0.000876304 0.000547591 -4.6279e-06
-7.37103e-06 -4.6279e-06 0.000177595
0.00194952 0.00094971 2.90726e-06
0.00094971 0.000318544 -9.415e-06
2.90726e-06 -9.415e-06 -0.000218821
0.000607117 0.000105539 -1.74834e-06
0.000105539 0.000139491 9.63652e-06
-1.74834e-06 9.63652e-06 -6.47323e-06
0.000859592 0.000144854 -6.02218e-06
0.000144854 0.000414381 6.66121e-06
-6.02218e-06 6.66121e-06 0.00018891
0.000569401 8.0442e-05 -1.49509e-06
8.0442e-05 0.000116983 6.14818e-06
-1.49509e-06 6.14818e-06 1.46532e-05
0.000444795 3.4831e-05 -1.64666e-06
3.4831e-05 4.05242e-05 1.98982e-07
-1.64666e-06 1.98982e-07 -7.87638e-05
0.00156784 -3.8574e-06 2.07796e-06
-3.8574e-06 0.000729941 7.0381e-06
2.07796e-06 7.0381e-06 0.000690676
0.000990465 1.33548e-05 -3.52332e-07
1.33548e-05 0.000353321 -1.70198e-07
-3.52332e-07 -1.70198e-07 0.000303095
0.000955547 -2.44309e-05 6.69493e-05
-2.44309e-05 0.000326395 1.46339e-05
6.69493e-05 1.46339e-05 0.000319396
0.00395393 -0.000144897 1.36977e-05
-0.000144897 0.00230829 -1.32035e-06
1.36977e-05 -1.32035e-06 0.00229687
0.00428132 -0.000186894 -7.54575e-05
-0.000186894 0.00254222 -8.64592e-06
-7.54575e-05 -8.64592e-06 0.00251908
0.000218682 -0.000140806 2.07135e-05
-0.000140806 -0.000148441 -1.57983e-05
2.07135e-05 -1.57983e-05 -0.000248306
0.00574915 0.000152202 0.000156534
0.000152202 0.00350729 -1.9649e-05
0.000156534 -1.9649e-05 0.00348581
0.00053305 -0.000200755 2.39196e-06
-0.000200755 1.56909e-05 1.06492e-06
2.39196e-06 1.06492e-06 -0.000111916
0.0066113 7.68919e-05 2.45154e-07
7.68919e-05 0.00404748 9.54872e-07
2.45154e-07 9.54872e-07 0.00404066
0.000431601 -0.000224892 -2.5777e-05
-0.000224892 -8.8004e-05 2.19555e-05
-2.5777e-05 2.19555e-05 -0.000224026
0.00764312 1.58426e-05 -0.000317838
1.58426e-05 0.0046835 3.87136e-05
-0.000317838 3.87136e-05 0.00468776
0.00139798 0.000256948 -6.4176e-06
0.000256948 -3.77804e-05 -2.31668e-06
-6.4176e-06 -2.31668e-06 -0.000226602
0.00133466 0.000148263 -2.79481e-06
0.000148263 -5.7154e-05 -8.01251e-07
-2.79481e-06 -8.01251e-07 -0.000203992
0.00222309 0.000327102 -2.72617e-06
0.000327102 0.000135695 4.22123e-07
-2.72617e-06 4.22123e-07 1.92375e-05
0.0021326 0.00014611 -1.77816e-06
0.00014611 6.76746e-05 -1.94815e-07
-1.77816e-06 -1.94815e-07 2.81097e-07
0.00128211 5.19686e-05 -3.34593e-06
5.19686e-05 -6.67223e-05 -5.85131e-07
-3.34593e-06 -5.85131e-07 -0.000193919
0.0002715 2.80051e-05 -1.676e-05
2.80051e-05 -0.000288556 -1.4073e-06
-1.676e-05 -1.4073e-06 -0.000375065
0.0012494 -2.1593e-06 -4.81624e-08
-2.1593e-06 -7.76955e-05 1.93179e-08
-4.81624e-08 1.93179e-08 -0.000203349
0.00215141 6.81405e-05 -2.11567e-08
6.81405e-05 8.31835e-05 1.35733e-07
-2.11567e-08 1.35733e-07 2.33367e-05
0.0021845 0.000235984 -1.20065e-07
0.000235984 0.000103234 1.85288e-07
-1.20065e-07 1.85288e-07 1.78978e-05
0.00215095 0.000157957 -3.97647e-07
0.000157957 2.68179e-06 4.77089e-08
-3.97647e-07 4.77089e-08 -7.01879e-06
0.00220793 0.000414777 -1.08683e-06
0.000414777 0.000149468 1.58814e-07
-1.08683e-06 1.58814e-07 -1.07188e-05
0.00227406 0.000344858 -7.26963e-08
0.000344858 7.07778e-05 2.8511e-07
-7.26963e-08 2.8511e-07 1.64897e-05
0.00216449 -8.06687e-06 1.47558e-06
-8.06687e-06 9.39487e-05 2.84178e-07
1.47558e-06 2.84178e-07 3.56128e-05
0.00207935 7.24778e-05 4.41905e-06
7.24778e-05 -4.17198e-05 3.66641e-07
4.41905e-06 3.66641e-07 -4.28014e-05
0.00222953 0.000240904 5.92451e-06
0.000240904 5.53288e-05 1.21262e-06
5.92451e-06 1.21262e-06 2.71257e-05
0.00220966 0.000145569 3.55803e-06
0.000145569 -4.24494e-07 7.77503e-07
3.55803e-06 7.77503e-07 1.88352e-05
0.00233811 0.000466942 3.53029e-06
0.000466942 0.000129755 -7.9308e-08
3.53029e-06 -7.9308e-08 2.31941e-05
0.00230063 0.000353839 1.59119e-06
0.000353839 -2.1015e-05 -8.19526e-08
1.59119e-06 -8.19526e-08 -1.67029e-05
0.00135009 -4.30677e-05 -5.7171e-06
-4.30677e-05 -1.25894e-05 1.78839e-07
-5.7171e-06 1.78839e-07 -0.000128018
0.00207167 -0.000166316 -2.33224e-05
-0.000166316 0.000451093 2.75208e-06
-2.33224e-05 2.75208e-06 0.000319489
0.0020809 -0.000155882 3.01503e-06
-0.000155882 3.671e-05 -4.12286e-07
3.01503e-06 -4.12286e-07 -4.14866e-05
0.00197379 -0.000330044 8.38581e-07
-0.000330044 -1.57852e-06 5.79151e-07
8.38581e-07 5.79151e-07 -0.000142012
0.000196833 -0.000276739 -2.43599e-05
-0.000276739 -0.000263644 2.85639e-05
-2.43599e-05 2.85639e-05 -0.000441083
0.00068406 -0.000421725 -1.41251e-05
-0.000421725 -0.000127493 5.94301e-06
-1.41251e-05 5.94301e-06 -0.000495009
0.00202049 -0.000783575 2.03001e-06
-0.000783575 0.000376179 -2.73844e-06
2.03001e-06 -2.73844e-06 -0.000109981
0.00218066 -0.000493623 -1.65987e-06
-0.000493623 0.00022366 -6.21571e-07
-1.65987e-06 -6.21571e-07 -5.19211e-06
0.00232305 -0.000464205 -2.10391e-06
-0.000464205 0.000138034 -1.53459e-07
-2.10391e-06 -1.53459e-07 3.19699e-05
0.00219706 -0.000619637 -9.53504e-07
-0.000619637 0.000198385 -2.79226e-07
-9.53504e-07 -2.79226e-07 -3.97892e-05
0.00257056 -0.00077551 -3.24139e-07
-0.00077551 0.000567419 -6.43496e-06
-3.24139e-07 -6.43496e-06 0.000201688
0.00211623 -0.000707582 1.17168e-06
-0.000707582 0.000163955 -6.14897e-07
1.17168e-06 -6.14897e-07 -0.000114877
0.000634409 -0.000307163 -7.20518e-06
-0.000307163 6.83729e-05 4.13897e-06
-7.20518e-06 4.13897e-06 -0.000271575
0.000393441 -0.00025805 1.32071e-06
-0.00025805 -0.000100385 3.46114e-07
1.32071e-06 3.46114e-07 -0.000455631
0.000398293 -0.000293103 2.1982e-06
-0.000293103 -9.19745e-06 3.04945e-06
2.1982e-06 3.04945e-06 -0.000303481
0.00209141 -7.74047e-05 3.56529e-06
-7.74047e-05 5.08677e-05 -1.89456e-07
3.56529e-06 -1.89456e-07 -1.83484e-05
0.00207392 -0.000251703 1.22472e-06
-0.000251703 3.54614e-05 -4.08332e-07
1.22472e-06 -4.08332e-07 -6.26281e-05
0.00218769 -0.000156915 6.93931e-07
-0.000156915 3.77976e-05 -8.82643e-08
6.93931e-07 -8.82643e-08 1.90495e-05
0.00227356 -0.000363236 -9.20974e-07
-0.000363236 8.1949e-05 2.37051e-07
-9.20974e-07 2.37051e-07 1.54206e-05
0.00083615 -0.000344814 -2.30799e-07
-0.000344814 8.1326e-05 6.32503e-07
-2.30799e-07 6.32503e-07 -0.000250336
0.0019718 -0.000828534 1.87061e-07
-0.000828534 0.000528621 -1.6431e-06
1.87061e-07 -1.6431e-06 -2.18712e-05
0.00220556 -0.000881092 4.18589e-07
-0.000881092 0.000401219 1.79429e-06
4.18589e-07 1.79429e-06 -9.15245e-05
0.00213949 -0.000544335 -7.48817e-07
-0.000544335 0.000101423 5.00509e-07
-7.48817e-07 5.00509e-07 -7.69163e-05
0.00232391 -0.000482762 1.45485e-07
-0.000482762 6.99495e-05 8.32661e-08
1.45485e-07 8.32661e-08 1.42327e-05
0.00243402 -0.000778859 -6.63235e-07
-0.000778859 0.000444853 3.08577e-07
-6.63235e-07 3.08577e-07 9.66958e-05
0.00225786 -0.000663435 -6.83057e-07
-0.000663435 0.000163524 7.53672e-07
-6.83057e-07 7.53672e-07 -3.13061e-05
0.00241045 -0.000755712 1.13646e-06
-0.000755712 0.000335621 -5.38069e-07
1.13646e-06 -5.38069e-07 8.06513e-05
0.00105986 -0.000464419 -4.28667e-06
-0.000464419 0.00025208 -5.2074e-07
-4.28667e-06 -5.2074e-07 -0.000177024
0.00155832 -0.000540581 -1.98633e-06
-0.000540581 0.000634065 9.83783e-07
-1.98633e-06 9.83783e-07 0.000154329
0.000995589 -0.000243987 -3.60044e-06
-0.000243987 0.000402408 -2.67289e-06
-3.60044e-06 -2.67289e-06 0.000116093
0.000866217 -0.0002161 4.95517e-07
-0.0002161 0.000271302 8.85628e-07
4.95517e-07 8.85628e-07 -5.17887e-05
0.00217558 -8.74776e-05 6.18332e-06
-8.74776e-05 3.97632e-05 -4.1268e-07
6.18332e-06 -4.1268e-07 2.73299e-05
0.00210897 -0.000253847 4.31769e-06
-0.000253847 -4.50855e-05 -1.25979e-06
4.31769e-06 -1.25979e-06 -8.23662e-05
0.00219071 -0.00015086 3.95115e-06
-0.00015086 2.02671e-05 -7.60203e-07
3.95115e-06 -7.60203e-07 4.30685e-05
0.00227709 -0.000381998 -6.29073e-07
-0.000381998 -1.17979e-05 -1.22787e-08
-6.29073e-07 -1.22787e-08 -5.65609e-06
0.00229646 -0.000587181 -5.56854e-07
-0.000587181 0.000104435 4.06073e-07
-5.56854e-07 4.06073e-07 -9.50552e-06
0.00236902 -0.000515776 1.08151e-06
-0.000515776 2.19612e-05 -1.42825e-07
1.08151e-06 -1.42825e-07 -1.36707e-05
0.00167299 -0.000713515 -7.7466e-06
-0.000713515 0.000537792 1.46507e-06
-7.7466e-06 1.46507e-06 5.18848e-06
0.00238178 -0.000728304 -9.67185e-07
-0.000728304 0.00016716 -1.1334e-07
-9.67185e-07 -1.1334e-07 9.5152e-06
0.00210724 -0.000990202 6.49959e-07
-0.000990202 0.000543287 6.4974e-06
6.49959e-07 6.4974e-06 -6.51714e-05
0.00247829 -0.000932666 9.55708e-06
-0.000932666 0.000530491 2.66311e-06
9.55708e-06 2.66311e-06 4.50498e-05
0.00243305 -0.000787603 -2.94086e-06
-0.000787603 0.000426122 2.70479e-06
-2.94086e-06 2.70479e-06 8.61666e-05
0.00238479 -0.000820327 -5.10912e-06
-0.000820327 0.000248735 -2.72347e-06
-5.10912e-06 -2.72347e-06 -2.01014e-05
0.00085785 -0.000245793 1.51248e-06
-0.000245793 0.000314436 -9.89966e-06
1.51248e-06 -9.89966e-06 6.37825e-05
0.00127512 -0.000289152 -5.37601e-06
-0.000289152 0.000619969 1.12331e-05
-5.37601e-06 1.12331e-05 0.000229687
0.00161062 -0.000715617 1.84381e-05
-0.000715617 0.000575006 3.49681e-06
1.84381e-05 3.49681e-06 2.29786e-05
0.000675059 -0.000316673 1.11654e-05
-0.000316673 0.000107706 -1.20796e-06
1.11654e-05 -1.20796e-06 -0.000251653
0.00137645 -0.000634247 -5.36412e-06
-0.000634247 0.000533734 1.38885e-05
-5.36412e-06 1.38885e-05 -4.12866e-05
0.00015415 2.22235e-05 -7.6904e-06
2.22235e-05 -0.000190569 -1.52371e-05
-7.6904e-06 -1.52371e-05 -0.000264624
0.0022016 0.000501696 -4.83867e-06
0.000501696 0.000193517 3.85203e-07
-4.83867e-06 3.85203e-07 -2.25436e-05
0.000922307 6.45718e-05 3.14867e-06
6.45718e-05 0.000338091 -6.80782e-06
3.14867e-06 -6.80782e-06 7.29775e-05
0.000611245 0.000294321 -6.75847e-06
0.000294321 3.11725e-05 5.80157e-06
-6.75847e-06 5.80157e-06 -0.000221019
0.00140749 0.000321942 -3.4648e-06
0.000321942 0.000596524 1.07026e-05
-3.4648e-06 1.07026e-05 0.000282073
0.00216512 0.00066021 -3.87768e-06
0.00066021 0.000314653 2.51642e-06
-3.87768e-06 2.51642e-06 -2.17754e-05
0.00227606 0.000645965 -1.8831e-07
0.000645965 0.000239526 1.78737e-06
-1.8831e-07 1.78737e-06 -1.35814e-05
0.00152995 0.000702844 6.58084e-06
0.000702844 0.000444059 3.578e-06
6.58084e-06 3.578e-06 -7.83612e-05
0.00199493 0.000889239 9.8603e-06
0.000889239 0.000447059 1.23742e-05
9.8603e-06 1.23742e-05 -0.000107981
0.00241724 0.000800955 5.17457e-06
0.000800955 0.000496294 7.23123e-06
5.17457e-06 7.23123e-06 0.000119954
0.00244944 0.000787218 1.52272e-05
0.000787218 0.00045776 1.88565e-05
1.52272e-05 1.88565e-05 9.46995e-05
0.000430046 3.6982e-05 -2.51583e-07
3.6982e-05 -1.68321e-05 3.06864e-08
-2.51583e-07 3.06864e-08 -7.84736e-05
0.000650845 9.95313e-05 -2.47931e-06
9.95313e-05 0.000185845 -2.92272e-09
-2.47931e-06 -2.92272e-09 -4.79012e-05
0.000899977 0.00045837 7.29635e-06
0.00045837 0.000205179 -4.41387e-07
7.29635e-06 -4.41387e-07 -0.000176571
0.000664834 0.000160959 2.02265e-06
0.000160959 0.000164722 -5.33331e-06
2.02265e-06 -5.33331e-06 -0.000165806
0.000257454 0.000151587 -1.48526e-06
0.000151587 -0.000261609 4.57502e-06
-1.48526e-06 4.57502e-06 -0.000542665
0.00231457 0.000561124 -1.42177e-06
0.000561124 0.000173824 -1.01293e-06
-1.42177e-06 -1.01293e-06 -8.18054e-06
0.00228386 0.000740961 1.88206e-07
0.000740961 0.000316152 -4.84709e-08
1.88206e-07 -4.84709e-08 -3.67319e-06
0.0022995 0.000710473 1.4389e-06
0.000710473 0.000213251 3.59982e-07
1.4389e-06 3.59982e-07 -3.18731e-05
0.00201658 0.000943556 1.07676e-06
0.000943556 0.000731227 -2.78326e-06
1.07676e-06 -2.78326e-06 8.51518e-05
0.00260893 0.000871774 3.59033e-06
0.000871774 0.000496869 2.16418e-07
3.59033e-06 2.16418e-07 0.000125304
0.00242532 0.000998568 -4.83585e-06
0.000998568 0.000645334 4.22947e-07
-4.83585e-06 4.22947e-07 0.000102165
0.000898463 0.000150952 1.30313e-06
0.000150952 0.000306657 1.02492e-05
1.30313e-06 1.02492e-05 0.00013841
0.00271074 0.0004281 -9.44293e-07
0.0004281 0.00156484 5.02732e-06
-9.44293e-07 5.02732e-06 0.00119613
0.00040707 0.000549435 -3.06616e-06
0.000549435 -0.000102331 -2.82031e-07
-3.06616e-06 -2.82031e-07 -0.000569495
0.00163788 0.000252145 7.95982e-06
0.000252145 0.000581735 -2.67959e-06
7.95982e-06 -2.67959e-06 0.000298125
0.00285696 0.00067555 -2.071e-06
0.00067555 0.00127659 -3.05568e-06
-2.071e-06 -3.05568e-06 0.000864287
0.00233367 0.000598837 -3.26786e-06
0.000598837 9.82259e-05 -1.55942e-06
-3.26786e-06 -1.55942e-06 -3.83189e-05
0.00225696 0.000801648 -5.00716e-06
0.000801648 0.000260388 -1.73514e-06
-5.00716e-06 -1.73514e-06 -6.79013e-05
0.00234005 0.000782521 1.32535e-07
0.000782521 0.000202953 -1.10398e-06
1.32535e-07 -1.10398e-06 -4.37593e-05
0.00153102 0.000980398 6.65083e-06
0.000980398 0.000476741 -9.92351e-06
6.65083e-06 -9.92351e-06 -0.000183498
0.00214486 0.000970737 1.25478e-05
0.000970737 0.000339453 -4.59184e-06
1.25478e-05 -4.59184e-06 -0.00014498
0.000595046 9.17406e-05 -4.48156e-07
9.17406e-05 0.000132825 3.345e-07
-4.48156e-07 3.345e-07 -1.17785e-05
0.000519359 0.000217897 -1.37343e-06
0.000217897 0.000132694 1.74459e-07
-1.37343e-06 1.74459e-07 -6.99239e-05
-0.000415185 9.93516e-05 6.09735e-07
9.93516e-05 -0.000422513 -2.98355e-06
6.09735e-07 -2.98355e-06 -0.000630209
0.00172624 0.000291963 -5.82319e-06
0.000291963 0.00100019 -2.57498e-06
-5.82319e-06 -2.57498e-06 0.000745001
0.00141723 0.000234158 -2.89704e-06
0.000234158 0.000761856 3.35384e-06
-2.89704e-06 3.35384e-06 0.000561126
0.000543959 9.2539e-05 3.91124e-07
9.2539e-05 0.000109294 4.52657e-06
3.91124e-07 4.52657e-06 1.11164e-05
0.000556535 3.8234e-05 -1.27156e-06
3.8234e-05 0.000115915 -2.32584e-07
-1.27156e-06 -2.32584e-07 1.17466e-05
0.00146857 9.59978e-06 2.16552e-06
9.59978e-06 0.000667503 5.48734e-06
2.16552e-06 5.48734e-06 0.000635284
0.000465737 5.85019e-05 3.16724e-06
5.85019e-05 4.91264e-05 -7.35531e-06
3.16724e-06 -7.35531e-06 -6.49798e-05
0.00156699 -4.37284e-06 -1.43015e-05
-4.37284e-06 0.000730084 -2.10512e-06
-1.43015e-05 -2.10512e-06 0.000694291
0.00075788 -1.92665e-05 5.21953e-05
-1.92665e-05 0.000195356 1.17252e-05
5.21953e-05 1.17252e-05 0.000193939
0.001581 1.34871e-05 -2.84666e-05
1.34871e-05 0.000741668 -9.72935e-06
-2.84666e-05 -9.72935e-06 0.000698312
0.00221536 -7.4369e-05 5.99051e-05
-7.4369e-05 0.00115896 1.33929e-06
5.99051e-05 1.33929e-06 0.00115167
0.00372601 -0.000144928 -6.05976e-05
-0.000144928 0.00215991 -7.57955e-06
-6.05976e-05 -7.57955e-06 0.00214795
0.000114876 1.96597e-05 1.4643e-06
1.96597e-05 -0.000195134 -1.07844e-05
1.4643e-06 -1.07844e-05 -0.000262994
0.000402208 -0.000129747 -3.23967e-06
-0.000129747 -3.35392e-05 5.81066e-07
-3.23967e-06 5.81066e-07 -0.000140533
0.00452876 0.000219052 3.57802e-05
0.000219052 0.00272029 -1.15209e-05
3.57802e-05 -1.15209e-05 0.002681
0.00593817 0.000113387 -6.76306e-06
0.000113387 0.0036318 3.60372e-07
-6.76306e-06 3.60372e-07 0.00361653
0.000378069 -0.000197601 -2.46192e-05
-0.000197601 -8.56214e-05 1.96434e-05
-2.46192e-05 1.96434e-05 -0.000218656
0.00680379 7.84517e-05 -0.000254309
7.84517e-05 0.00418057 3.64816e-05
-0.000254309 3.64816e-05 0.00416963
0.00224148 0.000415593 -3.21671e-06
0.000415593 0.000177654 1.55285e-06
-3.21671e-06 1.55285e-06 1.7186e-05
0.00215871 0.000236688 -1.86251e-06
0.000236688 8.15723e-05 -1.15064e-08
-1.86251e-06 -1.15064e-08 -4.31786e-06
0.00224704 0.000344729 -5.08184e-06
0.000344729 5.20012e-05 -1.74828e-07
-5.08184e-06 -1.74828e-07 -2.45568e-06
0.00212521 0.000152971 -4.99877e-06
0.000152971 -2.51338e-05 -6.97233e-07
-4.99877e-06 -6.97233e-07 -2.8219e-05
0.00211601 6.80157e-05 -2.00555e-06
6.80157e-05 6.12423e-05 -2.77692e-07
-2.00555e-06 -2.77692e-07 1.16828e-06
0.00126424 2.87002e-06 -3.18889e-06
2.87002e-06 -6.82138e-05 -3.14138e-07
-3.18889e-06 -3.14138e-07 -0.000193758
0.00214759 -6.25298e-06 8.4932e-08
-6.25298e-06 8.4817e-05 1.05485e-07
8.4932e-08 1.05485e-07 2.62837e-05
0.00209081 6.482e-05 -5.36616e-07
6.482e-05 -3.0909e-05 -5.01585e-08
-5.36616e-07 -5.01585e-08 -3.38138e-05
0.00221649 0.000239224 -6.48001e-08
0.000239224 4.3093e-05 7.19596e-08
-6.48001e-08 7.19596e-08 1.5855e-05
0.00217109 0.00014645 -2.62683e-08
0.00014645 -3.47767e-05 5.46511e-08
-2.62683e-08 5.46511e-08 -8.96161e-06
0.00234831 0.000470486 2.42886e-07
0.000470486 0.000129841 -1.75012e-08
2.42886e-07 -1.75012e-08 2.30212e-05
0.00227547 0.000343668 1.47504e-07
0.000343668 -4.01225e-05 2.03743e-07
1.47504e-07 2.03743e-07 -3.27161e-05
0.00208625 -1.09094e-05 4.61126e-06
-1.09094e-05 -3.22825e-05 -6.98517e-10
4.61126e-06 -6.98517e-10 -3.4942e-05
0.00222499 6.15497e-05 3.1193e-06
6.15497e-05 8.36222e-06 -1.43629e-07
3.1193e-06 -1.43629e-07 4.73869e-05
0.00218668 0.000216383 5.82761e-07
0.000216383 -5.51791e-05 1.2373e-07
5.82761e-07 1.2373e-07 -3.77721e-05
0.00230423 0.00015455 1.07652e-06
0.00015455 -4.64912e-05 4.58195e-07
1.07652e-06 4.58195e-07 1.94965e-05
0.0023572 0.000474208 3.11823e-07
0.000474208 4.12342e-05 -4.12517e-07
3.11823e-07 -4.12517e-07 -2.76807e-06
0.00241736 0.000339585 3.95748e-07
0.000339585 -4.00834e-05 1.9552e-07
3.95748e-07 1.9552e-07 -4.48571e-06
0.00216221 -7.41549e-05 1.09128e-06
-7.41549e-05 9.98274e-05 -1.89808e-07
1.09128e-06 -1.89808e-07 3.76423e-05
0.00208063 -0.000257172 3.48372e-06
-0.000257172 4.32933e-05 -5.04599e-07
3.48372e-06 -5.04599e-07 -5.3695e-05
0.00218079 -0.000152859 -3.65834e-06
-0.000152859 1.98443e-05 5.01498e-07
-3.65834e-06 5.01498e-07 9.15938e-06
0.00226381 -0.000355913 -5.34919e-06
-0.000355913 8.62678e-05 1.18246e-06
-5.34919e-06 1.18246e-06 1.5695e-05
0.000543911 -0.000354987 -5.96718e-06
-0.000354987 -8.89674e-05 8.40597e-06
-5.96718e-06 8.40597e-06 -0.000436145
0.0020713 -0.000839207 -1.5726e-06
-0.000839207 0.00061456 -2.30776e-06
-1.5726e-06 -2.30776e-06 6.2724e-05
0.00202687 -0.000859009 -8.67181e-07
-0.000859009 0.000296012 -2.90367e-06
-8.67181e-07 -2.90367e-06 -0.00019805
0.00207784 -0.000533531 -2.89716e-06
-0.000533531 6.71835e-05 4.59306e-07
-2.89716e-06 4.59306e-07 -0.000116483
0.00232673 -0.000486814 -8.53437e-08
-0.000486814 5.93758e-05 -4.65261e-07
-8.53437e-08 -4.65261e-07 9.37657e-06
0.0022578 -0.000663139 -7.95688e-07
-0.000663139 0.000159434 6.81238e-07
-7.95688e-07 6.81238e-07 -3.54791e-05
0.00229228 -0.000774701 -4.1894e-07
-0.000774701 0.000338642 -4.08892e-06
-4.1894e-07 -4.08892e-06 -1.0506e-05
0.00234575 -0.000753154 3.07845e-06
-0.000753154 0.000289611 -4.20022e-07
3.07845e-06 -4.20022e-07 3.53453e-05
0.000641494 -0.000445111 6.35463e-06
-0.000445111 -3.59119e-06 -2.88555e-06
6.35463e-06 -2.88555e-06 -0.000444428
0.001267 -0.000475016 -1.25718e-05
-0.000475016 0.000421244 -3.22716e-06
-1.25718e-05 -3.22716e-06 -2.79454e-05
0.000464665 -0.00025096 -8.46865e-06
-0.00025096 4.29404e-05 1.4215e-06
-8.46865e-06 1.4215e-06 -0.000229426
-0.000476015 -0.000195179 -2.6438e-06
-0.000195179 -0.000607424 -4.0266e-06
-2.6438e-06 -4.0266e-06 -0.000905901
0.00218325 -8.75297e-05 -1.42898e-07
-8.75297e-05 4.32087e-05 3.94781e-08
-1.42898e-07 3.94781e-08 3.08628e-05
0.00217838 -0.000258074 1.86478e-06
-0.000258074 7.00732e-06 -4.50633e-07
1.86478e-06 -4.50633e-07 -3.11159e-05
0.00213955 -0.000149002 6.05255e-08
-0.000149002 -1.90662e-05 -1.70355e-07
6.05255e-08 -1.70355e-07 6.23307e-06
0.00227047 -0.000380415 -4.09603e-07
-0.000380415 -7.29443e-06 2.99386e-07
-4.09603e-07 2.99386e-07 -9.38114e-06
0.00160393 -0.00067088 -2.03279e-06
-0.00067088 0.000471721 4.49847e-08
-2.03279e-06 4.49847e-08 -3.94174e-05
0.00203201 -0.000983196 3.2381e-06
-0.000983196 0.000501131 -2.46016e-08
3.2381e-06 -2.46016e-08 -0.000109221
0.00245535 -0.000947966 -2.2696e-07
-0.000947966 0.000513895 7.68177e-07
-2.2696e-07 7.68177e-07 1.78801e-05
0.00231411 -0.000586523 -1.08544e-06
-0.000586523 0.000125217 1.26101e-07
-1.08544e-06 1.26101e-07 4.42028e-06
0.00235834 -0.000514377 8.29925e-07
-0.000514377 1.6143e-05 -3.65316e-07
8.29925e-07 -3.65316e-07 -1.18225e-05
0.00241521 -0.000791359 -1.41697e-06
-0.000791359 0.000422962 8.8806e-07
-1.41697e-06 8.8806e-07 8.06545e-05
0.00235278 -0.000731395 -1.05946e-06
-0.000731395 0.000139956 7.74991e-07
-1.05946e-06 7.74991e-07 -1.8406e-05
0.00240431 -0.000817295 6.52898e-06
-0.000817295 0.000261144 -4.51892e-06
6.52898e-06 -4.51892e-06 -1.70907e-06
0.00145124 -0.000709089 5.99953e-07
-0.000709089 0.000484744 -1.62938e-06
5.99953e-07 -1.62938e-06 -7.2559e-05
0.00163434 -0.000668418 -8.74426e-07
-0.000668418 0.000683253 1.07939e-06
-8.74426e-07 1.07939e-06 0.000120401
0.00102622 -0.000326663 1.02008e-07
-0.000326663 0.000371169 -4.10839e-06
1.02008e-07 -4.10839e-06 1.98566e-06
0.000159726 -0.000128747 -2.87587e-06
-0.000128747 -0.000116279 1.95109e-06
-2.87587e-06 1.95109e-06 -0.000372024
-0.000463267 -0.000201909 -1.04619e-06
-0.000201909 -0.000516306 1.30684e-06
-1.04619e-06 1.30684e-06 -0.000874002
0.00212815 -9.28886e-05 1.93701e-06
-9.28886e-05 -5.33095e-05 -3.96576e-08
1.93701e-06 -3.96576e-08 -1.56817e-05
0.00221096 -0.000225391 4.03739e-07
-0.000225391 -4.98991e-05 -8.03569e-07
4.03739e-07 -8.03569e-07 -1.50134e-05
0.00240287 -0.000461889 -1.32105e-06
-0.000461889 -5.62989e-05 -8.03659e-07
-1.32105e-06 -8.03659e-07 -1.65675e-05
0.00238543 -0.000623457 1.57992e-07
-0.000623457 5.02948e-05 8.07776e-07
1.57992e-07 8.07776e-07 -7.5504e-06
0.0018361 -0.000931426 4.58683e-06
-0.000931426 0.000601683 2.53965e-06
4.58683e-06 2.53965e-06 -3.44024e-05
0.0025798 -0.000872092 -3.71199e-06
-0.000872092 0.000174117 -1.09195e-06
-3.71199e-06 -1.09195e-06 -1.74074e-05
0.00153345 -0.00100795 -1.07886e-05
-0.00100795 0.000196642 8.95981e-06
-1.07886e-05 8.95981e-06 -0.000431664
0.00269415 -0.00101227 -1.56138e-06
-0.00101227 0.0006377 2.90932e-06
-1.56138e-06 2.90932e-06 0.00013082
0.00203912 -0.00076483 -1.38186e-05
-0.00076483 0.000151164 -2.39997e-06
-1.38186e-05 -2.39997e-06 -0.000171573
0.000169417 -9.46481e-05 8.61344e-07
-9.46481e-05 -0.000101597 -8.00749e-06
8.61344e-07 -8.00749e-06 -0.0002816
0.00057987 -0.000377038 -2.63832e-06
-0.000377038 0.000241059 3.56004e-06
-2.63832e-06 3.56004e-06 -0.000140846
0.00257116 -0.000345104 -1.04451e-05
-0.000345104 0.00142413 1.25231e-05
-1.04451e-05 1.25231e-05 0.00105456
0.00209552 -0.000867397 -2.29982e-06
-0.000867397 0.000884083 7.32655e-06
-2.29982e-06 7.32655e-06 0.00026859
0.00195938 -0.00051663 4.00897e-06
-0.00051663 0.000929761 4.37321e-06
4.00897e-06 4.37321e-06 0.000470982
0.0022772 -0.000836218 -4.49623e-06
-0.000836218 0.00105233 1.56813e-05
-4.49623e-06 1.56813e-05 0.00043174
0.000390923 3.6765e-05 -5.89127e-06
3.6765e-05 -3.97695e-05 -1.45157e-05
-5.89127e-06 -1.45157e-05 -0.000101499
0.000143793 8.88659e-05 -1.13478e-06
8.88659e-05 -0.00013115 -1.0755e-05
-1.13478e-06 -1.0755e-05 -0.000365816
0.00236938 0.000566538 -4.01207e-06
0.000566538 0.000211717 -6.27498e-07
-4.01207e-06 -6.27498e-07 2.82233e-05
-0.000371647 1.55573e-05 -2.08275e-06
1.55573e-05 -0.000466567 -6.7556e-07
-2.08275e-06 -6.7556e-07 -0.000810318
0.0029128 0.000576479 1.52363e-05
0.000576479 0.00147462 -5.27698e-06
1.52363e-05 -5.27698e-06 0.00109542
-0.000539588 0.000175563 -1.08632e-05
0.000175563 -0.000788352 1.55215e-06
-1.08632e-05 1.55215e-06 -0.00109498
0.00226601 0.000736488 2.04522e-06
0.000736488 0.00031086 3.1428e-06
2.04522e-06 3.1428e-06 -7.00362e-06
0.002337 0.000715429 3.14012e-06
0.000715429 0.000240752 1.07991e-06
3.14012e-06 1.07991e-06 -5.28684e-06
0.00199013 0.000934149 1.01565e-05
0.000934149 0.00073485 1.00717e-05
1.01565e-05 1.00717e-05 8.81655e-05
0.00287382 0.00103634 -2.08126e-06
0.00103634 0.000955576 9.66382e-06
-2.08126e-06 9.66382e-06 0.000412377
0.00255224 0.000868698 5.86257e-06
0.000868698 0.000434385 5.31691e-06
5.86257e-06 5.31691e-06 6.05048e-05
0.000788105 0.000146241 1.37845e-06
0.000146241 0.000236888 -7.4419e-08
1.37845e-06 -7.4419e-08 7.26901e-05
0.000913802 0.000227498 -2.70672e-06
0.000227498 0.000409315 7.06015e-07
-2.70672e-06 7.06015e-07 5.96947e-05
0.00102651 0.000642145 4.77359e-07
0.000642145 0.000273761 5.01944e-07
4.77359e-07 5.01944e-07 -0.000234624
0.000873075 0.000198397 -1.63994e-07
0.000198397 9.28754e-05 -1.88139e-06
-1.63994e-07 -1.88139e-06 -0.000187759
0.00139692 0.000445456 3.69213e-06
0.000445456 0.00027648 -5.04995e-06
3.69213e-06 -5.04995e-06 -7.49288e-05
0.00234376 0.00059962 -2.19867e-06
0.00059962 0.000118044 -1.01477e-06
-2.19867e-06 -1.01477e-06 -1.99342e-05
0.002373 0.000815523 2.56908e-06
0.000815523 0.000318589 5.32362e-07
2.56908e-06 5.32362e-07 -1.27489e-05
0.00236581 0.000788851 1.16107e-06
0.000788851 0.000197793 5.95228e-07
1.16107e-06 5.95228e-07 -5.18874e-05
0.00184437 0.00103955 2.33993e-06
0.00103955 0.000638259 1.15666e-06
2.33993e-06 1.15666e-06 -3.08269e-05
0.00213266 0.000980294 -2.26556e-06
0.000980294 0.000363679 -2.9548e-06
-2.26556e-06 -2.9548e-06 -0.00013139
0.00181504 0.000367448 2.56243e-06
0.000367448 0.000966094 5.12608e-06
2.56243e-06 5.12608e-06 0.000695778
-0.000271174 0.000183197 9.98048e-07
0.000183197 -0.000337211 -3.41117e-06
9.98048e-07 -3.41117e-06 -0.000712564
0.00179889 0.00083347 3.15772e-06
0.00083347 0.000754297 -7.68181e-06
3.15772e-06 -7.68181e-06 0.000181395
-0.00272823 0.000274858 5.45057e-06
0.000274858 -0.00226915 -3.83939e-06
5.45057e-06 -3.83939e-06 -0.00258706
0.00334835 0.000865561 4.93305e-06
0.000865561 0.00144119 -7.16944e-06
4.93305e-06 -7.16944e-06 0.000974317
0.00253111 0.000705177 -2.81726e-06
0.000705177 0.000100468 -6.35659e-07
-2.81726e-06 -6.35659e-07 1.46302e-05
0.00239445 0.000868177 9.00186e-06
0.000868177 0.000273953 -3.29886e-06
9.00186e-06 -3.29886e-06 -9.18022e-05
0.002269 0.000787077 7.43247e-06
0.000787077 5.73649e-05 8.4957e-08
7.43247e-06 8.4957e-08 -0.00020815
0.00205917 0.00109189 1.67265e-05
0.00109189 0.00068623 -3.03185e-08
1.67265e-05 -3.03185e-08 3.13991e-05
0.00253319 0.00116587 7.82113e-06
0.00116587 0.000660444 -7.62045e-07
7.82113e-06 -7.62045e-07 7.80274e-05
0.000512899 7.90786e-05 3.55144e-06
7.90786e-05 7.52041e-05 -1.01455e-05
3.55144e-06 -1.01455e-05 -6.2434e-05
0.000923095 0.000178055 7.27803e-08
0.000178055 0.000389004 -1.02031e-06
7.27803e-08 -1.02031e-06 0.000186496
-0.000230825 0.000108733 -3.58768e-06
0.000108733 -0.000362327 -1.48827e-05
-3.58768e-06 -1.48827e-05 -0.000502567
-0.00072508 -1.31422e-05 5.95837e-06
-1.31422e-05 -0.000657429 -3.42886e-06
5.95837e-06 -3.42886e-06 -0.000831441
0.000531229 0.000110599 -1.65975e-06
0.000110599 0.000163791 2.7526e-07
-1.65975e-06 2.7526e-07 -8.59029e-06
0.000232519 0.000116156 3.14178e-06
0.000116156 1.80824e-06 -4.61161e-07
3.14178e-06 -4.61161e-07 -0.000206562
0.00049194 0.000201923 -5.92588e-07
0.000201923 0.000165006 -9.65419e-06
-5.92588e-07 -9.65419e-06 -2.71535e-05
0.000357437 1.41637e-05 -6.8066e-06
1.41637e-05 9.61601e-05 3.05854e-06
-6.8066e-06 3.05854e-06 -0.000119272
0.000739669 0.000131065 -1.29311e-06
0.000131065 0.000273556 7.30581e-07
-1.29311e-06 7.30581e-07 0.000128783
0.000528708 9.46407e-05 1.86433e-06
9.46407e-05 9.92221e-05 4.03814e-06
1.86433e-06 4.03814e-06 2.31615e-06
0.000439666 3.67833e-05 -2.91531e-06
3.67833e-05 3.47448e-05 1.07108e-07
-2.91531e-06 1.07108e-07 -5.90437e-05
0.00139958 7.06923e-06 2.35044e-06
7.06923e-06 0.000621778 4.96587e-06
2.35044e-06 4.96587e-06 0.000594602
0.000259137 -8.43247e-05 7.53486e-06
-8.43247e-05 -6.68144e-05 -5.11391e-06
7.53486e-06 -5.11391e-06 -0.000173792
0.00144751 3.82907e-06 -1.24877e-05
3.82907e-06 0.000650904 -1.94598e-06
-1.24877e-05 -1.94598e-06 0.000622145
0.000722634 -1.44493e-05 4.2074e-05
-1.44493e-05 0.000171438 1.09552e-05
4.2074e-05 1.09552e-05 0.000173259
0.00151084 -2.63494e-07 -1.97053e-05
-2.63494e-07 0.000691057 -1.00234e-05
-1.97053e-05 -1.00234e-05 0.000658518
0.000749272 -3.24401e-05 2.06593e-05
-3.24401e-05 0.000189198 4.33746e-06
2.06593e-05 4.33746e-06 0.0001826
0.00339123 -0.000146802 5.34823e-06
-0.000146802 0.00193381 -4.9953e-06
5.34823e-06 -4.9953e-06 0.00192041
0.000166752 7.61899e-05 -4.24522e-06
7.61899e-05 -0.000137036 -8.36251e-06
-4.24522e-06 -8.36251e-06 -0.000199506
0.000320729 -4.11912e-05 -4.56415e-06
-4.11912e-05 -6.38942e-05 7.34517e-07
-4.56415e-06 7.34517e-07 -0.000138004
0.00369329 0.000206417 -2.15271e-05
0.000206417 0.00216651 -1.11258e-05
-2.15271e-05 -1.11258e-05 0.0021374
0.000818754 -0.000163583 -2.01155e-05
-0.000163583 0.000229053 1.43941e-05
-2.01155e-05 1.43941e-05 0.000117201
0.00499908 0.000166088 -4.81879e-05
0.000166088 0.00302288 -6.33239e-08
-4.81879e-05 -6.33239e-08 0.00299665
0.00633047 0.000142954 -0.000205663
0.000142954 0.00391072 3.63471e-05
-0.000205663 3.63471e-05 0.00388183
0.00235822 0.000473854 -4.31934e-06
0.000473854 0.000129865 -3.45022e-07
-4.31934e-06 -3.45022e-07 2.28791e-05
0.00220774 0.000236773 -5.55615e-06
0.000236773 3.46069e-05 -9.57733e-07
-5.55615e-06 -9.57733e-07 8.4928e-06
0.00225395 0.000333713 1.77267e-07
0.000333713 -5.68123e-05 4.29591e-07
1.77267e-07 4.29591e-07 -4.63905e-05
0.0021332 0.000147743 -8.17938e-07
0.000147743 -6.84018e-05 -3.31833e-07
-8.17938e-07 -3.31833e-07 -3.60642e-05
0.00209996 5.80673e-05 -5.24587e-06
5.80673e-05 -2.1362e-05 -9.77145e-08
-5.24587e-06 -9.77145e-08 -2.63574e-05
0.00212405 -4.99681e-06 -1.46235e-06
-4.99681e-06 7.10124e-05 -1.5721e-08
-1.46235e-06 -1.5721e-08 1.22908e-05
0.00212799 -1.25272e-05 1.91443e-07
-1.25272e-05 4.00601e-07 -4.00432e-09
1.91443e-07 -4.00432e-09 -4.65828e-06
0.00221241 6.44388e-05 6.57442e-07
6.44388e-05 5.43823e-06 -2.23325e-08
6.57442e-07 -2.23325e-08 3.94772e-05
0.00221469 0.000217707 -4.87304e-07
0.000217707 -2.95269e-05 -7.41708e-08
-4.87304e-07 -7.41708e-08 -1.31706e-05
0.00227076 0.000154678 6.24139e-07
0.000154678 -7.30809e-05 1.12513e-07
6.24139e-07 1.12513e-07 1.47516e-06
0.00236358 0.000474554 -3.63409e-07
0.000474554 4.94626e-05 3.39002e-08
-3.63409e-07 3.39002e-08 3.9228e-06
0.00239524 0.000342447 2.09048e-06
0.000342447 -5.36391e-05 6.58508e-07
2.09048e-06 6.58508e-07 -9.63916e-06
0.00213962 -1.64805e-05 1.01447e-06
-1.64805e-05 -4.35195e-05 -1.14599e-08
1.01447e-06 -1.14599e-08 -1.16637e-05
0.00229942 7.79884e-05 1.18156e-06
7.79884e-05 -6.98046e-05 -2.96754e-07
1.18156e-06 -2.96754e-07 1.7295e-05
0.0023775 0.000225818 -1.289e-06
0.000225818 -5.66718e-05 3.38336e-07
-1.289e-06 3.38336e-07 1.93924e-05
0.00250792 0.000496723 -1.95408e-06
0.000496723 -2.47859e-05 -3.12878e-08
-1.95408e-06 -3.12878e-08 1.38243e-05
0.00219221 -8.76724e-05 -6.35068e-06
-8.76724e-05 4.71657e-05 5.42094e-07
-6.35068e-06 5.42094e-07 3.48839e-05
0.00224046 -0.000262819 -3.67891e-06
-0.000262819 5.47883e-05 8.45324e-07
-3.67891e-06 8.45324e-07 1.57113e-05
0.00208813 -0.00014789 -2.08844e-06
-0.00014789 -5.87152e-05 5.07947e-07
-2.08844e-06 5.07947e-07 -3.12923e-05
0.00226956 -0.000379575 -2.75137e-06
-0.000379575 -5.19334e-07 5.16652e-07
-2.75137e-06 5.16652e-07 -1.05977e-05
0.00146777 -0.000651104 9.53736e-06
-0.000651104 0.000375615 -2.16056e-06
9.53736e-06 -2.16056e-06 -0.000128603
0.00197939 -0.000977802 4.43625e-06
-0.000977802 0.000469291 -4.99884e-06
4.43625e-06 -4.99884e-06 -0.000142153
0.00245572 -0.000968169 -5.87607e-06
-0.000968169 0.000511712 -3.19555e-06
-5.87607e-06 -3.19555e-06 3.18781e-06
0.00233748 -0.000585912 -3.07366e-06
-0.000585912 0.000150416 9.54701e-07
-3.07366e-06 9.54701e-07 2.30395e-05
0.00234832 -0.000513528 2.44223e-06
-0.000513528 1.05033e-05 -5.59115e-07
2.44223e-06 -5.59115e-07 -9.39932e-06
0.00233 -0.000732725 -1.90464e-06
-0.000732725 0.000118899 1.36094e-06
-1.90464e-06 1.36094e-06 -4.00184e-05
0.00241129 -0.000787943 1.49531e-06
-0.000787943 0.000429632 -1.33642e-06
1.49531e-06 -1.33642e-06 8.81361e-05
0.00246745 -0.00081497 9.4007e-06
-0.00081497 0.000300451 1.3809e-07
9.4007e-06 1.3809e-07 4.04829e-05
0.0018823 -0.000759173 -2.12765e-05
-0.000759173 0.000798658 -2.93603e-06
-2.12765e-05 -2.93603e-06 0.000225763
0.00100369 -0.000601589 7.9644e-06
-0.000601589 0.000272796 -1.51175e-05
7.9644e-06 -1.51175e-05 -0.000267619
0.00263382 -0.000407111 -5.01829e-06
-0.000407111 0.00135847 -6.64629e-06
-5.01829e-06 -6.64629e-06 0.000995603
-7.49008e-05 -4.76393e-05 3.49634e-06
-4.76393e-05 -0.000261618 4.879e-06
3.49634e-06 4.879e-06 -0.000514327
-0.000262574 -0.000127423 8.52351e-06
-0.000127423 -0.000383642 -1.24759e-05
8.52351e-06 -1.24759e-05 -0.000734475
0.00211729 -0.000100308 1.00033e-07
-0.000100308 -5.93698e-05 -7.8342e-08
1.00033e-07 -7.8342e-08 -2.26906e-05
0.00223521 -0.000227198 1.80731e-06
-0.000227198 -3.68836e-05 -2.55095e-09
1.80731e-06 -2.55095e-09 -3.23094e-06
0.00240091 -0.000455545 -9.45531e-07
-0.000455545 -3.84841e-05 3.08039e-07
-9.45531e-07 3.08039e-07 -8.81049e-06
0.00208927 -0.00094051 -2.02716e-06
-0.00094051 0.000759575 -1.06699e-07
-2.02716e-06 -1.06699e-07 0.000127695
0.00169024 -0.0010113 6.71818e-06
-0.0010113 0.000294203 -1.37306e-06
6.71818e-06 -1.37306e-06 -0.00033177
0.00253414 -0.00101486 -1.65003e-06
-0.00101486 0.000539106 2.24323e-07
-1.65003e-06 2.24323e-07 2.47306e-05
0.00239014 -0.000616239 4.18608e-07
-0.000616239 5.94199e-05 -4.78775e-07
4.18608e-07 -4.78775e-07 1.10692e-07
0.00232374 -0.000817425 3.53956e-06
-0.000817425 0.000294269 -4.20036e-06
3.53956e-06 -4.20036e-06 -3.48155e-05
0.00257865 -0.00085905 -1.2477e-06
-0.00085905 0.000205543 -6.99388e-07
-1.2477e-06 -6.99388e-07 1.85912e-05
-0.000425754 7.5768e-06 -1.90433e-06
7.5768e-06 -0.000507877 -4.37713e-07
-1.90433e-06 -4.37713e-07 -0.000665742
0.00170481 -0.000803643 1.16394e-06
-0.000803643 0.000660847 -1.98287e-07
1.16394e-06 -1.98287e-07 5.46597e-05
0.00173109 -0.000774836 -4.90265e-06
-0.000774836 0.000738684 -6.69136e-07
-4.90265e-06 -6.69136e-07 9.82932e-05
0.00126516 -0.000438553 -1.81216e-06
-0.000438553 0.000469436 2.95231e-06
-1.81216e-06 2.95231e-06 3.71017e-06
0.00186747 -0.000456579 1.34929e-06
-0.000456579 0.000982587 -3.03689e-07
1.34929e-06 -3.03689e-07 0.000591088
0.000551425 -0.000204899 -6.31304e-07
-0.000204899 0.000204352 7.49456e-07
-6.31304e-07 7.49456e-07 -0.000169341
0.00225179 -0.000128117 4.72075e-09
-0.000128117 -8.14657e-05 -1.8496e-07
4.72075e-09 -1.8496e-07 -7.09867e-06
0.00242785 -0.000303079 1.08414e-06
-0.000303079 -9.72821e-05 -6.97287e-07
1.08414e-06 -6.97287e-07 6.25944e-06
0.00249654 -0.000570226 -1.68566e-06
-0.000570226 -3.57091e-05 1.57312e-07
-1.68566e-06 1.57312e-07 7.52498e-06
0.00251892 -0.000747467 -2.26981e-06
-0.000747467 2.09423e-05 1.03552e-06
-2.26981e-06 1.03552e-06 -5.3742e-06
0.0023771 -0.00106217 -6.5793e-06
-0.00106217 0.00093313 5.08501e-06
-6.5793e-06 5.08501e-06 0.000263672
0.00254476 -0.000977892 -3.1572e-06
-0.000977892 0.00027251 -4.97202e-06
-3.1572e-06 -4.97202e-06 -3.70784e-05
0.0023879 -0.00120499 -6.03104e-05
-0.00120499 0.000710048 1.02619e-05
-6.03104e-05 1.02619e-05 1.12429e-05
0.00219089 -0.00102062 -3.09936e-05
-0.00102062 0.000354396 2.70851e-06
-3.09936e-05 2.70851e-06 -0.000164275
-0.000449899 3.19869e-05 -3.20094e-06
3.19869e-05 -0.000536858 -4.76658e-06
-3.20094e-06 -4.76658e-06 -0.000645159
0.00118546 -5.53801e-05 -8.23975e-07
-5.53801e-05 0.000630362 2.67599e-06
-8.23975e-07 2.67599e-06 0.00033072
0.00237572 -0.000444815 -8.93773e-06
-0.000444815 0.00138375 5.54925e-06
-8.93773e-06 5.54925e-06 0.000974543
-1.13932e-06 -0.000313506 -8.96085e-06
-0.000313506 -0.000231627 5.84812e-06
-8.96085e-06 5.84812e-06 -0.000615788
0.00255803 -0.00094128 -2.93083e-06
-0.00094128 0.00116735 2.10167e-05
-2.93083e-06 2.10167e-05 0.000539377
0.00198412 -0.000784509 3.87204e-06
-0.000784509 0.000924563 1.55338e-05
3.87204e-06 1.55338e-05 0.000235593
0.000571026 0.000117977 1.64779e-06
0.000117977 0.000100969 -1.04141e-05
1.64779e-06 -1.04141e-05 -6.08765e-05
-0.00057877 9.93224e-05 2.06326e-07
9.93224e-05 -0.000563309 -3.37379e-06
2.06326e-07 -3.37379e-06 -0.000888316
0.00235189 0.000600417 -1.13404e-06
0.000600417 0.000135957 -3.77668e-07
-1.13404e-06 -3.77668e-07 -3.46181e-06
0.000275568 0.000158498 -4.61696e-06
0.000158498 -0.00027865 6.51424e-06
-4.61696e-06 6.51424e-06 -0.000559733
0.00187447 0.000762899 9.84067e-06
0.000762899 0.000802952 -2.2431e-06
9.84067e-06 -2.2431e-06 0.000246728
0.000243911 0.000230612 -8.07948e-06
0.000230612 -0.000443891 -2.37595e-06
-8.07948e-06 -2.37595e-06 -0.000726181
0.00249404 0.000829856 5.12116e-06
0.000829856 0.000379347 1.59968e-06
5.12116e-06 1.59968e-06 4.48788e-05
0.00238317 0.000793282 -3.3044e-06
0.000793282 0.000188656 4.85925e-07
-3.3044e-06 4.85925e-07 -6.273e-05
0.00223987 0.00110821 -4.0881e-06
0.00110821 0.000852568 7.2967e-06
-4.0881e-06 7.2967e-06 0.000171959
0.00213846 0.000990499 -7.57037e-06
0.000990499 0.000406035 3.1677e-06
-7.57037e-06 3.1677e-06 -0.000100894
0.000742736 0.000262239 -3.73351e-07
0.000262239 0.000273408 -4.30473e-07
-3.73351e-07 -4.30473e-07 1.45849e-05
0.000871477 0.00031396 1.96428e-06
0.00031396 0.000372906 -3.0017e-06
1.96428e-06 -3.0017e-06 -1.4425e-05
0.00155758 0.000788679 -2.83672e-06
0.000788679 0.000608768 -1.9745e-07
-2.83672e-06 -1.9745e-07 4.73212e-05
0.000607595 0.000356686 -3.99124e-06
0.000356686 -0.000177948 2.36356e-06
-3.99124e-06 2.36356e-06 -0.000481428
0.00287189 0.00078023 8.26078e-07
0.00078023 0.00113075 2.33785e-07
8.26078e-07 2.33785e-07 0.000686389
0.00256506 0.000712661 -2.46615e-06
0.000712661 0.000103649 -4.90367e-07
-2.46615e-06 -4.90367e-07 1.46932e-05
0.00254047 0.000856396 2.85849e-06
0.000856396 0.000373007 -7.51002e-07
2.85849e-06 -7.51002e-07 2.07526e-05
0.00261612 0.000820305 5.72783e-07
0.000820305 0.000281914 2.73565e-06
5.72783e-07 2.73565e-06 7.051e-06
0.00201435 0.00109885 4.81804e-06
0.00109885 0.000650059 1.38016e-06
4.81804e-06 1.38016e-06 -1.1489e-05
0.00243877 0.00120629 -5.24162e-06
0.00120629 0.000608649 8.28872e-07
-5.24162e-06 8.28872e-07 -1.69632e-06
-0.00176451 2.7934e-06 -1.09179e-05
2.7934e-06 -0.00130128 2.54148e-06
-1.09179e-05 2.54148e-06 -0.00153296
-0.00304708 0.000314286 -1.77911e-06
0.000314286 -0.00187677 -5.17055e-06
-1.77911e-06 -5.17055e-06 -0.00235114
0.00205581 0.000905034 1.14495e-05
0.000905034 0.000789877 -4.82227e-06
1.14495e-05 -4.82227e-06 0.000219385
0.0011114 0.000461714 6.32936e-06
0.000461714 3.07611e-05 -7.42615e-06
6.32936e-06 -7.42615e-06 -0.00029463
0.00270548 0.000665591 4.70829e-07
0.000665591 -0.000150753 7.32776e-07
4.70829e-07 7.32776e-07 -2.92349e-05
0.00265178 0.000856994 7.30666e-06
0.000856994 0.000167392 3.15298e-07
7.30666e-06 3.15298e-07 -1.56982e-05
0.00268595 0.00106195 1.11894e-05
0.00106195 0.000467331 -4.03633e-06
1.11894e-05 -4.03633e-06 -2.1921e-05
0.00218631 0.00123258 6.41187e-06
0.00123258 0.000562964 -4.34241e-07
6.41187e-06 -4.34241e-07 -0.000134772
0.00148756 0.000237144 3.89903e-06
0.000237144 0.000790786 4.25385e-07
3.89903e-06 4.25385e-07 0.000556083
0.000403857 0.000209822 -4.8455e-06
0.000209822 8.91316e-05 1.11862e-06
-4.8455e-06 1.11862e-06 -8.73097e-05
0.000621386 0.000132631 -8.48288e-06
0.000132631 0.000246611 -6.63968e-06
-8.48288e-06 -6.63968e-06 0.000123378
4.42194e-05 4.54403e-05 2.86614e-06
4.54403e-05 -0.00017479 -3.46374e-06
2.86614e-06 -3.46374e-06 -0.000328376
-0.00144001 5.62595e-05 2.57191e-07
5.62595e-05 -0.0010293 6.46349e-07
2.57191e-07 6.46349e-07 -0.00124674
0.000747244 8.3968e-05 -1.02399e-06
8.3968e-05 0.000281059 -7.09901e-08
-1.02399e-06 -7.09901e-08 0.000133184
0.000705899 0.000237972 3.82651e-06
0.000237972 0.000345805 2.48901e-06
3.82651e-06 2.48901e-06 0.000143379
0.000659182 0.000102524 1.17851e-06
0.000102524 0.000320755 2.38977e-06
1.17851e-06 2.38977e-06 7.93273e-05
0.000477053 0.000138531 -2.9847e-06
0.000138531 7.32036e-05 -1.01489e-05
-2.9847e-06 -1.01489e-05 -1.7094e-05
0.000651461 7.5852e-05 -3.60181e-06
7.5852e-05 0.000320456 -5.19827e-06
-3.60181e-06 -5.19827e-06 7.50714e-05
-0.00012519 7.71031e-05 -2.13514e-06
7.71031e-05 -0.000239036 2.90495e-06
-2.13514e-06 2.90495e-06 -0.000431269
0.000748023 0.000143436 2.00297e-06
0.000143436 0.000278349 2.92256e-06
2.00297e-06 2.92256e-06 0.00012976
0.000445465 9.66913e-05 2.47017e-06
9.66913e-05 5.1945e-05 4.07263e-06
2.47017e-06 4.07263e-06 -4.86518e-05
0.000425509 2.16072e-05 -1.91882e-06
2.16072e-05 2.84567e-05 -4.2123e-07
-1.91882e-06 -4.2123e-07 -6.51026e-05
0.00128885 1.88665e-05 5.67435e-07
1.88665e-05 0.000554904 3.75248e-06
5.67435e-07 3.75248e-06 0.000528436
0.000424281 -4.89328e-05 3.12316e-06
-4.89328e-05 2.17343e-05 -4.11683e-06
3.12316e-06 -4.11683e-06 -6.88852e-05
0.00135985 4.40728e-06 -1.105e-05
4.40728e-06 0.000597736 -1.91375e-06
-1.105e-05 -1.91375e-06 0.000571282
0.000641203 -5.14853e-06 3.81785e-05
-5.14853e-06 0.000120798 1.0855e-05
3.81785e-05 1.0855e-05 0.00012398
0.00139286 -3.38076e-05 -1.2441e-05
-3.38076e-05 0.000617765 -9.02435e-06
-1.2441e-05 -9.02435e-06 0.000589643
0.000710864 -2.24714e-05 1.70516e-05
-2.24714e-05 0.000162767 4.01366e-06
1.70516e-05 4.01366e-06 0.000161292
0.000641611 -3.68135e-05 3.19188e-06
-3.68135e-05 0.000121336 -4.50714e-06
3.19188e-06 -4.50714e-06 0.000112121
0.000330274 3.84949e-05 -7.69268e-07
3.84949e-05 -6.64161e-05 -6.60964e-06
-7.69268e-07 -6.60964e-06 -0.000105348
0.000453158 4.78925e-05 -1.63463e-06
4.78925e-05 2.71157e-05 7.48332e-08
-1.63463e-06 7.48332e-08 -2.58842e-05
0.0029775 0.000157762 -1.71393e-05
0.000157762 0.00168451 -9.3376e-06
-1.71393e-05 -9.3376e-06 0.00166961
0.000631811 -4.8448e-05 -1.50075e-05
-4.8448e-05 0.000136753 1.26833e-05
-1.50075e-05 1.26833e-05 5.68716e-05
0.00382888 0.000165797 -2.71671e-05
0.000165797 0.00224144 -2.04726e-06
-2.71671e-05 -2.04726e-06 0.00222037
0.00514797 6.95809e-05 -0.000191188
6.95809e-05 0.00310864 2.81132e-05
-0.000191188 2.81132e-05 0.00310487
0.00236845 0.000474532 8.54086e-08
0.000474532 5.74652e-05 5.84923e-07
8.54086e-08 5.84923e-07 1.05261e-05
0.00224016 0.000219055 -1.66834e-06
0.000219055 -6.27115e-06 -6.96504e-07
-1.66834e-06 -6.96504e-07 9.07251e-06
0.00237151 0.000344561 1.99612e-06
0.000344561 -6.84964e-05 1.40865e-06
1.99612e-06 1.40865e-06 -1.60337e-05
0.00224389 0.000155009 4.37239e-07
0.000155009 -9.54852e-05 -3.00418e-07
4.37239e-07 -3.00418e-07 -1.22867e-05
0.00219691 6.73133e-05 -2.39445e-06
6.73133e-05 3.61081e-07 1.2494e-07
-2.39445e-06 1.2494e-07 2.96096e-05
0.00217035 -1.53212e-05 -6.31775e-06
-1.53212e-05 3.31675e-05 9.81975e-08
-6.31775e-06 9.81975e-08 2.58946e-05
0.00215626 -1.57883e-05 7.30251e-07
-1.57883e-05 -3.08289e-05 1.06847e-08
7.30251e-07 1.06847e-08 2.46684e-06
0.00227306 8.24523e-05 4.60375e-07
8.24523e-05 -8.2797e-05 1.2139e-07
4.60375e-07 1.2139e-07 3.03977e-06
0.00237073 0.000231564 9.20679e-07
0.000231564 -6.24974e-05 1.70729e-07
9.20679e-07 1.70729e-07 1.57072e-05
0.00248326 0.000480824 5.16642e-07
0.000480824 -4.35854e-05 2.24297e-07
5.16642e-07 2.24297e-07 -1.52765e-07
0.00226686 -1.64161e-05 -3.07605e-07
-1.64161e-05 -7.91977e-05 -1.55227e-07
-3.07605e-07 -1.55227e-07 7.15502e-08
0.00241261 0.000133146 -4.39557e-07
0.000133146 -0.000115127 9.89943e-07
-4.39557e-07 9.89943e-07 2.7195e-05
0.00263332 0.000342219 -1.6473e-06
0.000342219 -6.38712e-05 1.50813e-07
-1.6473e-06 1.50813e-07 5.16531e-05
0.00210475 -0.000107576 -1.50986e-06
-0.000107576 -6.63338e-05 -6.10898e-08
-1.50986e-06 -6.10898e-08 -3.04345e-05
0.0022587 -0.000228174 -1.91199e-06
-0.000228174 -2.3439e-05 2.89973e-07
-1.91199e-06 2.89973e-07 9.02453e-06
0.0023908 -0.00044834 2.90491e-07
-0.00044834 -2.57171e-05 4.63255e-07
2.90491e-07 4.63255e-07 -6.30364e-06
0.00212 -0.000933041 -5.63993e-06
-0.000933041 0.000759116 -3.53554e-06
-5.63993e-06 -3.53554e-06 0.000133649
0.00183996 -0.00100519 1.39871e-05
-0.00100519 0.000392943 -7.37477e-06
1.39871e-05 -7.37477e-06 -0.000226131
0.00236115 -0.0010128 2.96789e-06
-0.0010128 0.000435286 -1.67014e-06
2.96789e-06 -1.67014e-06 -8.33431e-05
0.0023999 -0.00061045 -1.36132e-07
-0.00061045 7.0034e-05 -8.13333e-08
-1.36132e-07 -8.13333e-08 9.27374e-06
0.0025769 -0.000846129 3.36279e-06
-0.000846129 0.000232989 9.57829e-07
3.36279e-06 9.57829e-07 5.53242e-05
0.00250532 -0.000861229 1.32695e-05
-0.000861229 0.000375953 -4.88715e-06
1.32695e-05 -4.88715e-06 4.3405e-05
0.00140003 -0.000753708 -2.49761e-06
-0.000753708 0.000487582 -7.03816e-06
-2.49761e-06 -7.03816e-06 -0.00011047
0.00200565 -0.000824547 2.19899e-06
-0.000824547 0.000906681 -2.53969e-05
2.19899e-06 -2.53969e-05 0.000260134
0.00219324 -0.000552836 -5.32951e-06
-0.000552836 0.00111804 1.11464e-05
-5.32951e-06 1.11464e-05 0.000603202
4.48901e-05 2.10074e-05 5.81988e-06
2.10074e-05 -0.000202107 3.29446e-06
5.81988e-06 3.29446e-06 -0.000358543
0.00081839 -0.000397009 1.24967e-05
-0.000397009 0.000260297 -1.9063e-05
1.24967e-05 -1.9063e-05 -9.66271e-05
-0.000222303 -0.000122373 7.43977e-06
-0.000122373 -0.000307479 -4.49401e-06
7.43977e-06 -4.49401e-06 -0.000675698
0.00227423 -0.000121533 -3.14884e-07
-0.000121533 -6.55873e-05 6.47807e-08
-3.14884e-07 6.47807e-08 6.22386e-06
0.00240569 -0.000315445 4.18229e-07
-0.000315445 -0.000120168 -1.17577e-08
4.18229e-07 -1.17577e-08 -1.20669e-05
0.00249208 -0.000558723 -5.20756e-07
-0.000558723 -3.43603e-05 -2.2637e-08
-5.20756e-07 -2.2637e-08 8.02662e-06
0.00211258 -0.00102934 -2.2979e-06
-0.00102934 0.00076141 9.94453e-07
-2.2979e-06 9.94453e-07 0.00010217
0.00222042 -0.00116978 1.06529e-05
-0.00116978 0.000622901 -1.91811e-06
1.06529e-05 -1.91811e-06 -6.05676e-05
0.00240342 -0.00103001 -1.44048e-06
-0.00103001 0.000472619 -2.61056e-06
-1.44048e-06 -2.61056e-06 -3.46803e-05
0.00253792 -0.000761123 6.36424e-07
-0.000761123 3.40055e-05 -3.04785e-07
6.36424e-07 -3.04785e-07 -4.56017e-06
0.00252616 -0.000954506 2.26887e-06
-0.000954506 0.000284678 -1.67327e-06
2.26887e-06 -1.67327e-06 -1.04988e-05
0.000129613 6.3252e-05 -2.5226e-06
6.3252e-05 -0.000153987 -2.83604e-06
-2.5226e-06 -2.83604e-06 -0.000262203
0.000810279 -0.000102514 -2.02149e-06
-0.000102514 0.000369319 1.05606e-06
-2.02149e-06 1.05606e-06 8.56092e-05
0.00127648 -0.000783372 -3.24313e-06
-0.000783372 0.000382878 3.67779e-07
-3.24313e-06 3.67779e-07 -0.000194162
0.00162374 -0.000694684 -7.71753e-06
-0.000694684 0.000729041 3.64209e-06
-7.71753e-06 3.64209e-06 5.92433e-05
0.00105149 -0.000256315 1.24923e-06
-0.000256315 0.000379738 -1.00729e-05
1.24923e-06 -1.00729e-05 -3.20951e-06
0.00131061 -0.000418505 -4.03902e-06
-0.000418505 0.000695102 1.26695e-06
-4.03902e-06 1.26695e-06 0.000299955
0.00237852 -0.000157601 6.65828e-07
-0.000157601 -0.000138395 -1.23576e-06
6.65828e-07 -1.23576e-06 6.1868e-06
0.00261199 -0.000467145 3.02494e-07
-0.000467145 -0.000158424 -1.42419e-06
3.02494e-07 -1.42419e-06 2.14729e-05
0.00256247 -0.000708103 -2.77495e-07
-0.000708103 -6.67506e-05 1.76685e-06
-2.77495e-07 1.76685e-06 -2.56592e-05
0.00269743 -0.00096528 4.58714e-08
-0.00096528 0.000166943 -5.5854e-07
4.58714e-08 -5.5854e-07 1.60409e-05
0.00117888 -0.000930571 -8.96543e-06
-0.000930571 0.000238139 -2.5896e-06
-8.96543e-06 -2.5896e-06 -0.000378936
0.00266347 -0.00114811 3.12993e-06
-0.00114811 0.000538592 -2.22734e-06
3.12993e-06 -2.22734e-06 4.186e-05
0.00245199 -0.001307 -7.16253e-05
-0.001307 0.000687282 5.85774e-06
-7.16253e-05 5.85774e-06 -3.71565e-05
0.000498204 5.01456e-05 5.03581e-07
5.01456e-05 6.4558e-05 -2.8193e-06
5.03581e-07 -2.8193e-06 -1.5642e-05
0.000755444 -0.000163395 5.99444e-06
-0.000163395 0.00030888 -7.01396e-06
5.99444e-06 -7.01396e-06 0.000164008
-0.000303013 7.24594e-05 -6.10135e-06
7.24594e-05 -0.000371245 -1.61324e-06
-6.10135e-06 -1.61324e-06 -0.00055823
0.000534512 -0.000162539 -6.02951e-06
-0.000162539 0.000206309 8.14737e-06
-6.02951e-06 8.14737e-06 -0.000126313
0.00168864 -0.000232689 -7.81748e-06
-0.000232689 0.000848514 -8.71432e-06
-7.81748e-06 -8.71432e-06 0.000511477
0.00151859 -0.000365938 -1.21342e-05
-0.000365938 0.000799865 1.89503e-06
-1.21342e-05 1.89503e-06 0.000257691
0.00125663 -0.000859995 -1.25261e-05
-0.000859995 0.000347724 3.93359e-05
-1.25261e-05 3.93359e-05 -0.000235326
0.00476945 -0.00117121 -3.02494e-05
-0.00117121 0.00261217 1.72368e-05
-3.02494e-05 1.72368e-05 0.00177585
1.96323e-05 0.000135428 4.03622e-06
0.000135428 -0.000218777 -2.25763e-06
4.03622e-06 -2.25763e-06 -0.000450356
0.00229443 0.000481307 2.54379e-06
0.000481307 0.00124454 2.9379e-06
2.54379e-06 2.9379e-06 0.00084862
0.00260196 0.000721902 -5.03292e-07
0.000721902 0.000107536 -6.18421e-07
-5.03292e-07 -6.18421e-07 1.41453e-05
0.00266049 0.000318288 1.83268e-07
0.000318288 0.00106437 3.1359e-06
1.83268e-07 3.1359e-06 0.000771767
0.00125394 0.000736638 1.44355e-06
0.000736638 0.000423748 6.4194e-07
1.44355e-06 6.4194e-07 -0.000127051
0.00291436 0.000765305 -3.01983e-06
0.000765305 0.0011448 9.18904e-06
-3.01983e-06 9.18904e-06 0.000703699
0.0026633 0.000840666 -4.93808e-06
0.000840666 0.000457639 2.26682e-07
-4.93808e-06 2.26682e-07 0.00012037
0.00295826 0.000853765 -5.00377e-06
0.000853765 0.000503036 6.84692e-06
-5.00377e-06 6.84692e-06 0.000218237
0.00194079 0.00110296 -5.52086e-06
0.00110296 0.000594222 3.23482e-06
-5.52086e-06 3.23482e-06 -7.21575e-05
0.00226173 0.00123972 -1.54e-05
0.00123972 0.000506053 -3.75494e-07
-1.54e-05 -3.75494e-07 -0.000130017
-0.000568559 0.000104288 1.92438e-06
0.000104288 -0.000499207 1.94074e-06
1.92438e-06 1.94074e-06 -0.000785645
-0.000228276 0.000434297 5.4191e-06
0.000434297 -0.000108913 -2.71111e-06
5.4191e-06 -2.71111e-06 -0.000586437
0.00185308 0.000904804 6.33706e-08
0.000904804 0.000621108 -6.07363e-07
6.33706e-08 -6.07363e-07 4.00488e-05
0.00233094 0.000601864 -5.96031e-06
0.000601864 0.000857919 -7.62594e-08
-5.96031e-06 -7.62594e-08 0.000490919
0.00266015 0.00063735 1.01301e-07
0.00063735 -0.000215211 -8.20892e-07
1.01301e-07 -8.20892e-07 -6.93614e-05
0.00280475 0.000870433 3.21992e-06
0.000870433 0.000254401 -7.02861e-07
3.21992e-06 -7.02861e-07 5.56624e-05
0.00247724 0.00101579 -3.9588e-06
0.00101579 0.000389452 -3.35863e-07
-3.9588e-06 -3.35863e-07 -8.26676e-05
0.00245647 0.00124639 1.79644e-06
0.00124639 0.000709196 7.67064e-07
1.79644e-06 7.67064e-07 1.96433e-05
-0.00123616 -4.71789e-06 -4.88232e-06
-4.71789e-06 -0.000894077 -1.80548e-06
-4.88232e-06 -1.80548e-06 -0.00110472
0.00262663 0.000441467 -2.18704e-06
0.000441467 -0.000254911 5.53907e-08
-2.18704e-06 5.53907e-08 -7.87445e-05
0.00354858 0.000824262 -7.75096e-06
0.000824262 0.00223182 8.53862e-06
-7.75096e-06 8.53862e-06 0.0016721
0.00174088 0.000829568 2.2095e-06
0.000829568 0.000447509 -3.08592e-06
2.2095e-06 -3.08592e-06 -6.65284e-05
0.00277059 0.000848278 -1.6941e-05
0.000848278 1.51965e-06 -1.01946e-05
-1.6941e-05 -1.01946e-05 4.81843e-05
0.0014973 0.000937092 8.1939e-06
0.000937092 -0.000291466 -1.06961e-05
8.1939e-06 -1.06961e-05 -0.000720509
0.0032692 0.00137263 5.01386e-06
0.00137263 0.00112722 4.05822e-06
5.01386e-06 4.05822e-06 0.000404881
8.03633e-06 0.000142626 1.1694e-06
0.000142626 -0.000142912 5.57903e-06
1.1694e-06 5.57903e-06 -0.000336436
0.00047269 0.000153225 -1.66165e-06
0.000153225 0.000164142 -5.51493e-07
-1.66165e-06 -5.51493e-07 3.37691e-05
-0.000107637 7.7356e-05 -5.42123e-06
7.7356e-05 -0.000150858 -4.515e-06
-5.42123e-06 -4.515e-06 -0.000253083
0.00015589 -9.71272e-08 2.76246e-06
-9.71272e-08 -0.000112516 -2.4999e-06
2.76246e-06 -2.4999e-06 -0.000248849
0.00051507 0.000128187 3.81559e-06
0.000128187 0.000223078 -5.00364e-06
3.81559e-06 -5.00364e-06 -1.30645e-05
-0.000179996 0.00018945 -5.99235e-06
0.00018945 -0.000181111 1.17599e-05
-5.99235e-06 1.17599e-05 -0.00036786
0.000488105 2.91835e-05 -1.7191e-06
2.91835e-05 0.000108663 -1.75439e-07
-1.7191e-06 -1.75439e-07 -3.79185e-05
0.000255763 9.00371e-06 -1.07095e-07
9.00371e-06 2.95346e-05 -4.32743e-07
-1.07095e-07 -4.32743e-07 -0.000180263
-5.92948e-05 9.59554e-05 -8.50463e-06
9.59554e-05 -0.000217912 4.0155e-06
-8.50463e-06 4.0155e-06 -0.000298752
0.000698224 0.000167913 2.48603e-06
0.000167913 0.000363076 -2.69992e-06
2.48603e-06 -2.69992e-06 0.000109542
0.00155908 0.000200848 -1.82372e-06
0.000200848 0.000792821 -7.16794e-06
-1.82372e-06 -7.16794e-06 0.000724852
-0.000420123 3.66167e-05 1.19736e-05
3.66167e-05 -0.000422198 -1.2196e-05
1.19736e-05 -1.2196e-05 -0.000540556
0.000593507 0.000132964 -2.59186e-06
0.000132964 0.000307447 3.44638e-06
-2.59186e-06 3.44638e-06 4.34677e-05
0.000580899 5.21874e-05 -1.79518e-06
5.21874e-05 0.000210969 2.97819e-06
-1.79518e-06 2.97819e-06 2.52378e-06
0.000529132 3.15493e-05 1.68653e-06
3.15493e-05 0.00011483 2.66268e-06
1.68653e-06 2.66268e-06 -2.91601e-05
0.000451155 -7.54314e-05 -1.75508e-06
-7.54314e-05 4.54118e-05 3.29706e-06
-1.75508e-06 3.29706e-06 -5.06384e-05
0.000446909 1.7302e-05 5.10291e-07
1.7302e-05 3.6116e-05 -4.43213e-07
5.10291e-07 -4.43213e-07 -5.45652e-05
0.00134092 2.7955e-05 3.90877e-06
2.7955e-05 0.000593051 4.02397e-06
3.90877e-06 4.02397e-06 0.000567293
0.000434802 1.61289e-05 2.10081e-06
1.61289e-05 1.79395e-05 -3.70077e-06
2.10081e-06 -3.70077e-06 -6.49025e-05
0.00136931 2.0567e-05 -1.11874e-05
2.0567e-05 0.000609748 -2.08792e-06
-1.11874e-05 -2.08792e-06 0.000582695
0.000761907 6.74226e-07 3.40759e-05
6.74226e-07 0.000204412 9.94529e-06
3.40759e-05 9.94529e-06 0.000206887
0.00132868 -1.54043e-05 -1.11065e-05
-1.54043e-05 0.000576285 -8.44333e-06
-1.11065e-05 -8.44333e-06 0.000551707
0.000749274 -1.34801e-05 1.42391e-05
-1.34801e-05 0.000188025 4.03336e-06
1.42391e-05 4.03336e-06 0.00018843
0.000812162 -2.97226e-05 2.37856e-06
-2.97226e-05 0.000224449 -3.70165e-06
2.37856e-06 -3.70165e-06 0.000221162
0.000513936 -1.47421e-05 6.14298e-07
-1.47421e-05 5.9005e-05 -4.02118e-06
6.14298e-07 -4.02118e-06 -5.44679e-06
0.000243767 3.12567e-05 -5.94807e-07
3.12567e-05 -0.000127091 -6.15676e-06
-5.94807e-07 -6.15676e-06 -0.000158485
0.000330214 3.78614e-05 1.59774e-06
3.78614e-05 -6.25978e-05 5.71861e-07
1.59774e-06 5.71861e-07 -0.000103657
0.00288512 0.000126623 -4.46966e-06
0.000126623 0.00160973 -7.36303e-06
-4.46966e-06 -7.36303e-06 0.00160355
0.000334738 1.96375e-05 -8.34294e-07
1.96375e-05 -6.27109e-05 9.8919e-06
-8.34294e-07 9.8919e-06 -0.000110972
0.00331636 0.000170433 -1.14363e-05
0.000170433 0.00190815 -1.49274e-06
-1.14363e-05 -1.49274e-06 0.00189036
0.0041157 0.000111899 -8.19272e-05
0.000111899 0.00241547 1.11865e-05
-8.19272e-05 1.11865e-05 0.00240601
0.00245582 0.000465467 2.02139e-06
0.000465467 -6.38136e-05 5.66223e-07
2.02139e-06 5.66223e-07 -1.5948e-05
0.002362 0.000238249 4.88767e-07
0.000238249 -6.94079e-05 -2.24021e-07
4.88767e-07 -2.24021e-07 1.06055e-05
0.00223874 8.69266e-05 -1.89346e-07
8.69266e-05 -0.000100954 -1.58619e-07
-1.89346e-07 -1.58619e-07 -1.64654e-05
0.00217728 -1.49444e-05 -2.40055e-06
-1.49444e-05 -1.47844e-05 -6.24447e-09
-2.40055e-06 -6.24447e-09 1.96395e-05
0.00225875 -1.2343e-05 -4.5628e-07
-1.2343e-05 -9.02864e-05 1.00429e-07
-4.5628e-07 1.00429e-07 -7.32686e-06
0.00237733 0.000129098 9.72615e-07
0.000129098 -0.000133581 3.10854e-07
9.72615e-07 3.10854e-07 7.73785e-06
0.00253241 0.000355476 -6.55953e-07
0.000355476 -0.000110451 -3.24824e-07
-6.55953e-07 -3.24824e-07 5.05018e-06
0.00234719 -1.47451e-05 2.2872e-06
-1.47451e-05 -0.00016875 -4.55506e-07
2.2872e-06 -4.55506e-07 -1.21001e-05
0.00268404 0.00016853 -4.09388e-07
0.00016853 -0.000129797 1.88998e-06
-4.09388e-07 1.88998e-06 5.36489e-05
0.00238879 0.000157608 -2.01939e-06
0.000157608 -0.000362938 5.27132e-06
-2.01939e-06 5.27132e-06 -0.000172573
0.00229187 -0.00011512 -3.79696e-07
-0.00011512 -5.37379e-05 8.13882e-08
-3.79696e-07 8.13882e-08 1.54331e-05
0.00239481 -0.000328455 -2.21327e-06
-0.000328455 -0.000135245 3.17989e-07
-2.21327e-06 3.17989e-07 -2.31595e-05
0.00248752 -0.000545969 2.05925e-06
-0.000545969 -2.97539e-05 2.74996e-07
2.05925e-06 2.74996e-07 1.00341e-05
0.00208989 -0.00103207 -9.8904e-07
-0.00103207 0.000733878 -1.89935e-06
-9.8904e-07 -1.89935e-06 7.41535e-05
0.00208703 -0.00115005 3.92004e-05
-0.00115005 0.000541388 -5.80749e-06
3.92004e-05 -5.80749e-06 -0.000133869
0.0026002 -0.00104082 1.85681e-05
-0.00104082 0.000573022 -3.1465e-06
1.85681e-05 -3.1465e-06 7.58763e-05
0.00251766 -0.000769518 3.6016e-06
-0.000769518 2.64652e-05 -1.24362e-06
3.6016e-06 -1.24362e-06 -2.47962e-05
0.00243528 -0.000920186 5.73641e-06
-0.000920186 0.000260443 1.09386e-06
5.73641e-06 1.09386e-06 -1.99841e-05
0.00117857 -0.00077124 -4.16253e-06
-0.00077124 0.000340376 -2.43724e-05
-4.16253e-06 -2.43724e-05 -0.000259107
0.000794047 -0.000546604 1.09442e-05
-0.000546604 0.000267351 -2.05661e-05
1.09442e-05 -2.05661e-05 -0.000388184
0.000840328 -0.000220928 7.37046e-06
-0.000220928 0.000199787 1.50268e-06
7.37046e-06 1.50268e-06 -0.000183889
0.000493951 1.7295e-06 -5.99417e-07
1.7295e-06 8.06877e-05 3.48967e-06
-5.99417e-07 3.48967e-06 -2.41834e-05
-0.000225149 -1.28447e-05 5.58835e-06
-1.28447e-05 -0.000312673 -2.44668e-06
5.58835e-06 -2.44668e-06 -0.000578069
0.00144392 -0.000359113 -3.73735e-07
-0.000359113 0.000787741 -9.94477e-07
-3.73735e-07 -9.94477e-07 0.000393016
0.00237243 -0.000160761 2.17763e-07
-0.000160761 -0.000152543 -2.01217e-07
2.17763e-07 -2.01217e-07 -3.2617e-06
0.000421438 -1.07149e-05 1.66691e-06
-1.07149e-05 1.29314e-05 4.63639e-07
1.66691e-06 4.63639e-07 -6.75385e-05
0.000423649 -8.55066e-05 -3.82383e-06
-8.55066e-05 5.53749e-05 -1.07263e-06
-3.82383e-06 -1.07263e-06 -6.54053e-05
0.00257045 -0.000454477 -2.43067e-07
-0.000454477 -0.000159467 2.18956e-08
-2.43067e-07 2.18956e-08 4.10479e-06
0.00255438 -0.00069269 -1.74335e-06
-0.00069269 -5.30948e-05 1.39758e-07
-1.74335e-06 1.39758e-07 -7.34535e-06
0.00212309 -0.00109248 1.73906e-06
-0.00109248 0.000782053 3.03984e-06
1.73906e-06 3.03984e-06 0.000113036
0.0026532 -0.00134054 1.26938e-05
-0.00134054 0.00080462 -1.86256e-06
1.26938e-05 -1.86256e-06 7.27019e-05
0.00242184 -0.00110838 1.41565e-06
-0.00110838 0.000391632 -2.28916e-06
1.41565e-06 -2.28916e-06 -8.29372e-05
0.00261387 -0.000962688 2.28154e-06
-0.000962688 0.000115922 -1.64043e-06
2.28154e-06 -1.64043e-06 -3.02846e-05
0.00056916 -1.25458e-05 -2.42718e-06
-1.25458e-05 0.000205148 -1.43316e-06
-2.42718e-06 -1.43316e-06 3.46125e-06
0.000808739 -0.000152608 -4.19806e-07
-0.000152608 0.00039059 2.15772e-06
-4.19806e-07 2.15772e-06 4.91951e-05
0.00124403 -0.000814861 8.98709e-06
-0.000814861 0.000382291 1.19257e-05
8.98709e-06 1.19257e-05 -0.00019265
0.00214867 -0.000778922 3.30447e-05
-0.000778922 0.00113335 -1.76098e-05
3.30447e-05 -1.76098e-05 0.000346817
0.000697363 -0.000314812 -3.40987e-06
-0.000314812 0.000351535 1.56487e-06
-3.40987e-06 1.56487e-06 -0.000217668
0.000410791 -0.000281364 6.34247e-06
-0.000281364 4.96063e-05 -6.66347e-06
6.34247e-06 -6.66347e-06 -0.000290142
0.00242014 -0.000183362 1.321e-06
-0.000183362 -0.000364938 5.75222e-08
1.321e-06 5.75222e-08 -0.000130836
0.00271028 -0.000604058 -2.31391e-06
-0.000604058 -0.000205268 1.45274e-06
-2.31391e-06 1.45274e-06 5.30343e-05
0.00300627 -0.00101192 -4.79504e-06
-0.00101192 0.000147119 2.67286e-06
-4.79504e-06 2.67286e-06 0.000105059
0.00278846 -0.00120073 3.59438e-06
-0.00120073 0.000345843 -3.71955e-06
3.59438e-06 -3.71955e-06 1.87073e-05
0.00149488 -0.00108497 -1.13445e-06
-0.00108497 0.000475281 -9.75212e-06
-1.13445e-06 -9.75212e-06 -0.000204628
0.00358572 -0.00158228 -8.4976e-06
-0.00158228 0.00117595 8.79525e-07
-8.4976e-06 8.79525e-07 0.000410869
0.000374499 5.99492e-05 -1.48869e-06
5.99492e-05 8.42769e-06 -9.32862e-06
-1.48869e-06 -9.32862e-06 -0.000110272
6.56943e-05 -5.06614e-05 7.68875e-06
-5.06614e-05 -0.000174903 -3.55998e-06
7.68875e-06 -3.55998e-06 -0.000295447
0.00150881 -0.000226191 -5.96824e-06
-0.000226191 0.000740682 9.73621e-06
-5.96824e-06 9.73621e-06 0.000572384
0.000518141 1.64107e-05 -3.1471e-06
1.64107e-05 0.000179483 1.03763e-05
-3.1471e-06 1.03763e-05 -8.10722e-05
0.00129916 -0.00028111 -1.0351e-05
-0.00028111 0.000693825 1.31493e-05
-1.0351e-05 1.31493e-05 0.00032008
-0.0016239 -0.000156775 -3.10699e-06
-0.000156775 -0.00126517 -3.07158e-05
-3.10699e-06 -3.07158e-05 -0.00156161
-0.000175246 -0.000323433 -2.23726e-05
-0.000323433 0.000213144 2.36082e-06
-2.23726e-05 2.36082e-06 -0.000780218
0.00117036 -0.00108004 -6.24816e-05
-0.00108004 0.00017623 2.9547e-05
-6.24816e-05 2.9547e-05 -0.000279194
-0.000191909 0.000298651 2.86273e-07
0.000298651 -0.000176283 -2.48258e-06
2.86273e-07 -2.48258e-06 -0.000532378
0.00349649 0.00063189 -1.41966e-05
0.00063189 0.00218006 -3.86385e-06
-1.41966e-05 -3.86385e-06 0.00173278
0.00259127 0.000606079 -2.85549e-06
0.000606079 -0.000287805 -4.12862e-07
-2.85549e-06 -4.12862e-07 -0.000118349
0.00294694 0.000881465 -6.06072e-06
0.000881465 0.000338376 -6.57526e-07
-6.06072e-06 -6.57526e-07 0.000124896
0.00337637 0.000680394 -9.20076e-06
0.000680394 0.00152887 3.16624e-06
-9.20076e-06 3.16624e-06 0.00115182
0.00163488 0.000904493 -1.28725e-05
0.000904493 0.000440592 7.7642e-08
-1.28725e-05 7.7642e-08 -0.000151186
0.00228542 0.000970292 -6.81907e-06
0.000970292 0.000322725 2.77436e-06
-6.81907e-06 2.77436e-06 -0.000133053
0.0027408 0.00125711 -1.05272e-05
0.00125711 0.000862831 -1.26104e-06
-1.05272e-05 -1.26104e-06 0.000182174
0.000160187 0.000232553 3.42249e-06
0.000232553 6.04548e-05 1.37637e-07
3.42249e-06 1.37637e-07 -0.000224874
0.00260182 0.00042897 -1.97136e-06
0.00042897 -0.000275791 -2.49236e-06
-1.97136e-06 -2.49236e-06 -8.20663e-05
0.00188699 0.000584953 3.69672e-06
0.000584953 0.00120908 8.2403e-06
3.69672e-06 8.2403e-06 0.000726118
0.00164299 0.000797206 4.26538e-06
0.000797206 0.00044278 1.66047e-06
4.26538e-06 1.66047e-06 -6.79637e-05
0.00291102 0.000821396 2.24689e-07
0.000821396 0.000132588 -2.37839e-09
2.24689e-07 -2.37839e-09 0.00017127
0.00213864 0.00102612 -2.59166e-06
0.00102612 8.56497e-05 -6.02343e-06
-2.59166e-06 -6.02343e-06 -0.000359378
0.00286956 0.00128908 -2.43827e-06
0.00128908 0.000913558 -6.49052e-07
-2.43827e-06 -6.49052e-07 0.00021683
0.00186538 0.000465896 -6.85711e-06
0.000465896 0.00124036 -3.7225e-06
-6.85711e-06 -3.7225e-06 0.000861505
0.00433801 0.000824703 -0.000115881
0.000824703 0.000644249 -4.11611e-05
-0.000115881 -4.11611e-05 0.000990892
0.00196137 0.000725665 -6.61037e-06
0.000725665 0.00111991 9.56768e-06
-6.61037e-06 9.56768e-06 0.000590376
0.00128983 0.000857025 -4.49854e-06
0.000857025 0.000223849 -1.03514e-05
-4.49854e-06 -1.03514e-05 -0.000366012
0.00348687 0.00116893 -4.46189e-05
0.00116893 0.000693726 -2.52297e-05
-4.46189e-05 -2.52297e-05 0.000413699
0.00112935 0.00103957 -3.04314e-05
0.00103957 -7.2788e-05 -3.19399e-06
-3.04314e-05 -3.19399e-06 -0.000677617
0.00145115 0.00166604 8.50218e-06
0.00166604 -0.00259817 -7.28278e-05
8.50218e-06 -7.28278e-05 -0.00126288
0.000488808 0.000207446 8.72657e-06
0.000207446 0.000217982 1.00006e-05
8.72657e-06 1.00006e-05 6.88813e-05
0.000177111 0.000142171 1.4541e-06
0.000142171 5.73977e-05 -4.62868e-07
1.4541e-06 -4.62868e-07 -7.07924e-05
-0.000276594 8.09666e-05 1.83661e-06
8.09666e-05 -0.00023792 -4.35514e-06
1.83661e-06 -4.35514e-06 -0.000355244
0.000361331 -6.77603e-05 2.61049e-06
-6.77603e-05 2.97968e-05 -3.45127e-06
2.61049e-06 -3.45127e-06 -0.00011927
-0.00017101 4.39094e-06 1.51793e-06
4.39094e-06 -0.000246107 -2.91164e-06
1.51793e-06 -2.91164e-06 -0.000453715
0.00176796 0.000319028 -2.03153e-07
0.000319028 0.00106085 -2.71963e-06
-2.03153e-07 -2.71963e-06 0.000790849
-0.00112859 5.00737e-05 -8.00945e-06
5.00737e-05 -0.000861087 1.97411e-05
-8.00945e-06 1.97411e-05 -0.000931826
0.000472635 -1.07649e-05 -2.78613e-07
-1.07649e-05 9.46172e-05 -3.37054e-07
-2.78613e-07 -3.37054e-07 -5.89962e-05
0.000385116 9.34969e-05 5.66266e-07
9.34969e-05 4.71432e-05 -3.9726e-07
5.66266e-07 -3.9726e-07 -0.000129827
0.000145982 0.000125419 4.33691e-06
0.000125419 -7.86307e-05 3.11327e-06
4.33691e-06 3.11327e-06 -0.000127232
0.000203011 9.70724e-05 1.11047e-06
9.70724e-05 1.9323e-05 1.2599e-07
1.11047e-06 1.2599e-07 -0.000217849
0.000405532 0.0001018 6.31576e-07
0.0001018 8.51573e-05 -1.78877e-06
6.31576e-07 -1.78877e-06 -4.26146e-05
6.43789e-05 0.000107192 3.88549e-06
0.000107192 -5.83558e-05 -1.24861e-05
3.88549e-06 -1.24861e-05 -0.000149213
0.000754047 0.000170951 -5.45888e-06
0.000170951 0.000325286 -2.75044e-06
-5.45888e-06 -2.75044e-06 0.000134147
0.00105617 0.000152578 -7.37694e-07
0.000152578 0.000539908 2.81573e-06
-7.37694e-07 2.81573e-06 0.000309997
0.000629744 0.000123747 -4.17031e-06
0.000123747 0.000213287 -1.62772e-06
-4.17031e-06 -1.62772e-06 2.12602e-05
0.000174825 -1.49319e-05 -1.5721e-06
-1.49319e-05 -0.000127911 7.27513e-07
-1.5721e-06 7.27513e-07 -0.000269637
0.00126185 -0.000137702 2.49196e-06
-0.000137702 0.000713283 -3.23109e-06
2.49196e-06 -3.23109e-06 0.000463328
8.69909e-05 -5.60709e-05 -7.43495e-07
-5.60709e-05 -0.000171505 3.77495e-06
-7.43495e-07 3.77495e-06 -0.000319306
0.000375908 6.40163e-06 -1.85905e-06
6.40163e-06 5.18851e-06 3.51849e-06
-1.85905e-06 3.51849e-06 -9.54999e-05
0.00040896 4.79857e-05 2.32531e-06
4.79857e-05 2.35092e-05 -8.79392e-08
2.32531e-06 -8.79392e-08 -7.54907e-05
0.000311556 2.05289e-05 -2.23685e-06
2.05289e-05 -6.86258e-05 5.27601e-06
-2.23685e-06 5.27601e-06 -9.97403e-05
0.000324365 -1.86238e-06 -8.94449e-07
-1.86238e-06 -3.0992e-05 -4.18337e-06
-8.94449e-07 -4.18337e-06 -0.000129624
0.000842449 1.79849e-05 -4.65298e-06
1.79849e-05 0.000272274 -1.5297e-06
-4.65298e-06 -1.5297e-06 0.000243931
0.00267263 6.00955e-06 3.09024e-05
6.00955e-06 0.00144757 6.2843e-06
3.09024e-05 6.2843e-06 0.00145952
0.00140589 5.68857e-05 -1.88125e-05
5.68857e-05 0.00063744 -8.39362e-06
-1.88125e-05 -8.39362e-06 0.000608992
0.000764689 -4.35089e-06 1.3597e-05
-4.35089e-06 0.000202 3.95359e-06
1.3597e-05 3.95359e-06 0.000203202
0.000834833 -1.86608e-05 1.90434e-06
-1.86608e-05 0.000240319 -3.50873e-06
1.90434e-06 -3.50873e-06 0.000239506
0.00037931 1.02268e-05 -1.48598e-06
1.02268e-05 -1.54943e-05 -5.23193e-06
-1.48598e-06 -5.23193e-06 -7.9276e-05
0.000511236 -4.0217e-05 5.69807e-07
-4.0217e-05 6.85271e-05 -1.97014e-07
5.69807e-07 -1.97014e-07 -2.64056e-06
0.000367374 2.63538e-05 -1.50748e-07
2.63538e-05 -5.5913e-05 -5.01979e-06
-1.50748e-07 -5.01979e-06 -7.85961e-05
0.000811102 4.7631e-05 -2.30219e-08
4.7631e-05 0.000243753 1.84545e-07
-2.30219e-08 1.84545e-07 0.000213078
0.00258342 9.42919e-05 -1.15302e-06
9.42919e-05 0.00140277 -6.18067e-06
-1.15302e-06 -6.18067e-06 0.0014046
0.000448426 5.19947e-05 3.78356e-06
5.19947e-05 2.11703e-05 7.82409e-06
3.78356e-06 7.82409e-06 -2.37722e-05
0.00285458 0.00013149 -2.95185e-06
0.00013149 0.00159266 -2.61169e-07
-2.95185e-06 -2.61169e-07 0.00158529
0.00343102 0.000140171 -9.31882e-06
0.000140171 0.00197006 7.75393e-06
-9.31882e-06 7.75393e-06 0.00195807
0.0024398 0.00036771 1.0169e-06
0.00036771 -0.000153922 -8.5605e-08
1.0169e-06 -8.5605e-08 -3.77592e-05
0.00235583 0.000126106 -5.04438e-08
0.000126106 -0.000144097 -1.23604e-06
-5.04438e-08 -1.23604e-06 -3.02918e-06
0.00225649 -8.31976e-06 -5.0982e-07
-8.31976e-06 -9.69224e-05 6.87246e-08
-5.0982e-07 6.87246e-08 -1.01775e-05
0.00234472 -5.51505e-06 -2.59807e-08
-5.51505e-06 -0.000170284 4.98897e-08
-2.59807e-08 4.98897e-08 -1.22882e-05
0.00264228 0.000180527 1.80904e-06
0.000180527 -0.000134331 -4.32913e-07
1.80904e-06 -4.32913e-07 4.57088e-05
0.00253808 0.00013702 2.9986e-06
0.00013702 -0.000278949 -1.19343e-06
2.9986e-06 -1.19343e-06 -9.43782e-05
0.00277982 3.28891e-05 4.86787e-07
3.28891e-05 -0.000178633 5.00094e-06
4.86787e-07 5.00094e-06 6.53966e-05
0.00585058 0.00175154 6.59273e-05
0.00175154 -0.0012364 2.01193e-05
6.59273e-05 2.01193e-05 0.00045124
0.00280376 0.000147683 -5.10336e-05
0.000147683 -4.90258e-05 1.89665e-05
-5.10336e-05 1.89665e-05 0.000307974
0.000441904 0.000122028 -3.54857e-06
0.000122028 6.91485e-05 -4.88967e-06
-3.54857e-06 -4.88967e-06 -4.85545e-05
0.00237427 -0.000162688 -7.47332e-07
-0.000162688 -0.000161846 9.57433e-07
-7.47332e-07 9.57433e-07 -7.61029e-06
0.00251914 -0.000442879 -3.34092e-07
-0.000442879 -0.000172123 1.59973e-06
-3.34092e-07 1.59973e-06 -2.16649e-05
0.00255032 -0.000677657 2.63836e-06
-0.000677657 -4.13939e-05 -1.3264e-06
2.63836e-06 -1.3264e-06 1.28566e-05
0.00184358 -0.0010828 -7.78178e-06
-0.0010828 0.000616406 8.61569e-06
-7.78178e-06 8.61569e-06 -5.18964e-05
0.00281564 -0.00133666 4.12837e-05
-0.00133666 0.000913012 3.12495e-06
4.12837e-05 3.12495e-06 0.000192189
0.00236245 -0.00109062 -3.98214e-06
-0.00109062 0.000357703 8.65241e-07
-3.98214e-06 8.65241e-07 -0.000102761
0.0025973 -0.000969751 4.14084e-06
-0.000969751 0.000101559 -9.62943e-07
4.14084e-06 -9.62943e-07 -4.34656e-05
0.00173186 -0.000841252 3.19425e-05
-0.000841252 0.000582418 -5.42619e-05
3.19425e-05 -5.42619e-05 6.38382e-05
0.00153625 -0.000724434 2.58059e-05
-0.000724434 0.000733152 -5.00371e-05
2.58059e-05 -5.00371e-05 4.72726e-06
-0.000159607 -0.000215981 2.24952e-05
-0.000215981 -0.000235855 1.58743e-06
2.24952e-05 1.58743e-06 -0.00077596
0.000503243 8.55935e-06 2.36767e-06
8.55935e-06 7.1977e-05 4.30193e-06
2.36767e-06 4.30193e-06 -1.22758e-05
0.000765667 -0.000386022 -5.95216e-06
-0.000386022 0.000295765 1.60868e-05
-5.95216e-06 1.60868e-05 -7.86714e-05
0.00115141 -8.22548e-05 5.43066e-06
-8.22548e-05 0.00061362 -1.2053e-06
5.43066e-06 -1.2053e-06 0.000392096
0.000641378 -0.000160249 3.59586e-06
-0.000160249 0.000266514 -7.80991e-06
3.59586e-06 -7.80991e-06 -6.55437e-05
-9.59633e-05 -3.32518e-05 -7.0147e-06
-3.32518e-05 -0.000290918 6.17945e-06
-7.0147e-06 6.17945e-06 -0.000403598
0.00254602 -0.000209539 -1.42398e-06
-0.000209539 -0.000295739 -1.53239e-06
-1.42398e-06 -1.53239e-06 -5.06117e-05
0.000376945 5.35818e-05 9.55077e-07
5.35818e-05 2.53331e-05 -2.489e-06
9.55077e-07 -2.489e-06 -9.98935e-05
0.000597126 -9.74794e-05 3.14438e-06
-9.74794e-05 0.00021564 2.19177e-06
3.14438e-06 2.19177e-06 6.05186e-05
0.000911438 -0.000119099 9.0577e-06
-0.000119099 0.000345944 5.57617e-07
9.0577e-06 5.57617e-07 0.000201968
0.00261304 -0.000614444 2.26622e-06
-0.000614444 -0.000271502 -6.94363e-07
2.26622e-06 -6.94363e-07 -3.45818e-05
0.00286019 -0.000984905 -5.45727e-07
-0.000984905 7.78626e-05 -6.74123e-07
-5.45727e-07 -6.74123e-07 4.72693e-05
0.000798504 -0.000887669 7.91138e-06
-0.000887669 4.37897e-05 -1.05934e-06
7.91138e-06 -1.05934e-06 -0.00052262
0.00302912 -0.00149398 1.59355e-05
-0.00149398 0.000871451 7.47756e-07
1.59355e-05 7.47756e-07 0.000135409
0.00272641 -0.0012037 1.6948e-08
-0.0012037 0.000320328 9.55702e-07
1.6948e-08 9.55702e-07 -1.96412e-05
0.000318895 -4.15828e-05 -1.08911e-06
-4.15828e-05 3.90211e-05 -1.94013e-06
-1.08911e-06 -1.94013e-06 -0.000207846
0.00172655 -0.000332415 4.472e-06
-0.000332415 0.000979812 1.55255e-06
4.472e-06 1.55255e-06 0.000588141
0.00208474 -0.00121888 -1.68787e-06
-0.00121888 0.00073076 5.32817e-06
-1.68787e-06 5.32817e-06 0.00010234
0.00209583 -0.00049703 -3.173e-07
-0.00049703 0.00124437 9.80677e-06
-3.173e-07 9.80677e-06 0.000501117
0.00131991 -0.000303719 8.85052e-06
-0.000303719 0.000629065 1.03836e-05
8.85052e-06 1.03836e-05 0.000282681
0.0029105 -0.000423429 -1.63352e-05
-0.000423429 -0.000162524 4.93934e-06
-1.63352e-05 4.93934e-06 0.000136178
0.00244129 -0.000712441 -2.14751e-05
-0.000712441 -0.000365154 8.51562e-06
-2.14751e-05 8.51562e-06 -3.86318e-05
0.00286861 -0.00118979 -1.37043e-05
-0.00118979 0.000242002 -3.10781e-06
-1.37043e-05 -3.10781e-06 -2.7117e-06
0.00483453 -0.00166239 -1.83975e-06
-0.00166239 0.0017516 1.98556e-06
-1.83975e-06 1.98556e-06 0.00115372
0.000459769 -0.00104433 -1.8879e-05
-0.00104433 -0.000264724 1.25892e-05
-1.8879e-05 1.25892e-05 -0.00084475
0.000119489 -3.37295e-05 1.05286e-06
-3.37295e-05 -0.000153356 -2.8909e-06
1.05286e-06 -2.8909e-06 -0.000279089
5.49666e-05 -1.61126e-05 -3.35195e-06
-1.61126e-05 -0.000249423 1.08074e-05
-3.35195e-06 1.08074e-05 -0.000413691
0.000252709 -0.000168609 -1.01245e-05
-0.000168609 -4.00757e-06 -5.3206e-06
-1.01245e-05 -5.3206e-06 -0.000196417
0.00220488 -0.000390961 -4.79985e-05
-0.000390961 0.00124317 4.13425e-05
-4.79985e-05 4.13425e-05 0.00089855
0.000787852 -0.00020309 -1.55897e-06
-0.00020309 0.000337716 2.16371e-05
-1.55897e-06 2.16371e-05 1.48638e-05
-0.00116035 -6.76398e-05 1.77257e-06
-6.76398e-05 -0.000450028 2.55155e-06
1.77257e-06 2.55155e-06 -0.0011678
0.00171903 -0.00131448 -5.77606e-06
-0.00131448 0.000830756 -1.28384e-05
-5.77606e-06 -1.28384e-05 1.60759e-05
0.00250187 0.00054889 6.05284e-06
0.00054889 0.00154573 -2.50104e-06
6.05284e-06 -2.50104e-06 0.00120389
-0.000657085 0.000241168 -3.30359e-06
0.000241168 -0.000344309 5.85384e-07
-3.30359e-06 5.85384e-07 -0.000734904
0.00256568 0.000410999 1.51385e-05
0.000410999 -0.000306453 4.05387e-06
1.51385e-05 4.05387e-06 -8.96917e-05
0.00305441 0.000796728 1.72215e-05
0.000796728 0.00025592 1.01636e-05
1.72215e-05 1.01636e-05 0.000292008
0.00273852 0.00110917 4.47874e-06
0.00110917 0.000438505 3.99088e-06
4.47874e-06 3.99088e-06 -1.98665e-05
0.00146766 0.000753747 -4.77904e-06
0.000753747 0.000400321 2.11491e-06
-4.77904e-06 2.11491e-06 -0.000103928
0.00247929 0.00121099 2.35232e-06
0.00121099 0.000706555 4.94965e-06
2.35232e-06 4.94965e-06 3.42228e-05
0.00252016 0.000491627 -5.75771e-07
0.000491627 0.00161593 1.46589e-06
-5.75771e-07 1.46589e-06 0.00127866
0.00314216 0.000649626 1.3521e-05
0.000649626 -2.28943e-05 6.74981e-06
1.3521e-05 6.74981e-06 0.000403058
0.00140033 0.000591842 -7.13132e-06
0.000591842 0.00072096 4.14602e-06
-7.13132e-06 4.14602e-06 0.000267635
0.00192643 0.000963187 2.7625e-06
0.000963187 0.000630176 -2.08111e-06
2.7625e-06 -2.08111e-06 -2.74126e-06
0.00301662 0.00109881 -2.14553e-06
0.00109881 0.000470325 -3.84766e-06
-2.14553e-06 -3.84766e-06 0.000234477
0.00232157 0.00121643 -6.3184e-06
0.00121643 0.000582577 7.99904e-06
-6.3184e-06 7.99904e-06 -6.8555e-05
0.00314156 0.0020465 6.01226e-05
0.0020465 -0.00201375 1.19188e-05
6.01226e-05 1.19188e-05 -0.000853582
0.000599483 0.00037258 2.17949e-06
0.00037258 0.000531886 -8.66297e-08
2.17949e-06 -8.66297e-08 0.000107665
0.00460105 0.00135867 -0.000128138
0.00135867 0.000850177 -5.74563e-05
-0.000128138 -5.74563e-05 0.000906595
-1.69864e-05 0.00053789 -2.07086e-05
0.00053789 -0.000388211 5.9352e-06
-2.07086e-05 5.9352e-06 -0.000843645
0.000530977 0.000872193 -5.18808e-06
0.000872193 -0.000220196 -2.12965e-05
-5.18808e-06 -2.12965e-05 -0.000807299
0.00217941 0.00133728 -5.01385e-05
0.00133728 0.000227743 -2.49198e-05
-5.01385e-05 -2.49198e-05 -0.000224634
0.0157764 0.00101304 -0.000848953
0.00101304 0.000516486 -0.000100495
-0.000848953 -0.000100495 0.00132859
0.00259161 0.00306068 -0.000138606
0.00306068 -0.00465438 -0.000133139
-0.000138606 -0.000133139 -0.000974988
0.000791301 0.0023851 2.91046e-05
0.0023851 -0.00132855 -8.44365e-06
2.91046e-05 -8.44365e-06 -0.00134722
0.00478044 -0.0054353 0.00320474
-0.0054353 0.00330206 0.000128583
0.00320474 0.000128583 -0.00338124
0.032931 -0.0159204 -0.000125521
-0.0159204 0.0197347 2.19599e-05
-0.000125521 2.19599e-05 0.00857187
0.00144687 0.000243242 7.23664e-06
0.000243242 0.000863235 9.75716e-06
7.23664e-06 9.75716e-06 0.000711052
0.000643271 0.000134699 -1.24692e-06
0.000134699 0.00038569 1.67349e-06
-1.24692e-06 1.67349e-06 0.000238676
-0.000127422 0.000158176 1.3239e-05
0.000158176 -6.95519e-05 -6.35968e-07
1.3239e-05 -6.35968e-07 -0.0002445
0.000524897 -6.09112e-05 8.71551e-07
-6.09112e-05 0.00013971 -1.74534e-06
8.71551e-07 -1.74534e-06 -2.16008e-05
0.000546629 7.22129e-05 3.22308e-06
7.22129e-05 0.000170227 -3.58972e-06
3.22308e-06 -3.58972e-06 -1.14335e-05
0.000480825 -1.29803e-05 1.00333e-06
-1.29803e-05 0.000187305 -3.15096e-06
1.00333e-06 -3.15096e-06 -4.34312e-05
0.0010539 0.000133378 5.61617e-06
0.000133378 0.000480983 1.09753e-05
5.61617e-06 1.09753e-05 0.000344804
0.000388088 0.000124307 4.76186e-06
0.000124307 8.61365e-05 1.12201e-05
4.76186e-06 1.12201e-05 4.62928e-05
0.000764085 0.000170616 -2.27527e-06
0.000170616 0.000401624 5.93745e-07
-2.27527e-06 5.93745e-07 0.00014605
0.000386059 -1.54063e-05 3.81081e-07
-1.54063e-05 2.01615e-05 8.76575e-07
3.81081e-07 8.76575e-07 -0.000130295
0.00072432 6.63047e-05 -1.1447e-06
6.63047e-05 0.000284399 3.37204e-07
-1.1447e-06 3.37204e-07 8.94871e-05
0.000388358 0.000123234 -3.44534e-06
0.000123234 0.000115342 -5.12243e-06
-3.44534e-06 -5.12243e-06 3.08786e-05
0.000542979 0.000131065 5.4702e-08
0.000131065 0.000198459 9.22449e-07
5.4702e-08 9.22449e-07 1.58413e-05
0.0016558 0.0002289 -1.41536e-06
0.0002289 0.000961567 1.89987e-06
-1.41536e-06 1.89987e-06 0.000711693
-0.00013516 6.73776e-05 4.60909e-07
6.73776e-05 -0.000101449 -7.79009e-06
4.60909e-07 -7.79009e-06 -0.000298288
0.000900233 0.000106418 1.99342e-06
0.000106418 0.000459204 -1.73632e-06
1.99342e-06 -1.73632e-06 0.000233173
0.000118514 2.77964e-05 -1.13939e-06
2.77964e-05 -0.00014741 -2.66757e-06
-1.13939e-06 -2.66757e-06 -0.000323144
0.000251266 -6.92708e-05 -1.47405e-09
-6.92708e-05 -6.46665e-05 7.92132e-07
-1.47405e-09 7.92132e-07 -0.000216047
0.00027627 -2.80559e-05 9.10461e-08
-2.80559e-05 -1.93201e-05 -4.15398e-06
9.10461e-08 -4.15398e-06 -0.000191451
0.000963658 -7.12004e-05 3.17364e-06
-7.12004e-05 0.000443894 -5.79503e-06
3.17364e-06 -5.79503e-06 0.000270246
0.000880735 -7.49017e-05 -1.08138e-06
-7.49017e-05 0.000450832 1.32588e-07
-1.08138e-06 1.32588e-07 0.000239818
0.000784813 -0.000115991 1.96445e-06
-0.000115991 0.000354831 -2.60065e-07
1.96445e-06 -2.60065e-07 0.000146418
0.000457583 -0.000129663 -1.70151e-06
-0.000129663 9.35012e-05 2.66947e-06
-1.70151e-06 2.66947e-06 -6.56508e-05
0.000130398 -3.24898e-05 -1.73733e-07
-3.24898e-05 -0.000133873 1.32881e-06
-1.73733e-07 1.32881e-06 -0.000289015
0.000427776 -7.32066e-05 -1.09682e-06
-7.32066e-05 2.85568e-05 4.22904e-06
-1.09682e-06 4.22904e-06 -6.58153e-05
0.000438959 -4.67401e-05 2.23416e-06
-4.67401e-05 4.4169e-05 1.26274e-07
2.23416e-06 1.26274e-07 -5.515e-05
0.000334711 5.36892e-06 5.01579e-06
5.36892e-06 -4.96576e-05 7.32676e-06
5.01579e-06 7.32676e-06 -8.20502e-05
0.000457702 6.93348e-05 -1.74626e-06
6.93348e-05 4.58092e-05 -3.82226e-06
-1.74626e-06 -3.82226e-06 -4.71877e-05
0.000340765 2.9615e-05 5.80513e-07
2.9615e-05 -4.95607e-05 1.50012e-07
5.80513e-07 1.50012e-07 -8.06172e-05
0.00260846 1.35116e-05 1.7061e-05
1.35116e-05 0.00140729 5.89247e-06
1.7061e-05 5.89247e-06 0.00141839
0.000363424 6.84075e-05 -5.68611e-06
6.84075e-05 -3.20752e-05 -8.57185e-06
-5.68611e-06 -8.57185e-06 -6.78902e-05
0.00167952 2.29922e-07 -1.04246e-05
2.29922e-07 0.000800204 8.82823e-08
-1.04246e-05 8.82823e-08 0.00080619
0.000796472 -8.27365e-06 1.30641e-06
-8.27365e-06 0.000217177 -2.53837e-06
1.30641e-06 -2.53837e-06 0.000218002
0.000375644 2.25812e-05 -7.03425e-07
2.25812e-05 -3.05964e-05 -3.92661e-06
-7.03425e-07 -3.92661e-06 -8.10918e-05
0.0004498 -4.02725e-05 1.41112e-06
-4.02725e-05 2.98605e-05 4.95641e-08
1.41112e-06 4.95641e-08 -3.47563e-05
0.000452691 4.33182e-06 2.10188e-06
4.33182e-06 -7.42245e-06 -4.57142e-06
2.10188e-06 -4.57142e-06 -2.3134e-05
0.000477584 -5.84186e-05 -1.31052e-06
-5.84186e-05 5.10857e-05 2.3982e-06
-1.31052e-06 2.3982e-06 -2.24841e-05
0.000790005 3.03724e-05 5.48893e-07
3.03724e-05 0.000219958 -8.23348e-07
5.48893e-07 -8.23348e-07 0.00019938
0.00223707 6.62684e-05 -5.63387e-07
6.62684e-05 0.00116808 -5.53739e-06
-5.63387e-07 -5.53739e-06 0.00117704
0.000410783 3.01473e-05 -4.20205e-07
3.01473e-05 -2.04664e-05 6.22241e-06
-4.20205e-07 6.22241e-06 -5.34235e-05
0.00276544 0.000107071 -3.20551e-07
0.000107071 0.00152786 1.85499e-06
-3.20551e-07 1.85499e-06 0.0015266
0.00306879 0.000143748 2.4946e-05
0.000143748 0.00173736 1.02794e-05
2.4946e-05 1.02794e-05 0.00172738
0.00259516 0.000194262 -8.40947e-07
0.000194262 -0.000141977 -2.97755e-06
-8.40947e-07 -2.97755e-06 3.4336e-05
0.00231762 1.79641e-07 -1.98974e-06
1.79641e-07 -0.000187035 -5.4933e-08
-1.98974e-06 -5.4933e-08 -2.74859e-05
0.00280452 0.000110175 1.14597e-05
0.000110175 -9.86589e-05 -4.80893e-08
1.14597e-05 -4.80893e-08 6.90534e-05
0.00288383 0.00133991 0.00014455
0.00133991 -0.00273501 4.65558e-05
0.00014455 4.65558e-05 -0.000996595
0.00272077 -3.73308e-06 -4.30917e-06
-3.73308e-06 -0.000202371 -1.54277e-06
-4.30917e-06 -1.54277e-06 3.88566e-05
0.002873 0.000120262 -1.72357e-06
0.000120262 1.75329e-05 -2.21712e-06
-1.72357e-06 -2.21712e-06 0.000323885
0.0028808 -6.59388e-05 -4.53143e-05
-6.59388e-05 9.13525e-05 -1.10698e-05
-4.53143e-05 -1.10698e-05 0.000318029
0.00331376 0.00104102 -0.000164543
0.00104102 -0.00292503 -1.89337e-05
-0.000164543 -1.89337e-05 -0.000707134
0.00301631 0.00039485 0.000146647
0.00039485 -0.00154057 8.50785e-05
0.000146647 8.50785e-05 -0.00054399
0.000494424 9.23289e-05 6.84634e-07
9.23289e-05 0.00010396 -3.98082e-06
6.84634e-07 -3.98082e-06 -1.28599e-05
0.000569519 -1.72594e-05 -8.01025e-07
-1.72594e-05 0.000160601 -3.33002e-07
-8.01025e-07 -3.33002e-07 3.33375e-05
0.000317296 -0.000113802 -5.10209e-06
-0.000113802 -8.63368e-06 -1.94213e-07
-5.10209e-06 -1.94213e-07 -0.000138371
0.000380359 -7.44451e-05 -2.57302e-06
-7.44451e-05 6.16057e-05 -4.8967e-07
-2.57302e-06 -4.8967e-07 -8.25718e-05
0.00266155 -0.000231605 -1.6876e-06
-0.000231605 -0.000228172 2.28465e-06
-1.6876e-06 2.28465e-06 2.46215e-05
0.0026464 -0.000624344 1.61017e-06
-0.000624344 -0.000228697 3.62773e-07
1.61017e-06 3.62773e-07 -2.92586e-05
0.00270505 -0.000959176 1.14459e-06
-0.000959176 2.40278e-06 -2.06502e-06
1.14459e-06 -2.06502e-06 -1.90197e-05
0.00397052 -0.00131366 2.82917e-05
-0.00131366 0.00184445 2.89878e-06
2.82917e-05 2.89878e-06 0.00117953
0.00214619 -0.00142629 -5.74791e-06
-0.00142629 0.000327627 4.39694e-06
-5.74791e-06 4.39694e-06 -0.000385399
0.00256147 -0.00119435 2.4059e-06
-0.00119435 0.000237026 -2.54108e-06
2.4059e-06 -2.54108e-06 -0.000107719
-0.000505314 -0.000868399 3.73446e-06
-0.000868399 -0.000666138 -1.52362e-05
3.73446e-06 -1.52362e-05 -0.0013701
0.00289422 -0.000564759 2.26723e-05
-0.000564759 0.00152303 -1.31321e-05
2.26723e-05 -1.31321e-05 0.000938925
0.000898692 -0.000297896 3.72843e-06
-0.000297896 0.000370322 1.37976e-05
3.72843e-06 1.37976e-05 2.45828e-05
0.000874889 -0.000100516 2.97521e-06
-0.000100516 0.000391578 2.47617e-06
2.97521e-06 2.47617e-06 0.000231762
-5.53567e-05 -0.000115852 -1.02097e-05
-0.000115852 -0.00012678 -1.05474e-05
-1.02097e-05 -1.05474e-05 -0.00052197
0.000815603 -4.84494e-05 2.88031e-07
-4.84494e-05 0.000358907 -5.93657e-06
2.88031e-07 -5.93657e-06 0.000110155
0.000510955 -1.29523e-05 -1.8197e-07
-1.29523e-05 0.00012969 6.00077e-06
-1.8197e-07 6.00077e-06 -5.61991e-06
0.00067181 -8.28543e-05 -9.37591e-06
-8.28543e-05 0.000188696 1.24551e-05
-9.37591e-06 1.24551e-05 5.64504e-05
0.00278989 -0.000402003 3.33055e-06
-0.000402003 -0.000242618 1.60825e-06
3.33055e-06 1.60825e-06 8.59637e-05
0.000356664 -5.11398e-05 8.70204e-08
-5.11398e-05 2.31849e-05 3.59246e-06
8.70204e-08 3.59246e-06 -0.000117515
0.000592685 -9.13911e-05 5.67123e-06
-9.13911e-05 0.000123643 -3.97545e-06
5.67123e-06 -3.97545e-06 -5.85303e-05
-0.000672013 -7.17626e-05 1.28567e-05
-7.17626e-05 -0.000538629 -2.73815e-06
1.28567e-05 -2.73815e-06 -0.000678002
0.00248834 -0.000746918 8.90566e-07
-0.000746918 -0.00034165 -8.08309e-07
8.90566e-07 -8.08309e-07 -6.0947e-05
0.00280307 -0.00118351 2.15774e-06
-0.00118351 0.000199839 -1.54271e-06
2.15774e-06 -1.54271e-06 -4.28916e-05
0.00203265 -0.00136391 -1.63867e-05
-0.00136391 0.000588421 2.24971e-06
-1.63867e-05 2.24971e-06 -6.93012e-05
0.00354193 -0.00154214 -5.23477e-06
-0.00154214 0.00100288 -2.94349e-07
-5.23477e-06 -2.94349e-07 0.000437268
0.00213889 -0.00027376 1.69979e-05
-0.00027376 0.00124318 -8.21807e-06
1.69979e-05 -8.21807e-06 0.000877323
-0.00118373 -8.78029e-05 9.46413e-06
-8.78029e-05 -0.000874292 4.64122e-06
9.46413e-06 4.64122e-06 -0.00124103
0.000826266 -0.00128091 2.11723e-07
-0.00128091 0.000472775 -8.109e-07
2.11723e-07 -8.109e-07 -0.000432774
0.00183738 -0.000528048 -1.11947e-05
-0.000528048 0.00102396 -2.5475e-06
-1.11947e-05 -2.5475e-06 0.000437079
0.0040479 -0.000613655 -6.84197e-05
-0.000613655 0.000551605 2.0549e-05
-6.84197e-05 2.0549e-05 0.000897902
0.00278311 -0.00099505 -4.48338e-05
-0.00099505 2.94167e-05 1.70347e-05
-4.48338e-05 1.70347e-05 0.000130662
0.00305951 -0.00133981 -6.80802e-06
-0.00133981 0.000695606 -1.80726e-05
-6.80802e-06 -1.80726e-05 0.000195155
0.0028488 -0.00154863 8.94996e-06
-0.00154863 0.000827866 2.98225e-05
8.94996e-06 2.98225e-05 0.000313924
0.000263381 -0.000216359 -4.55356e-06
-0.000216359 0.000160982 -1.81281e-05
-4.55356e-06 -1.81281e-05 -7.16433e-05
0.000930113 -0.000336881 -1.81975e-05
-0.000336881 0.000422313 2.15341e-06
-1.81975e-05 2.15341e-06 7.25609e-05
0.000769987 -0.000345896 -1.88003e-05
-0.000345896 0.000580661 8.08161e-05
-1.88003e-05 8.08161e-05 0.000158184
-0.000543885 -0.00095645 1.26825e-05
-0.00095645 0.000348053 -4.10059e-05
1.26825e-05 -4.10059e-05 -0.000761933
0.0061037 -0.000534979 5.27659e-05
-0.000534979 -0.0066377 2.14988e-05
5.27659e-05 2.14988e-05 -0.00710768
0.00269322 0.000411895 1.46486e-05
0.000411895 0.00173482 -5.86533e-06
1.46486e-05 -5.86533e-06 0.00140202
0.000119359 0.000408562 -1.21908e-06
0.000408562 -7.0243e-05 -1.91599e-06
-1.21908e-06 -1.91599e-06 -0.000475689
0.00178078 0.000502998 6.93978e-05
0.000502998 -0.00084023 2.62368e-05
6.93978e-05 2.62368e-05 -0.000315536
0.00241956 0.00101515 2.67898e-05
0.00101515 0.000178924 1.38011e-05
2.67898e-05 1.38011e-05 -7.79537e-06
0.00304291 0.00132072 1.24102e-05
0.00132072 0.000983003 1.48721e-05
1.24102e-05 1.48721e-05 0.000302662
0.00236845 0.00104124 1.58234e-05
0.00104124 0.000912709 1.33957e-05
1.58234e-05 1.33957e-05 0.000244051
0.00466933 0.0024599 0.000106587
0.0024599 -0.00159634 5.11782e-05
0.000106587 5.11782e-05 -0.000646236
0.000865045 0.000353414 2.94333e-06
0.000353414 0.000652422 -6.01544e-06
2.94333e-06 -6.01544e-06 0.000274998
0.00307692 0.00116676 -5.40446e-06
0.00116676 -1.35071e-05 4.34722e-06
-5.40446e-06 4.34722e-06 0.00016994
0.00103403 0.000688482 -8.89986e-06
0.000688482 0.000283895 8.17374e-06
-8.89986e-06 8.17374e-06 -0.000223005
0.0019567 0.00110124 1.76964e-06
0.00110124 0.000588218 -9.83287e-06
1.76964e-06 -9.83287e-06 -5.44839e-05
0.00309601 0.00139689 -1.52176e-05
0.00139689 0.000759182 -9.43411e-07
-1.52176e-05 -9.43411e-07 0.000269159
0.00508037 -5.55523e-05 -0.000237908
-5.55523e-05 -0.00745744 -0.00017151
-0.000237908 -0.00017151 -0.00727667
0.00670319 0.0033872 -0.000205522
0.0033872 -0.002003 -9.41344e-05
-0.000205522 -9.41344e-05 0.000855052
0.00138841 0.0023383 -1.54082e-05
0.0023383 -0.000954284 -2.68886e-06
-1.54082e-05 -2.68886e-06 -0.00106451
0.00924642 -0.00423313 0.000925799
-0.00423313 0.00604733 0.000263558
0.000925799 0.000263558 0.00111161
0.0288557 -0.0179345 -0.000569952
-0.0179345 0.0185597 -0.0005639
-0.000569952 -0.0005639 0.00689543
-0.000332296 0.000279401 -1.4449e-06
0.000279401 -0.000289976 -2.36834e-06
-1.4449e-06 -2.36834e-06 -0.000601256
0.00219598 -0.000602677 0.00176483
-0.000602677 0.0045665 4.64988e-05
0.00176483 4.64988e-05 0.00191505
0.00980278 -0.00836161 6.15261e-05
-0.00836161 0.0118032 -0.000212649
6.15261e-05 -0.000212649 0.000759703
0.00344215 0.00193728 -8.35933e-05
0.00193728 0.000473209 -3.0581e-05
-8.35933e-05 -3.0581e-05 8.0275e-05
0.00100522 0.000703946 -3.51921e-05
0.000703946 0.000182196 -6.79486e-06
-3.51921e-05 -6.79486e-06 -0.000286971
0.00184097 0.00115447 -5.61533e-05
0.00115447 0.000518146 -4.36613e-05
-5.61533e-05 -4.36613e-05 -6.57769e-05
-2.70719e-05 0.0022087 0.000159497
0.0022087 -0.00111813 0.000132967
0.000159497 0.000132967 -0.00135923
0.0157824 0.00497113 0.000228364
0.00497113 -0.000770552 -3.46092e-06
0.000228364 -3.46092e-06 0.00114271
0.00692316 0.00517088 -0.000132076
0.00517088 -0.000839575 -0.000134079
-0.000132076 -0.000134079 0.00114569
0.0245762 -0.00943606 0.0013429
-0.00943606 0.0109704 0.000287672
0.0013429 0.000287672 0.00215257
0.0195842 -0.00315672 -0.00049478
-0.00315672 0.00956362 0.000781455
-0.00049478 0.000781455 0.00461455
0.000583803 0.000126709 2.80782e-06
0.000126709 0.000390743 5.42935e-06
2.80782e-06 5.42935e-06 0.000228327
0.000178855 0.000193554 1.30288e-06
0.000193554 0.000156852 1.92769e-07
1.30288e-06 1.92769e-07 -3.29569e-05
0.000389448 0.000252341 6.92131e-06
0.000252341 0.000374308 -7.34628e-06
6.92131e-06 -7.34628e-06 5.17907e-05
0.000597874 4.79721e-06 1.99664e-06
4.79721e-06 0.000187004 1.35882e-06
1.99664e-06 1.35882e-06 1.57222e-05
0.000519744 0.000108311 2.22657e-06
0.000108311 0.000133222 -9.92462e-09
2.22657e-06 -9.92462e-09 -4.76162e-05
-0.00015986 3.07665e-05 1.43443e-06
3.07665e-05 -0.000229503 8.86691e-07
1.43443e-06 8.86691e-07 -0.000446416
0.00085367 0.000142726 -3.00602e-06
0.000142726 0.000413464 2.56011e-06
-3.00602e-06 2.56011e-06 0.000226317
7.32939e-05 0.000102375 -5.12884e-06
0.000102375 -0.000107401 4.69487e-06
-5.12884e-06 4.69487e-06 -0.000179101
0.000305068 -2.84222e-06 -3.09686e-07
-2.84222e-06 -2.28169e-05 7.09923e-07
-3.09686e-07 7.09923e-07 -0.000181349
0.00110304 0.00014257 2.37624e-06
0.00014257 0.000593575 2.02423e-06
2.37624e-06 2.02423e-06 0.000358776
0.000320504 6.22778e-05 -6.36893e-07
6.22778e-05 8.45818e-05 -1.30556e-06
-6.36893e-07 -1.30556e-06 -0.000142214
0.000792306 7.10826e-05 1.42083e-06
7.10826e-05 0.000341097 1.8624e-07
1.42083e-06 1.8624e-07 0.00012904
0.000245557 9.11355e-05 -8.6123e-07
9.11355e-05 0.000133442 -3.63554e-06
-8.6123e-07 -3.63554e-06 -6.94991e-05
0.000780025 9.37181e-05 1.03305e-06
9.37181e-05 0.000400043 -2.48516e-06
1.03305e-06 -2.48516e-06 0.000198725
-0.000659401 3.78839e-06 4.06059e-06
3.78839e-06 -0.000188368 -4.45468e-06
4.06059e-06 -4.45468e-06 -0.000560995
-4.32154e-06 -5.76664e-05 -2.60016e-07
-5.76664e-05 -0.000146525 6.27008e-07
-2.60016e-07 6.27008e-07 -0.000354367
0.000702598 -6.74302e-05 -4.58019e-06
-6.74302e-05 0.000280691 -2.14355e-06
-4.58019e-06 -2.14355e-06 7.26921e-05
0.000729631 -6.50836e-05 -3.63026e-07
-6.50836e-05 0.000304257 -2.58472e-06
-3.63026e-07 -2.58472e-06 0.000107575
0.000430978 -7.20144e-05 -4.53884e-06
-7.20144e-05 9.65648e-05 1.87178e-06
-4.53884e-06 1.87178e-06 -5.79929e-05
0.000707469 -9.99403e-06 -8.79689e-06
-9.99403e-06 0.000339444 -4.54414e-06
-8.79689e-06 -4.54414e-06 0.000142292
0.000629679 -0.000163887 6.85486e-06
-0.000163887 0.000178891 -8.13063e-06
6.85486e-06 -8.13063e-06 3.96466e-05
0.000269656 -5.72488e-05 -4.63803e-06
-5.72488e-05 7.37417e-05 -2.83575e-06
-4.63803e-06 -2.83575e-06 -9.86532e-05
-0.000596968 -1.42053e-05 -8.90008e-07
-1.42053e-05 -0.000392477 -7.51548e-06
-8.90008e-07 -7.51548e-06 -0.000675048
-0.000299567 -4.89672e-05 -1.63963e-08
-4.89672e-05 -0.000337119 1.55539e-06
-1.63963e-08 1.55539e-06 -0.000512948
0.00085802 -0.000170459 -8.44843e-07
-0.000170459 0.000423558 1.02837e-06
-8.44843e-07 1.02837e-06 0.000219658
0.00017257 -7.04417e-05 6.0711e-08
-7.04417e-05 -9.33468e-05 1.57276e-06
6.0711e-08 1.57276e-06 -0.000247211
0.000580939 -0.000134963 2.46905e-06
-0.000134963 0.000184405 -1.43571e-06
2.46905e-06 -1.43571e-06 7.97987e-06
0.000632021 -0.000146245 2.3979e-07
-0.000146245 0.000209356 4.30174e-07
2.3979e-07 4.30174e-07 4.46144e-05
0.000552589 -7.21344e-05 -9.95681e-07
-7.21344e-05 0.000108947 4.7875e-06
-9.95681e-07 4.7875e-06 1.14485e-05
0.000260613 -1.29394e-06 6.93017e-08
-1.29394e-06 -2.59936e-05 -1.17027e-06
6.93017e-08 -1.17027e-06 -0.000198495
0.000450475 3.23649e-06 2.86355e-06
3.23649e-06 5.40302e-05 1.21854e-07
2.86355e-06 1.21854e-07 -4.75845e-05
0.00139503 -4.12605e-05 -1.58932e-05
-4.12605e-05 0.000630997 7.83088e-06
-1.58932e-05 7.83088e-06 0.000604666
0.000456107 9.20329e-05 -3.06969e-06
9.20329e-05 5.55019e-05 -3.56699e-06
-3.06969e-06 -3.56699e-06 -4.39312e-05
0.000806547 -2.80033e-05 -6.13807e-06
-2.80033e-05 0.000257414 7.43865e-07
-6.13807e-06 7.43865e-07 0.000226571
0.000811757 -1.32223e-06 -1.08303e-05
-1.32223e-06 0.000238641 5.03748e-06
-1.08303e-05 5.03748e-06 0.000241655
0.000294078 -4.51221e-05 5.74959e-06
-4.51221e-05 -7.91874e-05 -5.81241e-06
5.74959e-06 -5.81241e-06 -0.000110014
0.00262959 3.87517e-06 1.48386e-05
3.87517e-06 0.0014213 4.98563e-08
1.48386e-05 4.98563e-08 0.00143219
0.000843017 7.74713e-06 -1.58535e-05
7.74713e-06 0.000258795 -5.79617e-06
-1.58535e-05 -5.79617e-06 0.0002602
0.000558228 8.21106e-05 2.56184e-06
8.21106e-05 0.000159464 -2.59844e-06
2.56184e-06 -2.59844e-06 2.92346e-05
0.000379921 6.61339e-05 -2.4486e-06
6.61339e-05 -8.50315e-06 -4.43278e-06
-2.4486e-06 -4.43278e-06 -6.87366e-05
0.000439133 7.12584e-07 1.69848e-06
7.12584e-07 2.66221e-05 1.60149e-07
1.69848e-06 1.60149e-07 -3.44692e-05
0.000421148 8.09811e-06 1.57446e-06
8.09811e-06 -2.68664e-05 -4.22912e-06
1.57446e-06 -4.22912e-06 -4.06029e-05
0.000532691 -8.15038e-05 -2.35937e-06
-8.15038e-05 9.71763e-05 4.6727e-06
-2.35937e-06 4.6727e-06 2.40511e-05
0.000432067 7.75434e-06 6.21673e-07
7.75434e-06 -2.12106e-05 -8.07318e-07
6.21673e-07 -8.07318e-07 -3.68627e-05
0.00208865 4.46978e-05 -5.91629e-07
4.46978e-05 0.0010657 -5.30957e-06
-5.91629e-07 -5.30957e-06 0.00107879
0.00126842 4.60318e-05 1.87862e-06
4.60318e-05 0.000534519 3.3543e-06
1.87862e-06 3.3543e-06 0.000513062
0.0015312 5.49463e-05 -1.4248e-06
5.49463e-05 0.000709469 1.776e-06
-1.4248e-06 1.776e-06 0.000713032
0.000777084 5.92325e-05 1.06658e-05
5.92325e-05 0.000227592 1.24853e-05
1.06658e-05 1.24853e-05 0.000219496
0.000728952 0.000999302 0.000123154
0.000999302 -0.00379307 2.85717e-05
0.000123154 2.85717e-05 -0.00199236
0.00260428 -3.5928e-05 4.57414e-06
-3.5928e-05 -0.000271471 -2.39927e-06
4.57414e-06 -2.39927e-06 -2.99365e-05
0.00259916 9.11478e-05 5.46675e-05
9.11478e-05 -0.000104063 -1.60079e-05
5.46675e-05 -1.60079e-05 0.000118516
0.00494555 0.000999894 -0.000110002
0.000999894 -0.00282499 -4.92139e-05
-0.000110002 -4.92139e-05 0.000345222
0.00362598 0.000139292 0.000108134
0.000139292 -0.00118595 -7.85003e-06
0.000108134 -7.85003e-06 -7.94576e-05
0.00287764 -8.82869e-05 -6.22555e-06
-8.82869e-05 6.59125e-05 2.00894e-07
-6.22555e-06 2.00894e-07 0.000280456
0.00513078 -0.000763828 -7.97055e-05
-0.000763828 0.000126273 -5.01023e-05
-7.97055e-05 -5.01023e-05 0.00103236
0.00517016 -0.000947622 -2.30882e-05
-0.000947622 -0.00196022 -1.07503e-05
-2.30882e-05 -1.07503e-05 0.00054521
0.0204011 -0.00128367 0.000103865
-0.00128367 0.0015039 -0.000107411
0.000103865 -0.000107411 0.00186993
0.022354 0.0103703 0.00246425
0.0103703 0.00981275 -0.000299294
0.00246425 -0.000299294 0.00229895
0.0365231 0.0129736 0.000201326
0.0129736 0.0236393 0.000142413
0.000201326 0.000142413 0.0136148
1.62527e-05 -0.00011351 2.6532e-06
-0.00011351 -0.000172057 -2.74747e-06
2.6532e-06 -2.74747e-06 -0.000304498
0.000509557 -1.58092e-05 2.4859e-06
-1.58092e-05 0.000118067 3.86811e-08
2.4859e-06 3.86811e-08 -7.46903e-07
0.000608092 -0.000105893 -2.56085e-06
-0.000105893 0.000194932 6.70353e-06
-2.56085e-06 6.70353e-06 5.96662e-05
0.000533833 -6.74763e-05 2.59505e-06
-6.74763e-05 0.000124336 -3.1044e-07
2.59505e-06 -3.1044e-07 9.06402e-07
0.000907531 0.000150868 -7.18927e-06
0.000150868 0.000462529 -6.69902e-06
-7.18927e-06 -6.69902e-06 0.000304904
0.000647687 0.000161661 -1.58779e-06
0.000161661 0.000228573 2.57958e-06
-1.58779e-06 2.57958e-06 7.35777e-05
0.000797441 3.10301e-05 3.21843e-06
3.10301e-05 0.000336145 -1.87859e-06
3.21843e-06 -1.87859e-06 0.000165577
0.000471598 -2.04178e-05 -1.46941e-06
-2.04178e-05 0.000104532 9.38756e-07
-1.46941e-06 9.38756e-07 -3.43995e-05
0.00269879 -0.00039543 1.55869e-05
-0.00039543 -0.000302532 -7.91324e-06
1.55869e-05 -7.91324e-06 4.3491e-05
0.00241634 -0.000783619 2.01838e-05
-0.000783619 -0.00041774 -7.25273e-06
2.01838e-05 -7.25273e-06 -0.000169997
0.00278231 -0.0011787 6.40912e-06
-0.0011787 0.000179162 3.48469e-06
6.40912e-06 3.48469e-06 -5.53254e-05
0.0024319 -0.00142588 1.23549e-05
-0.00142588 0.000736121 2.628e-06
1.23549e-05 2.628e-06 0.000103715
0.00291139 -0.00146026 -2.36224e-05
-0.00146026 0.000677318 2.51387e-06
-2.36224e-05 2.51387e-06 0.00010304
-3.04921e-05 -0.00125148 1.59621e-05
-0.00125148 6.65828e-05 1.79472e-05
1.59621e-05 1.79472e-05 -0.000932389
0.00531191 -0.000994618 1.08369e-05
-0.000994618 0.00294732 9.87668e-06
1.08369e-05 9.87668e-06 0.00238857
0.00163394 -0.000455929 2.24891e-05
-0.000455929 0.000949888 -4.98174e-05
2.24891e-05 -4.98174e-05 0.00047789
0.0007536 -6.34581e-05 -5.51729e-06
-6.34581e-05 0.000223282 7.40275e-06
-5.51729e-06 7.40275e-06 5.51762e-05
0.0011091 -0.000138262 1.57402e-05
-0.000138262 0.000561898 -2.92678e-05
1.57402e-05 -2.92678e-05 0.000214897
0.000703263 -9.30984e-05 2.53293e-06
-9.30984e-05 0.000258518 8.05101e-06
2.53293e-06 8.05101e-06 0.000107851
0.000549893 2.51473e-05 3.9228e-06
2.51473e-05 0.000248658 6.10348e-06
3.9228e-06 6.10348e-06 0.000163819
0.0027258 -0.000535364 1.98236e-06
-0.000535364 -0.00025945 4.65675e-06
1.98236e-06 4.65675e-06 0.000191164
0.000275531 -9.49889e-05 -7.46455e-06
-9.49889e-05 0.000132791 2.45395e-06
-7.46455e-06 2.45395e-06 -7.48025e-05
0.00128104 -0.000281517 -4.3091e-06
-0.000281517 0.000658108 5.04371e-06
-4.3091e-06 5.04371e-06 0.000353982
0.00202216 -0.000933635 9.17286e-06
-0.000933635 -0.000414226 -5.4203e-06
9.17286e-06 -5.4203e-06 -0.000256869
0.00266055 -0.00126179 2.04779e-06
-0.00126179 0.000476918 5.5296e-06
2.04779e-06 5.5296e-06 3.64952e-05
0.00174478 -0.00138171 -1.69297e-06
-0.00138171 0.000169771 -1.68001e-05
-1.69297e-06 -1.68001e-05 -0.000296965
0.00111753 -0.000440757 5.40856e-07
-0.000440757 0.000713961 -3.08844e-05
5.40856e-07 -3.08844e-05 0.000183221
0.000900856 -0.000900504 1.72789e-05
-0.000900504 0.00105781 1.12838e-06
1.72789e-05 1.12838e-06 8.12714e-05
0.00645585 -0.00132169 -6.13853e-05
-0.00132169 0.00154825 3.85441e-05
-6.13853e-05 3.85441e-05 0.00194197
0.0030957 -0.00133459 -4.9216e-05
-0.00133459 0.000649061 1.76178e-05
-4.9216e-05 1.76178e-05 0.000301576
0.00315694 -0.00159565 -1.94489e-06
-0.00159565 0.000870631 1.6016e-05
-1.94489e-06 1.6016e-05 0.000350153
0.000583005 -0.000934998 -2.31876e-05
-0.000934998 -0.000120798 2.53725e-05
-2.31876e-05 2.53725e-05 -0.000322946
0.000964534 -0.000247693 1.86609e-06
-0.000247693 0.000644793 -1.23173e-07
1.86609e-06 -1.23173e-07 0.000311874
-0.000510453 -0.000168868 3.60615e-06
-0.000168868 -0.000190062 1.32922e-05
3.60615e-06 1.32922e-05 -0.000596572
-2.53854e-05 -0.000357227 -1.18352e-05
-0.000357227 0.000493581 -1.39844e-05
-1.18352e-05 -1.39844e-05 -0.000302713
-0.007986 -0.000741091 0.00116177
-0.000741091 -0.00202273 -4.32805e-05
0.00116177 -4.32805e-05 -0.00550035
0.0132473 -0.000579566 6.31427e-05
-0.000579566 -0.00124796 5.65326e-05
6.31427e-05 5.65326e-05 0.000326143
0.00206899 0.00041871 6.11439e-06
0.00041871 0.00129226 -9.28825e-06
6.11439e-06 -9.28825e-06 0.000974262
0.00227063 0.000865076 -1.17773e-07
0.000865076 0.00107002 7.47573e-06
-1.17773e-07 7.47573e-06 0.000504065
0.00158708 0.000938726 0.000117904
0.000938726 -0.000825892 6.39116e-05
0.000117904 6.39116e-05 -0.000543104
0.00419299 0.00149047 3.61325e-05
0.00149047 0.00138258 1.97024e-05
3.61325e-05 1.97024e-05 0.000844608
0.00312857 0.00129276 2.53773e-05
0.00129276 0.00123896 5.89413e-06
2.53773e-05 5.89413e-06 0.000550749
0.0194195 0.000960604 0.000104504
0.000960604 0.00122396 -0.00018546
0.000104504 -0.00018546 0.00203124
0.00877447 0.0041236 -0.000322282
0.0041236 -0.00277969 -1.69611e-05
-0.000322282 -1.69611e-05 0.000765425
0.00251033 0.00240921 -1.28916e-05
0.00240921 -0.000245236 -3.98369e-05
-1.28916e-05 -3.98369e-05 -0.000503391
0.0180321 -0.00804327 -0.00117065
-0.00804327 0.00886452 0.000198632
-0.00117065 0.000198632 0.00200402
0.0228449 -0.0202797 -0.00320898
-0.0202797 0.0176445 -0.00180661
-0.00320898 -0.00180661 0.00550816
0.000647095 0.000426177 7.67134e-06
0.000426177 0.000376055 -5.36041e-06
7.67134e-06 -5.36041e-06 1.31628e-05
0.0019967 -0.00536731 0.0010653
-0.00536731 -0.000461745 7.48117e-05
0.0010653 7.48117e-05 -0.00594646
0.00311062 -0.00651385 -0.00105703
-0.00651385 0.012571 -9.50502e-05
-0.00105703 -9.50502e-05 0.0025955
0.00398336 0.00186318 -2.21817e-05
0.00186318 0.000698849 4.60202e-06
-2.21817e-05 4.60202e-06 0.00037281
0.00100811 0.000759627 -1.31221e-05
0.000759627 0.000250627 8.62698e-06
-1.31221e-05 8.62698e-06 -0.000265278
0.00240647 0.00132769 2.01734e-07
0.00132769 0.00080972 -3.41833e-08
2.01734e-07 -3.41833e-08 0.000165048
0.00221214 0.00228674 8.90725e-05
0.00228674 0.000385491 6.06053e-05
8.90725e-05 6.06053e-05 0.000103362
0.014503 0.00539421 -0.000235168
0.00539421 -0.00248065 -0.000134925
-0.000235168 -0.000134925 -0.00171081
0.0029119 0.00474628 -2.861e-05
0.00474628 -0.00166451 -6.30992e-05
-2.861e-05 -6.30992e-05 0.000353507
0.0276035 -0.00824964 0.000933327
-0.00824964 0.0129249 -0.000139438
0.000933327 -0.000139438 0.00417038
0.0273898 -0.00644135 -0.000202283
-0.00644135 0.00992791 0.000978953
-0.000202283 0.000978953 0.00263699
0.00071874 0.000466808 -9.13726e-06
0.000466808 0.000339365 -1.56475e-05
-9.13726e-06 -1.56475e-05 8.96565e-06
-0.00534593 0.000696806 7.89625e-05
0.000696806 0.00672506 -0.000177524
7.89625e-05 -0.000177524 -0.00276562
0.00841917 0.00259767 -0.000807651
0.00259767 0.00659302 -0.000638486
-0.000807651 -0.000638486 0.000935376
0.00293224 0.00146463 -5.58583e-05
0.00146463 0.00062818 -3.10765e-05
-5.58583e-05 -3.10765e-05 0.000436069
0.00272886 0.00135148 -9.32563e-05
0.00135148 0.00121061 -3.86947e-05
-9.32563e-05 -3.86947e-05 0.000577507
0.00224232 0.00179237 -0.000118968
0.00179237 0.00138439 -4.66316e-05
-0.000118968 -4.66316e-05 0.000464098
-0.00249805 0.0035666 7.2207e-05
0.0035666 -0.000773996 -2.98813e-05
7.2207e-05 -2.98813e-05 -0.000844795
0.00585511 0.00801038 0.00100755
0.00801038 -0.00270768 0.000115052
0.00100755 0.000115052 -0.00294274
0.0292024 -0.0103377 -0.000571723
-0.0103377 0.0168903 0.0010882
-0.000571723 0.0010882 0.00687593
0.00972345 0.000871074 -0.000183639
0.000871074 -0.00157135 -0.000253376
-0.000183639 -0.000253376 -0.00221555
0.00109295 0.000292415 -5.30226e-06
0.000292415 0.000755684 1.1461e-06
-5.30226e-06 1.1461e-06 0.000532423
0.00079752 0.000312521 3.5036e-06
0.000312521 0.000582837 7.01005e-08
3.5036e-06 7.01005e-08 0.000277866
-0.00063546 0.000193501 3.74324e-06
0.000193501 -0.00021873 5.48959e-07
3.74324e-06 5.48959e-07 -0.000524539
0.000402648 7.62949e-05 2.70215e-06
7.62949e-05 4.30628e-05 1.58359e-06
2.70215e-06 1.58359e-06 -0.000119717
0.0012277 0.000122933 2.67248e-07
0.000122933 0.00064556 1.61168e-06
2.67248e-07 1.61168e-06 0.000420116
0.000395857 2.08165e-05 -9.70646e-07
2.08165e-05 0.000133806 2.76768e-06
-9.70646e-07 2.76768e-06 -0.000101415
0.000151653 8.9412e-05 7.6493e-06
8.9412e-05 2.58262e-05 4.39686e-06
7.6493e-06 4.39686e-06 -0.000224401
5.62823e-05 6.99764e-05 -4.45267e-06
6.99764e-05 1.99978e-05 5.12875e-06
-4.45267e-06 5.12875e-06 -0.000180535
0.000821376 4.31898e-05 -2.45606e-07
4.31898e-05 0.000364104 -9.31521e-07
-2.45606e-07 -9.31521e-07 0.000150145
0.000496 5.44667e-05 8.14274e-08
5.44667e-05 0.000218715 -8.59734e-07
8.14274e-08 -8.59734e-07 1.88126e-05
0.000861275 -3.47875e-05 -6.30346e-07
-3.47875e-05 0.000429614 2.32332e-06
-6.30346e-07 2.32332e-06 0.000198854
-0.000581589 5.76591e-05 -8.76588e-07
5.76591e-05 -0.000123826 3.22664e-07
-8.76588e-07 3.22664e-07 -0.000494656
0.000224401 1.44474e-05 3.8268e-06
1.44474e-05 0.000519122 6.91481e-06
3.8268e-06 6.91481e-06 1.30995e-05
0.000678786 -4.3858e-05 2.61362e-06
-4.3858e-05 0.000468787 -3.66868e-06
2.61362e-06 -3.66868e-06 0.000179802
0.00187668 -5.68911e-05 -4.73724e-06
-5.68911e-05 0.00114591 3.88318e-06
-4.73724e-06 3.88318e-06 0.000870629
0.00103601 -0.000127954 -6.15692e-07
-0.000127954 0.000508787 -1.47773e-06
-6.15692e-07 -1.47773e-06 0.000298655
0.000368877 -0.000105691 2.54685e-07
-0.000105691 5.11747e-05 9.84463e-06
2.54685e-07 9.84463e-06 -9.38965e-05
0.000598286 -0.000144034 6.24899e-07
-0.000144034 0.000250093 5.83012e-07
6.24899e-07 5.83012e-07 5.96079e-05
0.000721888 -0.000157782 -9.77805e-07
-0.000157782 0.000234626 -2.32168e-06
-9.77805e-07 -2.32168e-06 8.56993e-05
6.85894e-05 -7.38465e-05 -2.60574e-06
-7.38465e-05 -4.28979e-05 5.99802e-06
-2.60574e-06 5.99802e-06 -0.000201313
-0.00118107 -3.57598e-05 9.0177e-07
-3.57598e-05 -0.00081684 -1.11434e-05
9.0177e-07 -1.11434e-05 -0.00104681
-0.000362133 -9.26628e-05 -9.41691e-06
-9.26628e-05 -0.000202053 1.60898e-06
-9.41691e-06 1.60898e-06 -0.000456945
0.000335694 -0.000128197 2.78015e-06
-0.000128197 0.000134245 -9.17169e-06
2.78015e-06 -9.17169e-06 -3.11232e-05
0.00119629 -0.000177108 3.03171e-05
-0.000177108 0.000495731 -1.66112e-05
3.03171e-05 -1.66112e-05 0.000359681
0.00427221 -0.000722275 -3.94625e-06
-0.000722275 0.00234577 2.91447e-06
-3.94625e-06 2.91447e-06 0.00199959
-0.0010921 -0.000163085 -2.24865e-06
-0.000163085 -0.000777495 -1.25021e-06
-2.24865e-06 -1.25021e-06 -0.00102086
0.000337164 -3.73177e-05 2.2658e-06
-3.73177e-05 0.000176514 8.88534e-07
2.2658e-06 8.88534e-07 -9.51552e-05
-0.00144688 2.84084e-05 6.84862e-06
2.84084e-05 -0.000995931 -2.64433e-06
6.84862e-06 -2.64433e-06 -0.00127593
0.000669869 -0.000221938 -2.52554e-06
-0.000221938 0.000303352 -1.08574e-06
-2.52554e-06 -1.08574e-06 9.30796e-05
0.000758077 -6.19944e-05 3.72095e-06
-6.19944e-05 0.000292138 -4.23657e-07
3.72095e-06 -4.23657e-07 0.000117698
0.000764787 -0.00019284 2.17087e-06
-0.00019284 0.000336601 -2.95352e-06
2.17087e-06 -2.95352e-06 0.000147955
0.000585552 -9.44171e-05 -7.56896e-07
-9.44171e-05 0.000190434 3.22731e-07
-7.56896e-07 3.22731e-07 2.39345e-05
0.000218026 3.97075e-05 2.69972e-06
3.97075e-05 -0.000101365 4.02904e-06
2.69972e-06 4.02904e-06 -0.00020393
0.000711101 -0.000148847 -6.66985e-08
-0.000148847 0.00025242 -1.11075e-06
-6.66985e-08 -1.11075e-06 8.92048e-05
0.000451375 -5.59751e-05 -6.9747e-07
-5.59751e-05 3.73366e-05 1.95631e-07
-6.9747e-07 1.95631e-07 -5.5505e-05
0.00136895 3.42034e-05 -9.21278e-06
3.42034e-05 0.000606989 8.3172e-06
-9.21278e-06 8.3172e-06 0.000580354
0.000442473 -8.23735e-05 8.51268e-07
-8.23735e-05 4.26445e-05 -3.50635e-06
8.51268e-07 -3.50635e-06 -5.42283e-05
0.000829996 -2.85731e-05 -1.20578e-05
-2.85731e-05 0.000264933 9.7691e-07
-1.20578e-05 9.7691e-07 0.000235037
0.00072841 9.75645e-06 2.1315e-06
9.75645e-06 0.000174206 2.30476e-06
2.1315e-06 2.30476e-06 0.000176053
0.000392951 -4.39954e-05 4.33897e-06
-4.39954e-05 -1.85332e-05 -5.45893e-06
4.33897e-06 -5.45893e-06 -4.84411e-05
0.00256404 5.06493e-06 6.72113e-06
5.06493e-06 0.0013768 -1.11121e-08
6.72113e-06 -1.11121e-08 0.00138869
0.00259711 -4.99754e-06 1.19988e-05
-4.99754e-06 0.00139959 -5.27976e-06
1.19988e-05 -5.27976e-06 0.00141069
0.00102281 7.90067e-05 -9.15851e-07
7.90067e-05 0.000456641 -3.33507e-06
-9.15851e-07 -3.33507e-06 0.000320009
0.000484739 7.7601e-05 -1.52063e-06
7.7601e-05 6.6461e-05 -5.26165e-06
-1.52063e-06 -5.26165e-06 -2.34794e-06
0.000506097 -2.33204e-05 -9.06807e-07
-2.33204e-05 0.000122043 9.22736e-07
-9.06807e-07 9.22736e-07 -6.05286e-06
0.000392765 1.29062e-05 1.35453e-06
1.29062e-05 -4.50226e-05 -4.37595e-06
1.35453e-06 -4.37595e-06 -5.82298e-05
0.000407966 -1.1305e-05 2.16252e-06
-1.1305e-05 5.91378e-06 -2.7037e-07
2.16252e-06 -2.7037e-07 -5.30488e-05
0.000445141 -7.40249e-05 -3.58343e-06
-7.40249e-05 3.44027e-05 4.61124e-06
-3.58343e-06 4.61124e-06 -2.99378e-05
0.00041719 2.44561e-06 -6.37694e-07
2.44561e-06 -3.02228e-05 6.18458e-09
-6.37694e-07 6.18458e-09 -4.38437e-05
0.00205066 2.91517e-05 -5.89666e-06
2.91517e-05 0.00103841 -5.31e-06
-5.89666e-06 -5.31e-06 0.00105343
0.00117263 1.92479e-05 -1.31222e-06
1.92479e-05 0.000463526 3.20097e-06
-1.31222e-06 3.20097e-06 0.000450791
0.00136442 3.46361e-05 -4.42498e-06
3.46361e-05 0.000591158 4.39676e-09
-4.42498e-06 4.39676e-09 0.000600421
0.000750983 4.13576e-05 -2.44883e-07
4.13576e-05 0.000198274 9.43147e-06
-2.44883e-07 9.43147e-06 0.000199261
-0.00473044 0.00357587 0.0012322
0.00357587 -0.0006418 -0.000117313
0.0012322 -0.000117313 -0.0067683
0.00416345 0.00357755 0.00260724
0.00357755 0.011669 -0.000299007
0.00260724 -0.000299007 0.00359049
0.00199347 0.00118262 -0.000124912
0.00118262 -0.00405107 -6.16461e-05
-0.000124912 -6.16461e-05 -0.000528351
0.00296744 -5.3537e-05 5.17971e-05
-5.3537e-05 -0.00165422 -3.56204e-05
5.17971e-05 -3.56204e-05 -0.00039399
0.00308816 -9.93054e-05 4.99429e-05
-9.93054e-05 0.000166452 1.17631e-05
4.99429e-05 1.17631e-05 0.000391186
0.000371442 -0.000192473 -0.000129558
-0.000192473 -0.0026911 -3.99577e-05
-0.000129558 -3.99577e-05 -0.000260478
0.00460365 -0.000762479 8.36529e-06
-0.000762479 -9.49169e-05 1.87266e-06
8.36529e-06 1.87266e-06 0.000671597
0.0129406 -0.000784045 0.000356258
-0.000784045 -0.00335532 -0.000142094
0.000356258 -0.000142094 -0.00295564
0.00811351 0.00689883 -2.12557e-05
0.00689883 0.00308011 -0.000102997
-2.12557e-05 -0.000102997 -0.00275856
0.0316562 0.0162851 -0.000875813
0.0162851 0.0210953 0.000317228
-0.000875813 0.000317228 0.0102158
0.00287734 -0.00175106 -3.03147e-05
-0.00175106 -0.00375258 -3.92055e-05
-3.03147e-05 -3.92055e-05 -0.000770575
0.0156911 -0.00493101 0.000397644
-0.00493101 -0.00120011 -8.03371e-05
0.000397644 -8.03371e-05 -0.00106333
0.0263987 0.00915234 0.000541859
0.00915234 0.0111579 -0.000477791
0.000541859 -0.000477791 0.00202824
0.0318781 0.00641499 -0.000427379
0.00641499 0.013284 0.000417235
-0.000427379 0.000417235 0.00686459
0.0013152 0.000202682 -7.94207e-06
0.000202682 0.000752795 -1.58114e-06
-7.94207e-06 -1.58114e-06 0.000524415
0.000337698 3.20684e-05 1.24085e-06
3.20684e-05 8.10316e-06 -6.18574e-07
1.24085e-06 -6.18574e-07 -0.000113546
0.000533 -0.000114447 2.79027e-06
-0.000114447 0.000145386 4.20656e-06
2.79027e-06 4.20656e-06 1.94887e-05
0.000646276 -2.67252e-05 4.5991e-06
-2.67252e-05 0.000204538 2.9137e-06
4.5991e-06 2.9137e-06 7.90472e-05
0.000491924 7.01128e-05 4.31669e-06
7.01128e-05 0.000173676 2.04035e-07
4.31669e-06 2.04035e-07 5.03503e-05
0.000618982 9.53285e-05 -3.49797e-07
9.53285e-05 0.00022695 3.57356e-06
-3.49797e-07 3.57356e-06 2.77245e-05
0.000588095 8.24248e-05 -1.29605e-06
8.24248e-05 0.000211681 2.3232e-06
-1.29605e-06 2.3232e-06 5.47203e-05
0.000403326 0.000124529 4.5065e-06
0.000124529 2.99764e-05 3.28066e-06
4.5065e-06 3.28066e-06 -0.000142201
0.000555298 1.72872e-05 1.47313e-06
1.72872e-05 0.000176724 -1.20099e-06
1.47313e-06 -1.20099e-06 6.88373e-06
0.000287496 -3.18145e-05 1.63299e-06
-3.18145e-05 -2.75356e-05 1.56037e-06
1.63299e-06 1.56037e-06 -0.000150789
0.00112229 -0.000437179 5.10003e-05
-0.000437179 -0.00131552 -1.98632e-05
5.10003e-05 -1.98632e-05 -0.000682105
0.00146408 -0.000872956 3.11799e-05
-0.000872956 -0.000706092 -1.20947e-05
3.11799e-05 -1.20947e-05 -0.000512725
0.00134399 -0.00107056 1.35547e-05
-0.00107056 -0.000260601 6.84107e-06
1.35547e-05 6.84107e-06 -0.000601168
-0.00064601 -0.0010183 -9.01959e-06
-0.0010183 -0.00115181 -1.03777e-05
-9.01959e-06 -1.03777e-05 -0.00153114
0.00263375 -0.000927722 -6.81681e-06
-0.000927722 0.00192365 4.9429e-05
-6.81681e-06 4.9429e-05 0.00107589
-0.000989269 -0.000726059 -6.30787e-06
-0.000726059 -0.000460435 -2.0695e-05
-6.30787e-06 -2.0695e-05 -0.00121391
0.00136168 -0.000316151 1.53881e-05
-0.000316151 0.000740637 -8.94858e-06
1.53881e-05 -8.94858e-06 0.000479827
-9.13703e-05 -3.09046e-05 4.24343e-06
-3.09046e-05 -0.000126365 7.09672e-06
4.24343e-06 7.09672e-06 -0.000309223
0.0030402 -0.000995926 1.32183e-05
-0.000995926 -0.000480725 -1.16229e-05
1.32183e-05 -1.16229e-05 0.000160012
0.000702284 -0.000150758 -5.4327e-08
-0.000150758 0.000466738 2.09514e-06
-5.4327e-08 2.09514e-06 0.000135291
-0.000492084 -0.000272582 -1.24935e-05
-0.000272582 -0.00016491 2.4707e-07
-1.24935e-05 2.4707e-07 -0.000576561
0.00204318 -0.00116441 2.10242e-05
-0.00116441 4.97873e-05 -2.11032e-06
2.10242e-05 -2.11032e-06 -0.000156519
0.00201995 -0.00140699 -1.01061e-06
-0.00140699 0.000214337 -5.49463e-06
-1.01061e-06 -5.49463e-06 -0.000197861
8.9191e-05 -0.000934031 1.79742e-05
-0.000934031 -0.000352152 -1.56061e-05
1.79742e-05 -1.56061e-05 -0.000634115
0.00110703 -0.000591441 2.8359e-05
-0.000591441 0.00113001 -2.82887e-05
2.8359e-05 -2.82887e-05 0.000389277
0.00194605 -0.00162962 -4.31385e-05
-0.00162962 -0.000688 4.66685e-05
-4.31385e-05 4.66685e-05 -0.000587283
0.00239146 -0.0013047 -5.52984e-05
-0.0013047 0.00055383 2.87725e-05
-5.52984e-05 2.87725e-05 0.000319856
-0.000709864 -0.000595384 -5.01719e-05
-0.000595384 -0.000232906 3.07632e-05
-5.01719e-05 3.07632e-05 -0.000669982
-0.000660537 -3.91338e-05 -7.7291e-06
-3.91338e-05 -0.000450357 5.26362e-06
-7.7291e-06 5.26362e-06 -0.000730793
-0.00107427 3.1666e-06 -4.44305e-06
3.1666e-06 -0.00051285 1.97652e-05
-4.44305e-06 1.97652e-05 -0.000912801
0.000473387 -7.91408e-05 4.32451e-06
-7.91408e-05 0.000466452 4.49583e-06
4.32451e-06 4.49583e-06 7.10623e-05
-0.00269381 0.00154924 -0.000726483
0.00154924 0.00856509 1.55938e-05
-0.000726483 1.55938e-05 0.00126721
-5.73954e-05 -0.00247612 -1.94058e-05
-0.00247612 0.00463202 -5.98585e-05
-1.94058e-05 -5.98585e-05 0.00181822
0.00635702 0.000579587 -0.000148656
0.000579587 -0.00729433 -4.38791e-05
-0.000148656 -4.38791e-05 -0.00733328
0.00153881 0.000543635 1.87202e-05
0.000543635 0.000986409 -9.58201e-06
1.87202e-05 -9.58201e-06 0.000585703
0.00177129 0.000930479 2.15777e-05
0.000930479 0.000749714 3.03399e-05
2.15777e-05 3.03399e-05 0.000157526
0.00410122 0.00168603 9.93607e-05
0.00168603 0.000715024 4.75049e-05
9.93607e-05 4.75049e-05 0.000482258
0.00240161 0.00139971 3.3768e-05
0.00139971 0.000829325 3.2811e-05
3.3768e-05 3.2811e-05 0.000147086
0.0166799 -0.00634647 0.000371782
-0.00634647 0.00916869 0.000117085
0.000371782 0.000117085 0.00308136
0.00318118 0.00389233 -0.000700502
0.00389233 -0.00866738 -0.000150425
-0.000700502 -0.000150425 -0.00817583
0.00648838 0.0050743 1.43785e-05
0.0050743 0.000254959 1.86532e-05
1.43785e-05 1.86532e-05 0.00167551
0.00386713 0.00223093 0.000108231
0.00223093 0.0015524 1.8946e-05
0.000108231 1.8946e-05 0.00123338
0.0183328 -0.00501714 -0.000780433
-0.00501714 0.00805632 -0.000211775
-0.000780433 -0.000211775 0.0003648
0.00429189 -0.00796363 -0.00162084
-0.00796363 0.0137368 -0.000222374
-0.00162084 -0.000222374 0.00399656
0.0390694 -0.00988939 0.00149965
-0.00988939 0.0140033 0.00051365
0.00149965 0.00051365 0.00541605
0.000504363 0.000466913 1.20508e-05
0.000466913 0.000278251 -5.71721e-06
1.20508e-05 -5.71721e-06 -8.30769e-05
-0.00103808 -0.000519185 -0.000150027
-0.000519185 0.00923867 -1.23943e-05
-0.000150027 -1.23943e-05 0.000571081
0.00872998 0.00316383 -0.000298656
0.00316383 0.004797 -0.000211532
-0.000298656 -0.000211532 -0.00176671
0.00235874 0.00152148 1.37344e-05
0.00152148 0.000473203 4.62096e-06
1.37344e-05 4.62096e-06 0.000170238
0.00117667 0.00108998 1.23294e-05
0.00108998 0.000473724 8.52837e-06
1.23294e-05 8.52837e-06 -0.000130575
0.0011093 0.00179742 -0.000141126
0.00179742 0.000714147 -9.89833e-05
-0.000141126 -9.89833e-05 -1.22421e-05
0.00339101 0.00546906 9.06126e-05
0.00546906 0.000590312 5.61505e-05
9.06126e-05 5.61505e-05 0.000780376
0.012441 0.00861266 -3.21754e-05
0.00861266 -0.000116011 -9.61466e-06
-3.21754e-05 -9.61466e-06 -0.00164924
0.0129133 -0.00585375 0.000126668
-0.00585375 0.0104956 -0.000167885
0.000126668 -0.000167885 0.000623062
0.0193818 -0.00219902 -8.10483e-05
-0.00219902 0.00339313 -5.41821e-05
-8.10483e-05 -5.41821e-05 0.00283717
0.00175773 0.0009895 -2.23003e-05
0.0009895 0.0010015 -1.42566e-05
-2.23003e-05 -1.42566e-05 0.000474385
0.00152497 0.000679814 -0.000627414
0.000679814 0.00381906 -0.000174588
-0.000627414 -0.000174588 -0.00328987
0.00292218 0.00170562 -0.000175608
0.00170562 0.000801314 -0.000219384
-0.000175608 -0.000219384 -0.00208295
-0.000965432 0.000627662 -8.5622e-06
0.000627662 -0.000128633 -3.15987e-05
-8.5622e-06 -3.15987e-05 -0.000591361
-0.00233973 0.00144037 -0.000155916
0.00144037 0.000692957 1.97603e-05
-0.000155916 1.97603e-05 -0.000169248
0.00882041 0.00805545 0.00033754
0.00805545 0.00394576 2.71309e-05
0.00033754 2.71309e-05 -0.00141669
0.00881854 -0.00684114 -1.5863e-05
-0.00684114 0.00310167 0.000234468
-1.5863e-05 0.000234468 -0.00497399
0.0170167 -0.000729644 9.37322e-05
-0.000729644 -0.000469335 -0.000352919
9.37322e-05 -0.000352919 0.000559904
0.00148022 0.000375714 4.22112e-06
0.000375714 0.000959761 2.3894e-05
4.22112e-06 2.3894e-05 0.000677039
0.000963271 0.000357849 -5.26789e-06
0.000357849 0.000755761 -4.96692e-06
-5.26789e-06 -4.96692e-06 0.000418587
-0.000426802 0.000225837 7.43722e-06
0.000225837 9.93801e-05 -2.23155e-06
7.43722e-06 -2.23155e-06 -0.000378708
0.00042822 8.98465e-05 1.47244e-07
8.98465e-05 7.89252e-05 -2.5136e-07
1.47244e-07 -2.5136e-07 -0.000111626
0.00131372 -1.3217e-05 -3.15551e-06
-1.3217e-05 0.000742475 5.2288e-06
-3.15551e-06 5.2288e-06 0.000492728
0.000223888 7.96175e-05 2.81844e-06
7.96175e-05 4.09346e-05 4.37342e-06
2.81844e-06 4.37342e-06 -0.000159898
-0.000669349 0.000102817 -9.04364e-07
0.000102817 -0.000170323 1.2446e-06
-9.04364e-07 1.2446e-06 -0.000544543
0.000679646 -5.79855e-05 2.62365e-06
-5.79855e-05 0.000310012 6.3481e-07
2.62365e-06 6.3481e-07 8.79134e-05
0.000201673 4.47979e-05 3.25751e-07
4.47979e-05 0.000159123 -2.05066e-06
3.25751e-07 -2.05066e-06 -0.000119633
-2.35725e-05 2.69842e-05 -1.16633e-06
2.69842e-05 0.000437433 1.39153e-06
-1.16633e-06 1.39153e-06 -0.000121639
-0.000401296 6.54767e-05 2.58344e-06
6.54767e-05 0.000341383 8.16254e-06
2.58344e-06 8.16254e-06 -0.000272586
0.000602145 -4.11349e-05 3.7417e-06
-4.11349e-05 0.000734614 -4.4676e-06
3.7417e-06 -4.4676e-06 0.000234659
0.00140341 -2.80979e-05 -6.54324e-06
-2.80979e-05 0.000928989 5.93033e-06
-6.54324e-06 5.93033e-06 0.000646124
0.00100423 -0.000198672 5.21709e-06
-0.000198672 0.000524102 3.7201e-06
5.21709e-06 3.7201e-06 0.000322683
0.000358413 -0.000123068 -2.2682e-06
-0.000123068 -2.0259e-06 5.64926e-06
-2.2682e-06 5.64926e-06 -0.000151041
-0.000398571 -5.17019e-05 1.3315e-05
-5.17019e-05 -0.000346939 1.08269e-05
1.3315e-05 1.08269e-05 -0.000472283
0.000105499 -3.88038e-05 1.46758e-06
-3.88038e-05 8.44655e-05 1.26317e-06
1.46758e-06 1.26317e-06 -0.000161409
0.000563007 -5.59136e-05 1.13933e-06
-5.59136e-05 0.000229372 1.44014e-06
1.13933e-06 1.44014e-06 2.30525e-05
-0.000212639 -8.72714e-05 -5.19811e-06
-8.72714e-05 -0.000169857 4.02046e-07
-5.19811e-06 4.02046e-07 -0.000344976
0.000298571 -0.000121264 -4.81339e-06
-0.000121264 9.74267e-05 -7.02842e-06
-4.81339e-06 -7.02842e-06 -7.50631e-05
0.000859739 -0.000107743 5.68032e-06
-0.000107743 0.000672127 -8.96508e-06
5.68032e-06 -8.96508e-06 0.000416464
0.00230555 -0.000465071 4.04583e-06
-0.000465071 0.0011194 7.06254e-06
4.04583e-06 7.06254e-06 0.000956775
0.000465651 -0.000162607 -2.53761e-05
-0.000162607 4.88667e-05 7.68653e-07
-2.53761e-05 7.68653e-07 -8.52187e-05
0.00115658 -0.000428527 7.17857e-06
-0.000428527 0.000390155 6.86338e-06
7.17857e-06 6.86338e-06 0.000135593
0.00282648 -0.000903566 -7.85929e-06
-0.000903566 0.00137834 1.81503e-05
-7.85929e-06 1.81503e-05 0.000865058
0.00283637 -0.000370597 1.4112e-05
-0.000370597 0.00143845 -6.68086e-06
1.4112e-05 -6.68086e-06 0.00119918
0.00227334 -0.000512862 1.57065e-06
-0.000512862 0.00111619 -7.62851e-06
1.57065e-06 -7.62851e-06 0.00083805
0.000332116 -0.00018095 -3.58743e-07
-0.00018095 9.6978e-05 -3.70723e-07
-3.58743e-07 -3.70723e-07 -0.000153147
-0.00156072 -0.000109544 2.36552e-06
-0.000109544 -0.00103542 -5.05515e-06
2.36552e-06 -5.05515e-06 -0.00138102
0.00170785 -6.24821e-05 3.67649e-06
-6.24821e-05 0.00101842 3.99891e-06
3.67649e-06 3.99891e-06 0.000759409
0.000705773 -0.000219564 3.16671e-06
-0.000219564 0.000336007 -1.6825e-06
3.16671e-06 -1.6825e-06 6.17547e-05
0.000322563 -8.57495e-05 5.08394e-06
-8.57495e-05 -1.92006e-05 -1.55193e-06
5.08394e-06 -1.55193e-06 -0.000208808
0.00202708 -0.000382865 -6.7888e-06
-0.000382865 0.00119307 2.15015e-07
-6.7888e-06 2.15015e-07 0.000951966
0.000547021 -0.000163554 -4.13171e-07
-0.000163554 0.000172141 -2.99246e-07
-4.13171e-07 -2.99246e-07 -1.19905e-05
0.000255764 -2.30434e-05 2.4169e-06
-2.30434e-05 -8.18013e-05 5.31808e-06
2.4169e-06 5.31808e-06 -0.00019521
0.000963113 -0.000180219 -1.90788e-06
-0.000180219 0.000450808 7.3032e-07
-1.90788e-06 7.3032e-07 0.0002732
0.000608386 -8.52742e-05 -2.12011e-07
-8.52742e-05 0.000151911 5.40253e-08
-2.12011e-07 5.40253e-08 4.54209e-05
0.00146079 7.74701e-07 -1.52506e-05
7.74701e-07 0.000663633 9.08291e-06
-1.52506e-05 9.08291e-06 0.000632467
0.000475564 -8.36242e-05 4.76399e-07
-8.36242e-05 6.63191e-05 -4.31675e-06
4.76399e-07 -4.31675e-06 -3.53011e-05
0.000823858 -1.88198e-05 -1.42484e-05
-1.88198e-05 0.00025438 8.76709e-07
-1.42484e-05 8.76709e-07 0.00022335
0.000812835 1.86129e-05 2.58907e-06
1.86129e-05 0.000226969 3.22616e-06
2.58907e-06 3.22616e-06 0.000226218
0.000380143 -5.00524e-05 3.76774e-06
-5.00524e-05 -3.01421e-05 -5.96407e-06
3.76774e-06 -5.96407e-06 -6.2204e-05
0.00168259 1.46924e-05 1.67306e-05
1.46924e-05 0.000799055 -1.67373e-06
1.67306e-05 -1.67373e-06 0.000806343
0.00254266 1.64142e-06 2.21593e-05
1.64142e-06 0.0013622 -5.52125e-06
2.21593e-05 -5.52125e-06 0.00137443
0.000467321 8.63555e-05 1.00709e-06
8.63555e-05 6.57763e-05 -3.32263e-06
1.00709e-06 -3.32263e-06 -6.98998e-05
0.000534012 7.9537e-05 -7.83347e-07
7.9537e-05 9.6137e-05 -5.43522e-06
-7.83347e-07 -5.43522e-06 2.12301e-05
0.000539777 1.96615e-05 6.43536e-07
1.96615e-05 0.000133705 6.67738e-07
6.43536e-07 6.67738e-07 3.39256e-06
0.000408555 8.26281e-06 2.99285e-06
8.26281e-06 -3.48498e-05 -5.02771e-06
2.99285e-06 -5.02771e-06 -4.92443e-05
0.000427431 6.54696e-05 1.64715e-07
6.54696e-05 2.16111e-05 -1.71948e-07
1.64715e-07 -1.71948e-07 -4.20508e-05
0.000386424 -0.000120341 -3.5601e-06
-0.000120341 2.62927e-05 4.60692e-06
-3.5601e-06 4.60692e-06 -9.0061e-05
0.00204693 1.43858e-05 -1.08993e-05
1.43858e-05 0.00103426 -5.35799e-06
-1.08993e-05 -5.35799e-06 0.00105043
0.000403214 8.33828e-06 -4.01127e-07
8.33828e-06 -3.82426e-05 -7.69233e-10
-4.01127e-07 -7.69233e-10 -5.13447e-05
0.000475319 2.32644e-06 -1.40995e-06
2.32644e-06 3.87338e-05 4.1572e-06
-1.40995e-06 4.1572e-06 -1.37149e-05
0.000415843 -2.91825e-07 -2.74854e-06
-2.91825e-07 -3.20148e-05 4.40056e-06
-2.74854e-06 4.40056e-06 -4.55728e-05
0.00205909 3.01191e-05 -6.01202e-06
3.01191e-05 0.00104408 -1.67191e-07
-6.01202e-06 -1.67191e-07 0.00105892
0.00209761 4.63794e-05 6.62492e-07
4.63794e-05 0.00107208 5.43823e-06
6.62492e-07 5.43823e-06 0.00108484
-0.00111435 -0.00195718 -0.000400942
-0.00195718 0.00976955 7.50137e-05
-0.000400942 7.50137e-05 0.00402524
0.00608167 0.00390616 -0.000489297
0.00390616 0.00356901 0.00015902
-0.000489297 0.00015902 -0.00192333
0.00360067 -0.00149206 -0.000621946
-0.00149206 0.00163087 0.000325951
-0.000621946 0.000325951 -0.00369707
0.0076704 0.00436884 0.0016654
0.00436884 0.0115003 -0.000227006
0.0016654 -0.000227006 0.00290354
0.00531319 0.00108705 -4.96772e-06
0.00108705 -0.000867543 -1.51419e-05
-4.96772e-06 -1.51419e-05 0.001021
0.0034518 -0.000816836 0.000115665
-0.000816836 -0.000713496 2.88755e-05
0.000115665 2.88755e-05 -3.47798e-05
0.00271153 -0.000673825 0.000521108
-0.000673825 -0.00868196 -3.27862e-05
0.000521108 -3.27862e-05 -0.00803811
0.0251949 0.00666027 -0.00203207
0.00666027 0.0129669 -7.28751e-05
-0.00203207 -7.28751e-05 0.00606478
0.0241564 0.0197227 -0.00322101
0.0197227 0.0169685 0.0018756
-0.00322101 0.0018756 0.00529986
0.00543467 -0.0013696 7.32071e-05
-0.0013696 -0.00191199 1.08199e-06
7.32071e-05 1.08199e-06 0.000242353
0.00794863 -0.00488865 0.000281529
-0.00488865 -0.00587674 -0.000224464
0.000281529 -0.000224464 -0.00594598
0.0282003 0.00896272 -0.00051329
0.00896272 0.0121828 -0.00022514
-0.00051329 -0.00022514 0.00300484
0.0232501 0.00591115 0.000315531
0.00591115 0.00981486 0.000542488
0.000315531 0.000542488 0.00354288
0.00238567 -0.00316841 -0.000111295
-0.00316841 -0.0044969 7.96786e-05
-0.000111295 7.96786e-05 -0.00144651
0.00436704 -0.00766859 0.000882728
-0.00766859 -0.00243911 -0.000294527
0.000882728 -0.000294527 -0.00416292
0.0162802 0.0043067 -0.000372124
0.0043067 0.00720535 -0.00120134
-0.000372124 -0.00120134 -0.00185647
0.0109678 -0.000802599 -0.000433023
-0.000802599 0.000364035 5.50942e-05
-0.000433023 5.50942e-05 -0.000831362
0.00208459 -5.43734e-05 -2.43679e-06
-5.43734e-05 0.00127628 1.56361e-05
-2.43679e-06 1.56361e-05 0.000970043
0.000196707 5.24172e-05 -1.20885e-06
5.24172e-05 -2.00966e-05 -2.20015e-06
-1.20885e-06 -2.20015e-06 -0.000185999
0.000538331 0.000120357 3.70538e-06
0.000120357 0.000131974 2.51602e-06
3.70538e-06 2.51602e-06 1.28753e-05
-0.000368913 -7.38807e-05 1.43991e-06
-7.38807e-05 -0.000442655 2.31987e-06
1.43991e-06 2.31987e-06 -0.000495062
0.000394455 0.000167713 2.56504e-06
0.000167713 4.92093e-05 1.08489e-05
2.56504e-06 1.08489e-05 -0.00015428
0.000532238 8.90347e-05 -6.69472e-07
8.90347e-05 0.000177261 1.67021e-07
-6.69472e-07 1.67021e-07 -1.27551e-05
-0.00016293 -1.29214e-06 2.52338e-06
-1.29214e-06 -0.000286436 1.82598e-06
2.52338e-06 1.82598e-06 -0.000420125
0.00095364 0.000200533 7.67152e-06
0.000200533 0.000441643 1.00989e-05
7.67152e-06 1.00989e-05 0.000222768
0.000980312 0.000190953 -8.58173e-08
0.000190953 0.000467017 -4.11383e-07
-8.58173e-08 -4.11383e-07 0.000248391
0.000331542 1.77714e-05 -2.6274e-06
1.77714e-05 2.22302e-05 -8.1475e-07
-2.6274e-06 -8.1475e-07 -0.000144566
0.00106703 -0.000846258 0.000124129
-0.000846258 -0.00161608 -6.92511e-05
0.000124129 -6.92511e-05 -0.000892326
0.000582203 -0.000981349 1.186e-05
-0.000981349 -0.000802211 -1.06236e-05
1.186e-05 -1.06236e-05 -0.000863471
0.00195803 -0.00137599 1.26774e-05
-0.00137599 0.000178055 1.10942e-05
1.26774e-05 1.10942e-05 -0.000191464
-0.000861472 -0.000918229 7.59769e-06
-0.000918229 -0.000898918 -1.35401e-05
7.59769e-06 -1.35401e-05 -0.00122124
0.00413858 -0.000761825 -7.00755e-05
-0.000761825 0.00274012 6.85218e-05
-7.00755e-05 6.85218e-05 0.00220373
0.000599874 -0.000306371 -3.14082e-07
-0.000306371 0.00051311 -1.06374e-05
-3.14082e-07 -1.06374e-05 9.16881e-05
0.000497215 4.68175e-05 4.29535e-06
4.68175e-05 0.000312967 -1.14597e-05
4.29535e-06 -1.14597e-05 -8.34919e-06
0.000640038 1.55416e-05 -5.73862e-06
1.55416e-05 0.000359081 4.10986e-06
-5.73862e-06 4.10986e-06 5.48655e-05
0.00305636 -0.0016463 -2.94515e-05
-0.0016463 -0.000109647 2.38271e-06
-2.94515e-05 2.38271e-06 0.000131961
0.000555487 -3.72574e-05 1.0671e-06
-3.72574e-05 0.000430158 3.93299e-06
1.0671e-06 3.93299e-06 6.63786e-05
0.00235092 -0.000499699 1.0311e-05
-0.000499699 0.00157281 -6.15835e-06
1.0311e-05 -6.15835e-06 0.00116378
0.00167751 -0.0012326 2.25366e-05
-0.0012326 0.000147072 -4.17496e-06
2.25366e-05 -4.17496e-06 -8.51734e-05
0.000287043 -0.000717174 -2.72213e-05
-0.000717174 0.000241808 8.74825e-06
-2.72213e-05 8.74825e-06 -0.000146647
0.00281839 -0.00271197 6.15488e-05
-0.00271197 0.000446899 -2.49498e-05
6.15488e-05 -2.49498e-05 -0.000170751
0.0016861 -0.000898623 -2.56769e-05
-0.000898623 0.000942834 2.7948e-05
-2.56769e-05 2.7948e-05 0.000622101
-0.00160732 -0.000176134 6.56394e-06
-0.000176134 -0.000510107 2.84667e-06
6.56394e-06 2.84667e-06 -0.00109242
0.000123629 0.000125838 4.41675e-06
0.000125838 6.99536e-05 3.32318e-06
4.41675e-06 3.32318e-06 -0.000137353
-0.000363512 -0.000240259 -3.88252e-06
-0.000240259 -3.05438e-05 2.89033e-05
-3.88252e-06 2.89033e-05 -0.000444674
0.00232996 0.000375108 -0.000152472
0.000375108 0.00257733 -5.23955e-05
-0.000152472 -5.23955e-05 -0.00278803
-0.00773462 0.000348455 -0.000780801
0.000348455 0.00771348 -6.76862e-06
-0.000780801 -6.76862e-06 0.00139899
-0.0125907 -0.00431171 -0.00144413
-0.00431171 -0.00276177 1.46828e-05
-0.00144413 1.46828e-05 -0.0069276
0.000201664 0.000467714 1.79644e-05
0.000467714 0.00017547 -2.32753e-06
1.79644e-05 -2.32753e-06 -0.000228418
0.000322696 0.000961478 4.44896e-06
0.000961478 8.38959e-05 1.14955e-05
4.44896e-06 1.14955e-05 -0.000515329
0.00336171 0.00181473 6.43417e-05
0.00181473 0.00103294 6.02503e-05
6.43417e-05 6.02503e-05 0.000599561
-0.00220212 0.00192676 0.000195265
0.00192676 0.0103444 8.04607e-05
0.000195265 8.04607e-05 0.00383889
0.00434865 0.0077282 -0.000799923
0.0077282 -0.00291393 -0.000232675
-0.000799923 -0.000232675 -0.00429611
0.000286828 0.00377228 0.000542923
0.00377228 -0.000650948 0.000238228
0.000542923 0.000238228 -0.000283606
0.000191671 0.00165862 -5.81484e-06
0.00165862 0.000205064 -4.59616e-05
-5.81484e-06 -4.59616e-05 -0.000130339
0.0329677 -0.00555358 0.000128104
-0.00555358 0.0138327 -0.000609796
0.000128104 -0.000609796 0.00567276
0.00939953 0.00394782 0.00116705
0.00394782 0.00431522 0.000370639
0.00116705 0.000370639 -0.00301284
0.0140475 -0.00105478 0.000137446
-0.00105478 0.00302205 8.00535e-05
0.000137446 8.00535e-05 0.00372989
0.00188756 0.00098849 1.25305e-05
0.00098849 0.00110739 -3.92306e-07
1.25305e-05 -3.92306e-07 0.000591873
0.00405461 0.00168384 -9.82489e-05
0.00168384 0.00486892 -1.36448e-05
-9.82489e-05 -1.36448e-05 -0.000949504
0.00295848 0.00130304 0.000153258
0.00130304 0.00127269 -2.01193e-05
0.000153258 -2.01193e-05 -0.0013833
-1.4315e-07 0.00102036 -1.4037e-05
0.00102036 0.000280491 -7.60059e-06
-1.4037e-05 -7.60059e-06 -0.000325801
-0.00102981 0.00248836 -0.000155902
0.00248836 0.000373967 -0.000101269
-0.000155902 -0.000101269 -0.00107693
0.002678 0.00841042 0.000469366
0.00841042 0.00173701 0.000156222
0.000469366 0.000156222 -0.00311205
0.0134364 -0.000621575 1.78168e-05
-0.000621575 -0.0025802 -0.000228532
1.78168e-05 -0.000228532 -0.00118833
0.0100715 -0.00331318 -0.0001524
-0.00331318 0.00596566 -0.00025072
-0.0001524 -0.00025072 -0.00182935
0.0013794 0.000847222 -6.15179e-06
0.000847222 0.0012011 -1.41251e-05
-6.15179e-06 -1.41251e-05 0.000564614
-0.00416159 0.00100559 7.15551e-05
0.00100559 0.00168516 8.14692e-05
7.15551e-05 8.14692e-05 -0.00104542
0.00825158 -0.00126584 0.000344168
-0.00126584 0.000512726 -9.85626e-05
0.000344168 -9.85626e-05 -0.00170356
0.0107946 -0.000669029 0.000394671
-0.000669029 0.000269017 -2.13985e-05
0.000394671 -2.13985e-05 -0.000683859
-0.00293847 0.000541238 7.02173e-05
0.000541238 0.000498336 -1.33053e-05
7.02173e-05 -1.33053e-05 -0.000728224
0.00776078 0.00449519 0.000459966
0.00449519 0.00588174 0.000232447
0.000459966 0.000232447 -0.00146533
0.00837842 -0.000508378 -1.73232e-05
-0.000508378 0.00337175 0.000421583
-1.73232e-05 0.000421583 -0.00137941
0.00290769 0.000568591 2.15239e-05
0.000568591 0.00194254 1.35235e-05
2.15239e-05 1.35235e-05 0.00156328
0.000308523 0.000357098 -9.35165e-06
0.000357098 0.000525061 -2.55354e-06
-9.35165e-06 -2.55354e-06 4.04536e-07
0.000675472 0.000413439 2.40367e-06
0.000413439 0.000871688 -1.50535e-05
2.40367e-06 -1.50535e-05 0.000144879
-0.000155367 7.09273e-05 4.03551e-06
7.09273e-05 -0.000234701 -4.16292e-06
4.03551e-06 -4.16292e-06 -0.000443015
0.000378871 0.000103139 -6.27911e-07
0.000103139 0.000257543 -1.65081e-06
-6.27911e-07 -1.65081e-06 -2.3635e-06
-0.000147923 2.92429e-05 -1.04045e-06
2.92429e-05 0.000439521 -4.60191e-06
-1.04045e-06 -4.60191e-06 -0.000162698
9.70669e-05 1.35423e-06 -9.35751e-07
1.35423e-06 7.22031e-05 -7.28335e-07
-9.35751e-07 -7.28335e-07 -0.000182498
0.000756308 -0.000107866 4.76576e-07
-0.000107866 0.000869937 -2.66312e-06
4.76576e-07 -2.66312e-06 0.000346651
-0.000129992 3.86654e-05 3.13673e-06
3.86654e-05 0.000538105 8.93886e-07
3.13673e-06 8.93886e-07 -8.71651e-05
0.00027051 -0.000109854 -5.14483e-06
-0.000109854 0.000690716 1.56375e-05
-5.14483e-06 1.56375e-05 0.0001704
0.00113307 -9.81645e-05 1.93304e-06
-9.81645e-05 0.000975731 -1.46786e-05
1.93304e-06 -1.46786e-05 0.000596402
-0.000188467 -2.89997e-05 8.31516e-06
-2.89997e-05 -0.000137503 3.67745e-06
8.31516e-06 3.67745e-06 -0.000353637
0.00186718 -9.48035e-05 9.94309e-07
-9.48035e-05 0.00100339 6.44945e-06
9.94309e-07 6.44945e-06 0.000813452
-0.000359219 -6.8155e-05 -4.22542e-06
-6.8155e-05 -0.000226297 8.01686e-06
-4.22542e-06 8.01686e-06 -0.000416196
0.000482718 -7.75429e-05 7.30862e-07
-7.75429e-05 0.000423612 1.17378e-06
7.30862e-07 1.17378e-06 0.000179641
-0.00039903 -4.62884e-05 -3.12768e-06
-4.62884e-05 -0.000309133 -1.91205e-06
-3.12768e-06 -1.91205e-06 -0.000487716
0.00129703 -0.000398554 8.68278e-07
-0.000398554 0.000648757 6.37262e-06
8.68278e-07 6.37262e-06 0.000450736
0.000733145 -0.000280727 -2.58828e-05
-0.000280727 0.000256567 -3.12801e-07
-2.58828e-05 -3.12801e-07 0.000161412
-0.000721918 -0.000354897 1.24949e-05
-0.000354897 -0.000579591 2.12741e-05
1.24949e-05 2.12741e-05 -0.000971949
0.000151546 -0.000138661 1.83068e-06
-0.000138661 -0.000124121 1.65784e-06
1.83068e-06 1.65784e-06 -0.000255191
0.00118522 -0.000426011 -4.93381e-06
-0.000426011 0.000400625 8.54299e-06
-4.93381e-06 8.54299e-06 0.000142961
0.00238954 -0.000868095 -9.51826e-06
-0.000868095 0.0010648 1.257e-05
-9.51826e-06 1.257e-05 0.000522741
0.00214736 -0.000931592 -2.97338e-06
-0.000931592 0.000829676 -1.65799e-06
-2.97338e-06 -1.65799e-06 0.000234164
0.00192957 -0.000546794 7.50991e-06
-0.000546794 0.0008228 1.04271e-06
7.50991e-06 1.04271e-06 0.000474263
0.000818749 -0.000610132 1.06163e-05
-0.000610132 0.000132185 -3.53678e-06
1.06163e-05 -3.53678e-06 -0.00029592
0.00138048 -0.000268662 3.1828e-06
-0.000268662 0.000700765 -3.16025e-06
3.1828e-06 -3.16025e-06 0.000350993
0.00106612 -0.000265902 -8.26546e-06
-0.000265902 0.00038579 1.4554e-06
-8.26546e-06 1.4554e-06 0.000130638
-0.000297788 -0.000245585 1.90096e-05
-0.000245585 -0.000487622 -1.13313e-05
1.90096e-05 -1.13313e-05 -0.000683526
0.00166111 -0.00019907 -5.38571e-06
-0.00019907 0.000910273 4.17641e-06
-5.38571e-06 4.17641e-06 0.000653275
-0.000220865 -0.000183661 9.51705e-07
-0.000183661 -0.000218413 6.40032e-07
9.51705e-07 6.40032e-07 -0.000554303
-0.000361696 -3.92177e-05 3.79154e-06
-3.92177e-05 -0.000410746 -1.84636e-06
3.79154e-06 -1.84636e-06 -0.000683855
0.00253141 -0.000522161 -5.18592e-06
-0.000522161 0.00147049 2.29871e-06
-5.18592e-06 2.29871e-06 0.00119046
0.000922392 -0.000224244 -4.58968e-07
-0.000224244 0.000387247 -3.80011e-07
-4.58968e-07 -3.80011e-07 0.000173347
0.000287333 -3.74758e-05 6.05103e-06
-3.74758e-05 -5.73627e-05 8.7681e-06
6.05103e-06 8.7681e-06 -0.000202582
0.000932807 -0.000241789 -2.80354e-06
-0.000241789 0.000435935 -1.51315e-07
-2.80354e-06 -1.51315e-07 0.000238596
0.000427776 -1.79428e-05 -2.71882e-06
-1.79428e-05 4.56049e-05 -6.0075e-07
-2.71882e-06 -6.0075e-07 -8.23507e-05
0.00149989 -2.42648e-05 -2.41257e-05
-2.42648e-05 0.000688538 7.41499e-06
-2.41257e-05 7.41499e-06 0.000654018
0.000625212 -9.58631e-05 -8.85481e-09
-9.58631e-05 0.000169412 -4.45435e-06
-8.85481e-09 -4.45435e-06 5.71412e-05
0.000841047 -2.48959e-05 -1.30382e-05
-2.48959e-05 0.000259808 7.00015e-07
-1.30382e-05 7.00015e-07 0.00022603
0.000844656 2.91913e-05 2.20645e-06
2.91913e-05 0.00024319 3.6726e-06
2.20645e-06 3.6726e-06 0.000238844
0.000400953 -4.83401e-05 3.71094e-06
-4.83401e-05 -2.11863e-05 -7.0419e-06
3.71094e-06 -7.0419e-06 -5.63112e-05
0.00179898 2.68051e-05 2.01061e-05
2.68051e-05 0.000872397 -1.38397e-06
2.01061e-05 -1.38397e-06 0.00087808
0.00260446 1.41263e-05 2.74896e-05
1.41263e-05 0.00139942 -5.85995e-06
2.74896e-05 -5.85995e-06 0.00141161
0.000114818 4.05221e-05 1.40979e-06
4.05221e-05 -0.000150757 2.41939e-06
1.40979e-06 2.41939e-06 -0.000315858
-3.80527e-05 2.73861e-05 3.39036e-07
2.73861e-05 -0.000286698 -7.02838e-06
3.39036e-07 -7.02838e-06 -0.000371223
0.000514839 9.00067e-05 -4.7703e-07
9.00067e-05 0.0001088 7.53341e-07
-4.7703e-07 7.53341e-07 -3.60428e-05
0.000415327 1.45262e-05 2.17244e-06
1.45262e-05 -2.97724e-05 -5.49695e-06
2.17244e-06 -5.49695e-06 -4.78696e-05
0.000282494 6.87965e-06 1.72835e-06
6.87965e-06 -8.13266e-05 6.76487e-08
1.72835e-06 6.76487e-08 -0.000151074
0.000171654 -0.000105564 -1.78165e-07
-0.000105564 -0.000110128 4.4554e-06
-1.78165e-07 4.4554e-06 -0.000239743
0.00210536 -1.63212e-07 -1.49713e-05
-1.63212e-07 0.00107174 -5.53342e-06
-1.49713e-05 -5.53342e-06 0.0010878
0.000399242 8.26211e-06 4.96298e-07
8.26211e-06 -4.10267e-05 -8.12653e-08
4.96298e-07 -8.12653e-08 -5.52417e-05
0.000387109 -1.33747e-05 -4.37238e-06
-1.33747e-05 -1.2799e-05 4.70813e-06
-4.37238e-06 4.70813e-06 -7.20546e-05
0.00207699 1.55136e-05 -5.2005e-06
1.55136e-05 0.00105438 -2.50181e-08
-5.2005e-06 -2.50181e-08 0.00107022
0.000400341 4.06301e-06 -2.57155e-06
4.06301e-06 -3.9945e-05 4.33668e-06
-2.57155e-06 4.33668e-06 -5.30538e-05
0.0020566 3.12831e-05 6.14412e-06
3.12831e-05 0.00104262 5.55498e-06
6.14412e-06 5.55498e-06 0.00105723
-0.00104387 -0.00190736 -0.000381959
-0.00190736 -0.000179064 0.000161446
-0.000381959 0.000161446 -0.00489807
0.00528328 0.0026534 -0.000311091
0.0026534 0.0121928 7.67353e-05
-0.000311091 7.67353e-05 0.00459881
0.0066076 0.00141153 -0.00176396
0.00141153 0.0058746 0.000359847
-0.00176396 0.000359847 0.00285101
0.000775539 0.000150897 1.17718e-05
0.000150897 0.000321852 9.09206e-06
1.17718e-05 9.09206e-06 0.000114458
0.00705169 -0.00162672 -0.000235196
-0.00162672 0.00476271 0.000358509
-0.000235196 0.000358509 0.00146388
0.00469011 -0.00176678 -0.000334684
-0.00176678 0.0025343 3.99054e-05
-0.000334684 3.99054e-05 -0.0029124
0.0224373 0.00964299 0.000189623
0.00964299 0.0137593 -0.000601683
0.000189623 -0.000601683 0.00373569
0.00754129 -0.00208276 0.000178882
-0.00208276 -0.00104217 -2.21401e-05
0.000178882 -2.21401e-05 0.000638564
0.0146822 -0.0044938 0.000404878
-0.0044938 -0.00118625 -0.000288826
0.000404878 -0.000288826 3.06406e-05
0.019662 0.00694522 -0.00110748
0.00694522 0.00673746 0.00034953
-0.00110748 0.00034953 -0.0018646
0.0174116 0.00515461 0.000357272
0.00515461 0.0111567 0.000316897
0.000357272 0.000316897 0.00629069
0.0076583 -0.00394362 -9.46771e-05
-0.00394362 -0.00126578 -4.42884e-06
-9.46771e-05 -4.42884e-06 0.000668646
0.0119142 -0.00802945 5.27141e-06
-0.00802945 0.000230663 -5.86168e-05
5.27141e-06 -5.86168e-05 -0.00157302
0.0132717 0.00254516 0.000122005
0.00254516 0.00895293 -0.000503884
0.000122005 -0.000503884 0.000784948
0.0167045 0.00139061 -2.22707e-05
0.00139061 0.00273001 8.05711e-05
-2.22707e-05 8.05711e-05 0.000128294
0.00428778 -0.00460605 -1.34731e-05
-0.00460605 0.000634844 5.08966e-05
-1.34731e-05 5.08966e-05 0.00158055
0.0106198 -0.00774906 0.000352895
-0.00774906 0.00481614 -0.000212747
0.000352895 -0.000212747 0.000859833
0.00724484 0.000371414 -4.42523e-05
0.000371414 0.00647413 -0.000526866
-4.42523e-05 -0.000526866 0.000830248
0.0163338 -0.000600938 -0.000258857
-0.000600938 0.000204792 0.000329477
-0.000258857 0.000329477 0.000657149
0.000297795 0.000182573 1.1958e-05
0.000182573 8.743e-05 1.64874e-05
1.1958e-05 1.64874e-05 -0.000126762
0.000363353 -8.39985e-05 3.38547e-07
-8.39985e-05 0.000142879 -9.15807e-07
3.38547e-07 -9.15807e-07 -0.000113519
6.17298e-05 4.23845e-05 6.587e-06
4.23845e-05 -0.000129135 1.23937e-06
6.587e-06 1.23937e-06 -0.000275744
0.00057446 0.000206237 8.64067e-06
0.000206237 0.000105857 2.31615e-05
8.64067e-06 2.31615e-05 -5.91106e-05
0.000920624 0.00027274 -1.21866e-06
0.00027274 0.000422717 -1.95119e-06
-1.21866e-06 -1.95119e-06 0.000192399
0.000983547 0.000162661 1.93625e-07
0.000162661 0.000489825 -1.34203e-06
1.93625e-07 -1.34203e-06 0.000290853
0.00113763 0.000224333 -2.13608e-06
0.000224333 0.000561371 -2.6298e-07
-2.13608e-06 -2.6298e-07 0.000338162
0.00114568 0.000268679 2.71042e-06
0.000268679 0.000592549 2.40727e-06
2.71042e-06 2.40727e-06 0.000358321
0.00192239 -0.00139736 0.000166173
-0.00139736 -0.000787849 -0.000100844
0.000166173 -0.000100844 -0.000272653
-0.00037118 -0.000991164 -1.73073e-05
-0.000991164 -0.00103043 -1.58943e-05
-1.73073e-05 -1.58943e-05 -0.00114887
-0.000141385 -7.99993e-05 3.02807e-06
-7.99993e-05 -0.000159647 -2.39243e-05
3.02807e-06 -2.39243e-05 -0.000434334
0.00153218 -0.000848847 3.3195e-05
-0.000848847 0.000900983 -2.3643e-05
3.3195e-05 -2.3643e-05 0.000524649
0.0033889 -0.000750677 -3.28564e-05
-0.000750677 0.00211207 1.12511e-05
-3.28564e-05 1.12511e-05 0.00171252
0.00171425 -0.000192614 1.64253e-05
-0.000192614 0.00114778 -2.91668e-05
1.64253e-05 -2.91668e-05 0.000754584
-0.000102744 0.000109386 2.13867e-06
0.000109386 -7.69412e-05 1.23873e-05
2.13867e-06 1.23873e-05 -0.000316164
0.0012966 -0.00233726 -1.85132e-05
-0.00233726 -0.000212994 -4.23911e-06
-1.85132e-05 -4.23911e-06 -0.000678204
0.00143729 -0.000174862 -3.78938e-06
-0.000174862 0.00108637 -1.51843e-06
-3.78938e-06 -1.51843e-06 0.000658882
-0.000637169 -0.000254531 -9.21284e-06
-0.000254531 -6.48228e-05 9.84634e-06
-9.21284e-06 9.84634e-06 -0.000591381
-0.000798664 -0.000674407 2.58578e-05
-0.000674407 -0.000562028 -3.0899e-06
2.58578e-05 -3.0899e-06 -0.000685144
0.000170884 7.42145e-05 1.05951e-05
7.42145e-05 0.000135996 -2.13476e-06
1.05951e-05 -2.13476e-06 -7.98738e-05
0.00117472 -0.00237056 -9.54859e-05
-0.00237056 0.00104189 -2.35023e-05
-9.54859e-05 -2.35023e-05 5.67391e-05
-0.0002092 -0.000683385 -3.17309e-05
-0.000683385 0.00021203 1.17985e-05
-3.17309e-05 1.17985e-05 -0.000309023
0.000242444 0.000180029 1.90028e-06
0.000180029 0.000560547 -7.08681e-06
1.90028e-06 -7.08681e-06 -1.51172e-05
0.00134779 0.000214591 2.15302e-06
0.000214591 0.0012776 1.52416e-05
2.15302e-06 1.52416e-05 0.000671208
-0.000137788 1.44695e-05 0.000304538
1.44695e-05 0.00442738 7.80925e-05
0.000304538 7.80925e-05 0.00146321
-0.000151786 8.1935e-05 0.000226363
8.1935e-05 0.00138117 -3.15103e-05
0.000226363 -3.15103e-05 -0.00428209
-0.014582 -0.000625882 -0.000700614
-0.000625882 0.0066449 2.58857e-05
-0.000700614 2.58857e-05 0.000954431
0.00155311 0.000894244 2.08762e-05
0.000894244 0.000973505 3.292e-06
2.08762e-05 3.292e-06 0.000502968
-0.00046243 0.00127772 2.34807e-05
0.00127772 4.37702e-05 1.51653e-05
2.34807e-05 1.51653e-05 -0.000730696
0.00597771 0.00224146 0.000685804
0.00224146 0.00511868 0.00017559
0.000685804 0.00017559 0.000382579
0.00574247 0.00583304 0.000245104
0.00583304 0.00348462 0.000229281
0.000245104 0.000229281 -0.000507409
0.001903 0.00391959 -0.000188172
0.00391959 0.00159003 -0.000187164
-0.000188172 -0.000187164 -0.000304808
0.00570816 -0.00209586 -0.000146107
-0.00209586 0.00610351 -0.000542406
-0.000146107 -0.000542406 0.00024548
0.00390992 0.000663052 0.000126585
0.000663052 0.00169744 0.000148439
0.000126585 0.000148439 -0.000908982
0.0104617 -0.000197018 -4.37815e-05
-0.000197018 -0.00457533 -0.000277475
-4.37815e-05 -0.000277475 -0.00316234
0.000728203 0.000897199 5.41818e-06
0.000897199 0.000753481 -1.08817e-06
5.41818e-06 -1.08817e-06 7.1137e-05
-0.00297051 0.000579534 4.97978e-06
0.000579534 0.00200019 8.56255e-06
4.97978e-06 8.56255e-06 -0.000945608
0.00684951 -0.000555383 0.000235404
-0.000555383 0.00041414 1.08209e-05
0.000235404 1.08209e-05 -0.00172064
-0.00194719 0.00102618 -2.67451e-05
0.00102618 0.00015944 -1.50407e-05
-2.67451e-05 -1.50407e-05 -0.00102184
0.0172668 0.00174546 2.72825e-05
0.00174546 0.00264497 -8.69622e-05
2.72825e-05 -8.69622e-05 4.15881e-05
0.00438019 0.00309859 0.000377366
0.00309859 0.0058969 0.000238402
0.000377366 0.000238402 -0.00104652
0.0142776 0.000639802 -0.000216161
0.000639802 0.00539834 -6.99645e-06
-0.000216161 -6.99645e-06 0.000199353
0.00106182 0.000942779 -5.43262e-06
0.000942779 0.00111069 -2.43881e-05
-5.43262e-06 -2.43881e-05 0.000233085
0.00363629 -3.48141e-05 4.2751e-05
-3.48141e-05 0.00228781 3.7597e-05
4.2751e-05 3.7597e-05 3.61051e-05
0.00395999 -0.00300094 0.000307545
-0.00300094 0.00432436 -0.000287892
0.000307545 -0.000287892 0.00150004
0.0331117 0.00753005 0.000502439
0.00753005 0.0135392 -0.000395549
0.000502439 -0.000395549 0.00647762
0.0100059 -0.000369529 -0.000110341
-0.000369529 0.00777782 0.000631567
-0.000110341 0.000631567 0.00213205
-0.00179482 0.000957558 -0.000175918
0.000957558 0.000967085 -0.000131092
-0.000175918 -0.000131092 -0.000301989
0.00156765 0.000668261 0.000210625
0.000668261 0.00595239 1.27278e-05
0.000210625 1.27278e-05 -0.0041006
0.00108318 0.000514715 5.97693e-06
0.000514715 0.000953406 1.17252e-05
5.97693e-06 1.17252e-05 0.000387964
0.00046952 0.000357064 8.98946e-06
0.000357064 0.000831417 8.23874e-06
8.98946e-06 8.23874e-06 0.000145131
0.000513171 -0.00011228 -1.2078e-05
-0.00011228 0.00123111 1.9674e-05
-1.2078e-05 1.9674e-05 0.000571133
-0.000991712 -2.68006e-05 6.6502e-06
-2.68006e-05 -0.000617007 -6.48032e-06
6.6502e-06 -6.48032e-06 -0.000872378
-0.000879212 3.29642e-06 3.41435e-06
3.29642e-06 -7.08399e-05 3.29526e-06
3.41435e-06 3.29526e-06 -0.000647814
-6.00328e-05 3.54949e-05 -8.01191e-06
3.54949e-05 0.000631025 -7.50958e-06
-8.01191e-06 -7.50958e-06 -3.2793e-05
-0.000199374 -6.03431e-06 -1.33693e-06
-6.03431e-06 0.000112196 5.50227e-07
-1.33693e-06 5.50227e-07 -0.000232019
6.37061e-06 -9.41928e-05 3.42196e-06
-9.41928e-05 0.000531831 2.76296e-06
3.42196e-06 2.76296e-06 -8.728e-07
0.00251896 -0.00057678 1.0327e-05
-0.00057678 0.00165772 -1.37341e-05
1.0327e-05 -1.37341e-05 0.00128801
-8.0925e-05 -4.82773e-05 -2.21823e-06
-4.82773e-05 7.33978e-05 7.40558e-06
-2.21823e-06 7.40558e-06 -0.000168885
-0.00142612 4.85934e-06 4.07999e-06
4.85934e-06 -0.000918078 2.54463e-06
4.07999e-06 2.54463e-06 -0.00109782
0.00111882 -0.000413532 -3.6514e-06
-0.000413532 0.0005703 4.60421e-06
-3.6514e-06 4.60421e-06 0.000324171
-0.00398779 1.63202e-05 2.42533e-05
1.63202e-05 -0.00225819 2.12689e-05
2.42533e-05 2.12689e-05 -0.00267855
-0.00124119 -0.000107967 4.06999e-05
-0.000107967 -0.00087504 -9.66548e-06
4.06999e-05 -9.66548e-06 -0.000915526
6.92109e-05 -0.000455605 -1.30355e-05
-0.000455605 -0.000153925 -3.69678e-06
-1.30355e-05 -3.69678e-06 -0.000520694
0.00163086 -0.000857673 -2.41453e-06
-0.000857673 0.000603521 -5.52072e-07
-2.41453e-06 -5.52072e-07 -9.02284e-05
0.00212232 -0.00106117 -1.30621e-05
-0.00106117 0.000746483 2.46821e-06
-1.30621e-05 2.46821e-06 6.90193e-05
0.00134131 -0.000434055 4.23936e-06
-0.000434055 0.000478383 -6.62129e-06
4.23936e-06 -6.62129e-06 0.000218077
0.00162324 -0.000767638 7.49828e-07
-0.000767638 0.000589616 1.39e-06
7.49828e-07 1.39e-06 6.63064e-05
0.00172488 -0.000932538 6.52929e-06
-0.000932538 0.000496188 -7.40748e-06
6.52929e-06 -7.40748e-06 -0.000105698
0.00214725 -0.000749222 5.24952e-06
-0.000749222 0.000938659 1.99035e-06
5.24952e-06 1.99035e-06 0.000431275
0.00127633 -0.000807498 3.01216e-06
-0.000807498 0.000300343 -5.47916e-06
3.01216e-06 -5.47916e-06 -0.000259097
0.00130988 -0.000279525 -9.69208e-07
-0.000279525 0.000462513 -2.21054e-06
-9.69208e-07 -2.21054e-06 0.000172773
0.000903732 -0.000452504 -1.10088e-07
-0.000452504 0.000178601 2.25157e-07
-1.10088e-07 2.25157e-07 -0.000167556
-0.000311575 -0.000432269 7.25294e-07
-0.000432269 -0.000549417 -8.31051e-06
7.25294e-07 -8.31051e-06 -0.000924057
-0.000226959 -0.000108177 1.64794e-06
-0.000108177 -0.000282645 -4.9433e-06
1.64794e-06 -4.9433e-06 -0.000619483
0.000456633 -0.00023483 -3.947e-07
-0.00023483 0.000159214 -7.05819e-07
-3.947e-07 -7.05819e-07 -0.000199548
-0.000854494 -0.000153394 3.2381e-06
-0.000153394 -0.000749539 6.82497e-07
3.2381e-06 6.82497e-07 -0.0010233
0.0013064 -0.000257694 -3.10841e-06
-0.000257694 0.000709208 5.55371e-06
-3.10841e-06 5.55371e-06 0.000389224
0.000749683 -0.000191624 9.64739e-07
-0.000191624 0.000295845 7.21039e-07
9.64739e-07 7.21039e-07 1.56815e-05
-3.87992e-05 -6.1098e-05 2.84861e-06
-6.1098e-05 -0.000283326 9.34199e-06
2.84861e-06 9.34199e-06 -0.000452209
0.00133073 -0.000358816 -5.06685e-06
-0.000358816 0.000675425 1.89892e-06
-5.06685e-06 1.89892e-06 0.000433248
0.000565009 -6.25205e-05 -1.36862e-06
-6.25205e-05 0.000104347 -1.62522e-07
-1.36862e-06 -1.62522e-07 -3.56418e-05
0.000329133 4.01762e-05 3.38227e-06
4.01762e-05 -6.71096e-05 1.12415e-05
3.38227e-06 1.12415e-05 -0.000121155
0.0011188 -0.000129542 -2.22132e-06
-0.000129542 0.000484191 -5.32607e-06
-2.22132e-06 -5.32607e-06 0.000353763
0.000435603 -3.23179e-05 -1.93727e-06
-3.23179e-05 -9.14814e-06 6.41052e-08
-1.93727e-06 6.41052e-08 -5.14356e-05
0.00280949 9.65668e-05 1.61725e-06
9.65668e-05 0.00153614 3.44703e-06
1.61725e-06 3.44703e-06 0.00153614
0.000477569 -4.77352e-05 3.43626e-06
-4.77352e-05 2.25421e-05 -7.77896e-06
3.43626e-06 -7.77896e-06 -1.65585e-05
0.00181879 3.97996e-05 2.40636e-05
3.97996e-05 0.000884999 -1.18953e-06
2.40636e-05 -1.18953e-06 0.000888096
0.00274034 2.98364e-05 3.49818e-05
2.98364e-05 0.00148619 -6.35504e-06
3.49818e-05 -6.35504e-06 0.00149738
0.000279181 5.88511e-05 4.39371e-06
5.88511e-05 -5.71959e-05 2.17608e-06
4.39371e-06 2.17608e-06 -0.000218105
0.000100872 1.84986e-05 2.31468e-06
1.84986e-05 -0.000193352 -5.02403e-06
2.31468e-06 -5.02403e-06 -0.000297611
0.000428989 5.88115e-05 -7.31e-08
5.88115e-05 5.84629e-05 -8.54034e-07
-7.31e-08 -8.54034e-07 -0.000105863
0.000452661 1.2996e-05 2.88749e-06
1.2996e-05 -5.68496e-06 -6.19032e-06
2.88749e-06 -6.19032e-06 -2.90461e-05
5.95686e-05 2.92032e-05 -1.04086e-06
2.92032e-05 -0.000222148 -2.33622e-06
-1.04086e-06 -2.33622e-06 -0.000310638
0.000621099 8.74994e-05 1.02599e-06
8.74994e-05 0.000200658 4.29158e-06
1.02599e-06 4.29158e-06 4.03346e-05
0.00222449 -1.4739e-05 -2.08659e-05
-1.4739e-05 0.00114949 -5.60136e-06
-2.08659e-05 -5.60136e-06 0.00116454
0.000414269 9.21663e-06 -1.26695e-06
9.21663e-06 -3.21801e-05 -1.77573e-07
-1.26695e-06 -1.77573e-07 -4.9437e-05
-4.58647e-05 1.55673e-05 1.19521e-06
1.55673e-05 -0.000293609 5.05798e-06
1.19521e-06 5.05798e-06 -0.000366493
0.00209904 4.59366e-07 -4.12247e-06
4.59366e-07 0.00106769 8.78743e-08
-4.12247e-06 8.78743e-08 0.0010838
0.000391845 8.63992e-06 -2.56051e-06
8.63992e-06 -4.59482e-05 4.66348e-06
-2.56051e-06 4.66348e-06 -5.97993e-05
0.00206641 1.64365e-05 1.11606e-05
1.64365e-05 0.00104778 5.53337e-06
1.11606e-05 5.53337e-06 0.00106345
0.00100443 -0.000159629 0.00029078
-0.000159629 0.00499598 0.000171584
0.00029078 0.000171584 0.00273376
-0.00081515 -0.000695643 -7.69164e-05
-0.000695643 0.00051013 6.3902e-06
-7.69164e-05 6.3902e-06 -0.00493052
0.00173152 0.00265135 -0.000424511
0.00265135 0.0114207 -0.000125459
-0.000424511 -0.000125459 0.00342202
0.000667002 0.000154253 3.59993e-07
0.000154253 0.000212669 4.62965e-07
3.59993e-07 4.62965e-07 2.72229e-05
-0.000416791 0.000103961 8.59458e-06
0.000103961 -0.000445898 5.65369e-06
8.59458e-06 5.65369e-06 -0.000663264
0.00175767 0.000290653 1.92793e-05
0.000290653 0.00090921 1.98905e-05
1.92793e-05 1.98905e-05 0.000717902
0.00926117 -0.00116714 -0.000347156
-0.00116714 0.000462101 0.000135372
-0.000347156 0.000135372 -0.00225011
0.00769334 -0.00273535 0.000183086
-0.00273535 0.0043169 4.28406e-05
0.000183086 4.28406e-05 0.00196627
0.00476919 -0.00399736 0.000359462
-0.00399736 0.00208344 -0.000359885
0.000359462 -0.000359885 -0.00308959
0.00896974 -0.00460975 -1.14588e-05
-0.00460975 -0.00141929 -6.15738e-05
-1.14588e-05 -6.15738e-05 0.00073032
0.00432445 -0.00762145 -0.000989477
-0.00762145 -0.00275786 4.07302e-05
-0.000989477 4.07302e-05 -0.00317607
0.0307182 0.00705312 0.000734375
0.00705312 0.0162133 0.000328495
0.000734375 0.000328495 0.00602618
0.00898517 -0.0012803 0.000477129
-0.0012803 -0.00119901 -0.000333675
0.000477129 -0.000333675 -0.00336789
0.00262581 -0.00449663 5.29672e-06
-0.00449663 -0.000930326 1.32662e-05
5.29672e-06 1.32662e-05 0.000651028
0.00506314 -0.00782021 -0.000299915
-0.00782021 0.00257318 5.44642e-06
-0.000299915 5.44642e-06 -0.00272605
0.00781528 0.00462637 -0.000140121
0.00462637 0.00767312 -0.00041697
-0.000140121 -0.00041697 0.000546522
0.0135723 -0.000417667 -0.000163035
-0.000417667 -0.00201775 0.000184403
-0.000163035 0.000184403 -0.00109253
-0.000532885 -0.00350302 -0.00018072
-0.00350302 0.000910412 9.51543e-05
-0.00018072 9.51543e-05 4.58767e-05
0.00808069 -0.00412734 -0.000477653
-0.00412734 0.00601285 0.000285471
-0.000477653 0.000285471 -0.000303061
0.00754658 -0.000213263 5.23132e-05
-0.000213263 0.00382047 -0.000397629
5.23132e-05 -0.000397629 -0.00120168
0.0100384 0.000742576 4.66918e-05
0.000742576 -0.00116446 0.000189085
4.66918e-05 0.000189085 -0.00222815
-0.000298162 9.16291e-05 8.63324e-06
9.16291e-05 -0.00031319 2.35792e-05
8.63324e-06 2.35792e-05 -0.000460708
0.000675303 1.50838e-05 -4.00239e-07
1.50838e-05 0.000323763 -2.44046e-07
-4.00239e-07 -2.44046e-07 0.000101763
0.000781083 -0.000251885 1.24193e-05
-0.000251885 0.000379767 -1.06994e-05
1.24193e-05 -1.06994e-05 0.000136383
0.000555381 0.000192995 -1.1918e-06
0.000192995 0.000104893 2.49033e-06
-1.1918e-06 2.49033e-06 -6.54326e-05
0.000773431 0.000233233 6.4733e-07
0.000233233 0.000335863 -9.28206e-06
6.4733e-07 -9.28206e-06 0.000111906
0.00125863 0.000258385 -7.07016e-06
0.000258385 0.000640021 -6.66954e-06
-7.07016e-06 -6.66954e-06 0.000413792
0.000915473 -0.00200481 8.10248e-05
-0.00200481 -0.000153384 -3.03816e-05
8.10248e-05 -3.03816e-05 -0.000505585
-0.000911761 -0.000576875 1.04216e-05
-0.000576875 -0.00070191 -2.64248e-05
1.04216e-05 -2.64248e-05 -0.000745209
0.000228915 0.000242871 -7.36309e-06
0.000242871 0.000135014 -2.64109e-05
-7.36309e-06 -2.64109e-05 -0.000147279
0.00242745 -0.00058444 6.73166e-05
-0.00058444 0.00158226 -3.65312e-05
6.73166e-05 -3.65312e-05 0.00112767
0.00312007 -0.000151217 9.06494e-06
-0.000151217 0.00206333 -2.51462e-05
9.06494e-06 -2.51462e-05 0.00167055
-0.000492591 8.15007e-05 9.50161e-06
8.15007e-05 -0.000246646 1.43799e-06
9.50161e-06 1.43799e-06 -0.000483887
-0.00026825 2.82413e-05 3.44303e-06
2.82413e-05 0.000246482 9.71003e-06
3.44303e-06 9.71003e-06 -0.000294146
0.00174822 -0.00224742 -6.96823e-05
-0.00224742 0.00131381 1.36271e-06
-6.96823e-05 1.36271e-06 0.000276358
0.000428493 -7.48088e-05 -6.78015e-06
-7.48088e-05 0.000790157 -1.23417e-06
-6.78015e-06 -1.23417e-06 0.000129937
-6.28107e-05 -0.000488015 -5.83129e-06
-0.000488015 0.000562479 2.25313e-06
-5.83129e-06 2.25313e-06 -0.000134731
0.000700238 0.000249038 1.83889e-05
0.000249038 0.000743743 -3.08642e-05
1.83889e-05 -3.08642e-05 0.000319565
-0.00414036 -0.000221787 -0.00015248
-0.000221787 -0.000609908 1.06945e-05
-0.00015248 1.06945e-05 -0.00175649
-0.000280383 -0.000217322 -1.43706e-05
-0.000217322 0.000969775 -1.75106e-05
-1.43706e-05 -1.75106e-05 0.000159696
-0.00385837 -0.000127479 -2.9771e-05
-0.000127479 -0.00130399 -9.0301e-06
-2.9771e-05 -9.0301e-06 -0.00207909
0.00120841 0.000653667 -2.61609e-06
0.000653667 -7.9825e-05 -4.42305e-06
-2.61609e-06 -4.42305e-06 -0.00419433
-0.00173226 0.000911147 0.000188279
0.000911147 0.00411326 8.3777e-06
0.000188279 8.3777e-06 0.00117823
-0.00187606 7.44879e-05 0.00048799
7.44879e-05 0.00049031 4.99798e-05
0.00048799 4.99798e-05 -0.00503603
-0.000204549 0.00089774 1.03701e-05
0.00089774 0.000150224 2.35053e-05
1.03701e-05 2.35053e-05 -0.000572152
0.000621768 0.00153798 -1.65343e-05
0.00153798 0.00101951 -3.58039e-05
-1.65343e-05 -3.58039e-05 -0.000129549
-0.00235557 0.000592334 -0.000216802
0.000592334 0.00238199 -6.62662e-05
-0.000216802 -6.62662e-05 -0.000698018
-0.00429788 0.00113613 0.000227699
0.00113613 0.00418777 0.000256443
0.000227699 0.000256443 -0.00230943
0.00458959 0.000693916 -0.000218378
0.000693916 -0.00119085 -0.000521479
-0.000218378 -0.000521479 -0.00732806
0.00644592 0.000116782 0.000121603
0.000116782 3.5524e-05 2.7328e-05
0.000121603 2.7328e-05 -0.00143527
0.00811298 -0.0010585 -0.000466808
-0.0010585 -0.00148293 0.000314773
-0.000466808 0.000314773 -0.00353282
0.000655509 0.000757163 -8.17991e-06
0.000757163 0.000958393 -3.06439e-07
-8.17991e-06 -3.06439e-07 0.000187105
0.00203033 0.000447363 7.0247e-05
0.000447363 0.00223477 4.12181e-05
7.0247e-05 4.12181e-05 4.03366e-05
0.00668976 -0.00194946 -0.000172315
-0.00194946 0.00404809 -2.8369e-05
-0.000172315 -2.8369e-05 0.00185236
-4.58011e-05 0.00107969 -0.00016136
0.00107969 0.00268363 -2.27798e-05
-0.00016136 -2.27798e-05 0.000352278
0.0232369 0.00717881 -0.000325443
0.00717881 0.0103007 -0.000538429
-0.000325443 -0.000538429 0.00357594
0.0107054 0.00390662 0.000106884
0.00390662 0.00849396 0.000454791
0.000106884 0.000454791 0.000571074
0.00693956 0.00202068 9.38939e-05
0.00202068 0.00768476 -1.52354e-06
9.38939e-05 -1.52354e-06 -7.75619e-05
-7.77045e-05 6.83535e-05 2.67885e-05
6.83535e-05 0.00162553 -1.36984e-05
2.67885e-05 -1.36984e-05 -4.51825e-06
0.000936314 5.49505e-05 -0.000286918
5.49505e-05 0.00599066 -6.70468e-06
-0.000286918 -6.70468e-06 0.00343276
0.000599783 -0.000967479 0.000868883
-0.000967479 0.000593477 -0.000284072
0.000868883 -0.000284072 -0.00542627
0.0347651 0.0138857 -9.82315e-05
0.0138857 0.0239835 -0.000127654
-9.82315e-05 -0.000127654 0.0132946
0.0160641 0.0056739 0.000501477
0.0056739 0.00757166 0.00121421
0.000501477 0.00121421 -0.00159966
0.0118549 -0.00582734 0.000607845
-0.00582734 0.00765349 -0.000377223
0.000607845 -0.000377223 -0.00044172
0.000680399 -0.000802854 -8.84738e-05
-0.000802854 0.00349705 5.52587e-05
-8.84738e-05 5.52587e-05 0.00192598
0.000551248 0.00030552 -1.00736e-05
0.00030552 0.000902337 1.97426e-06
-1.00736e-05 1.97426e-06 0.000285795
-0.000181077 -0.00010556 -1.71259e-07
-0.00010556 0.000659882 -7.07918e-06
-1.71259e-07 -7.07918e-06 -8.16506e-05
0.000504178 -0.000668501 5.98884e-05
-0.000668501 0.000739065 -2.17836e-05
5.98884e-05 -2.17836e-05 -7.30805e-05
0.000135336 -7.36562e-05 -3.05163e-06
-7.36562e-05 0.00026064 1.26895e-05
-3.05163e-06 1.26895e-05 -2.67902e-05
6.11387e-05 -9.9078e-05 3.24937e-06
-9.9078e-05 0.000504907 -1.96181e-05
3.24937e-06 -1.96181e-05 1.86026e-06
0.00103759 -0.0003952 -3.70633e-06
-0.0003952 0.000915022 -2.66117e-07
-3.70633e-06 -2.66117e-07 0.000536859
0.00138603 -0.000910993 2.93449e-05
-0.000910993 0.00079354 -1.76831e-05
2.93449e-05 -1.76831e-05 0.000237567
0.000514301 -0.000401154 6.89783e-06
-0.000401154 0.000257288 -5.82155e-07
6.89783e-06 -5.82155e-07 -6.59011e-05
0.0011299 -0.000735253 1.98972e-05
-0.000735253 0.000526627 -6.56948e-06
1.98972e-05 -6.56948e-06 -7.00771e-06
0.00131856 -0.000891954 1.06416e-05
-0.000891954 0.000608211 -5.31412e-06
1.06416e-05 -5.31412e-06 -0.000282848
0.000872913 -0.00051321 -7.09269e-06
-0.00051321 0.000284579 -3.53281e-06
-7.09269e-06 -3.53281e-06 -3.07858e-05
0.00267904 -0.00101168 -3.07974e-06
-0.00101168 0.00117508 -9.156e-07
-3.07974e-06 -9.156e-07 0.000471248
0.00157356 -0.00109289 -1.92399e-05
-0.00109289 0.000367595 -1.04628e-06
-1.92399e-05 -1.04628e-06 -0.000432994
0.00275392 -0.00133814 -1.53908e-05
-0.00133814 0.000832893 -3.18269e-07
-1.53908e-05 -3.18269e-07 0.000105618
0.00225939 -0.00118756 -4.66651e-06
-0.00118756 0.000746281 -1.28817e-06
-4.66651e-06 -1.28817e-06 4.67639e-05
0.00204583 -0.00104643 -5.68451e-06
-0.00104643 0.000696087 3.19024e-07
-5.68451e-06 3.19024e-07 2.26224e-05
0.00139222 -0.000746741 1.64291e-06
-0.000746741 0.000424994 -7.58259e-06
1.64291e-06 -7.58259e-06 -9.80494e-05
0.00187863 -0.000918231 1.01655e-05
-0.000918231 0.000667696 -9.10048e-06
1.01655e-05 -9.10048e-06 6.72118e-05
0.00181888 -0.000959134 9.80222e-06
-0.000959134 0.000554819 -2.10108e-06
9.80222e-06 -2.10108e-06 -5.47479e-05
0.00169778 -0.000455237 -1.18966e-07
-0.000455237 0.00064668 2.89675e-07
-1.18966e-07 2.89675e-07 0.00028202
0.00164077 -0.000694581 5.6447e-06
-0.000694581 0.000601922 -3.86719e-06
5.6447e-06 -3.86719e-06 0.000108113
-0.000206304 -0.000602366 -1.43258e-05
-0.000602366 -0.000618093 -1.5965e-07
-1.43258e-05 -1.5965e-07 -0.00112068
0.000259099 -6.79945e-05 -1.61876e-06
-6.79945e-05 -6.16484e-05 -5.5723e-06
-1.61876e-06 -5.5723e-06 -0.000370916
0.000761183 -0.000286735 1.77758e-07
-0.000286735 0.00013856 -9.88169e-07
1.77758e-07 -9.88169e-07 -0.000164289
-1.2717e-05 -0.000374068 -9.30166e-06
-0.000374068 -0.000403902 -1.30459e-06
-9.30166e-06 -1.30459e-06 -0.00074976
-9.57903e-05 -0.000123796 -6.26079e-07
-0.000123796 -0.000279772 8.07093e-06
-6.26079e-07 8.07093e-06 -0.000521995
0.000877178 -0.000222806 2.76053e-07
-0.000222806 0.000404233 3.8519e-07
2.76053e-07 3.8519e-07 7.16753e-05
-0.00112416 -0.000276468 -1.14371e-06
-0.000276468 -0.000822227 2.74554e-06
-1.14371e-06 2.74554e-06 -0.00117533
0.00174462 -0.000303367 -2.10652e-06
-0.000303367 0.000931345 2.6901e-06
-2.10652e-06 2.6901e-06 0.000646084
0.000794365 -0.000136309 6.46874e-08
-0.000136309 0.000247918 2.70243e-07
6.46874e-08 2.70243e-07 7.39171e-05
0.000356472 3.46466e-06 2.61127e-06
3.46466e-06 -4.36373e-05 1.50094e-05
2.61127e-06 1.50094e-05 -0.000111775
0.001134 -0.000124545 -7.22983e-07
-0.000124545 0.000468051 -8.76591e-06
-7.22983e-07 -8.76591e-06 0.000322597
0.000406833 -1.05253e-05 -5.51957e-06
-1.05253e-05 -2.10788e-05 -5.93167e-07
-5.51957e-06 -5.93167e-07 -7.49239e-05
0.00326454 0.000102495 -4.97274e-05
0.000102495 0.001841 6.51933e-06
-4.97274e-05 6.51933e-06 0.00184072
0.000493698 -4.13255e-05 2.70826e-06
-4.13255e-05 2.37632e-05 -9.65495e-06
2.70826e-06 -9.65495e-06 -1.84765e-05
0.00197055 6.20552e-05 2.93467e-05
6.20552e-05 0.000986156 -5.87546e-07
2.93467e-05 -5.87546e-07 0.000984804
0.00285484 4.93907e-05 4.22233e-05
4.93907e-05 0.00156075 -6.1833e-06
4.22233e-05 -6.1833e-06 0.00157012
0.000920617 0.000158308 3.65272e-06
0.000158308 0.000366815 -8.37602e-06
3.65272e-06 -8.37602e-06 0.000176507
0.000531522 7.99169e-05 4.36789e-06
7.99169e-05 8.95855e-05 -4.42442e-06
4.36789e-06 -4.42442e-06 -2.84866e-05
0.000403662 7.98401e-05 -4.04176e-07
7.98401e-05 4.62707e-05 -6.03401e-07
-4.04176e-07 -6.03401e-07 -0.000132616
0.000430275 2.7621e-05 3.96984e-07
2.7621e-05 -1.46824e-05 -7.86474e-06
3.96984e-07 -7.86474e-06 -4.70752e-05
0.000238503 5.18841e-05 -2.53329e-06
5.18841e-05 -0.000101328 -2.62043e-06
-2.53329e-06 -2.62043e-06 -0.0002058
0.000596609 0.000102047 -2.08894e-06
0.000102047 0.000174946 -2.79565e-06
-2.08894e-06 -2.79565e-06 1.02948e-05
0.00234196 -3.15742e-05 -2.41155e-05
-3.15742e-05 0.00122722 -5.9308e-06
-2.41155e-05 -5.9308e-06 0.0012402
0.000394737 2.12975e-06 1.14299e-06
2.12975e-06 -4.30962e-05 -3.21367e-07
1.14299e-06 -3.21367e-07 -6.59673e-05
8.33453e-05 2.41473e-05 -1.99849e-06
2.41473e-05 -0.000205577 2.17818e-06
-1.99849e-06 2.17818e-06 -0.000297723
0.00217986 -1.44266e-05 -6.18057e-06
-1.44266e-05 0.00112019 1.25955e-07
-6.18057e-06 1.25955e-07 0.00113555
0.000408107 2.44871e-06 -4.64755e-06
2.44871e-06 -3.71772e-05 5.17294e-06
-4.64755e-06 5.17294e-06 -5.37554e-05
0.00213772 1.88031e-06 1.60315e-05
1.88031e-06 0.00109329 5.50764e-06
1.60315e-05 5.50764e-06 0.00110921
0.002801 -0.000312609 -0.000184555
-0.000312609 0.00191173 1.21691e-05
-0.000184555 1.21691e-05 -0.000401603
-0.00185155 8.37968e-06 0.000168264
8.37968e-06 0.0044964 -4.91424e-06
0.000168264 -4.91424e-06 0.00150822
-0.00051489 -0.000423584 0.000148253
-0.000423584 0.0014826 -0.000286288
0.000148253 -0.000286288 -0.00479216
-0.000523782 -3.88913e-05 4.30053e-06
-3.88913e-05 -0.000402513 -6.83052e-06
4.30053e-06 -6.83052e-06 -0.000754569
0.00422202 0.000452177 1.3383e-05
0.000452177 0.00249659 1.09708e-05
1.3383e-05 1.09708e-05 0.0022269
0.000419097 0.000159698 -6.26149e-06
0.000159698 6.07205e-05 -8.87558e-06
-6.26149e-06 -8.87558e-06 -0.000123457
-0.000259048 6.99906e-05 8.04818e-07
6.99906e-05 -0.000360496 -3.61895e-06
8.04818e-07 -3.61895e-06 -0.000580367
0.00024265 0.000116465 1.77402e-08
0.000116465 -9.72772e-05 -2.32772e-06
1.77402e-08 -2.32772e-06 -0.000238088
0.000618322 0.000140984 6.38467e-06
0.000140984 0.000191811 1.54521e-05
6.38467e-06 1.54521e-05 -8.75182e-06
-0.000377007 6.33869e-05 1.71009e-05
6.33869e-05 -0.000440501 9.86307e-06
1.71009e-05 9.86307e-06 -0.000540565
0.00469985 0.00200081 0.000283127
0.00200081 0.000327248 0.000247357
0.000283127 0.000247357 -0.00223416
0.00769964 -0.000454619 -0.000129831
-0.000454619 0.000550603 4.18185e-05
-0.000129831 4.18185e-05 -0.00224409
0.00565554 -0.00102766 0.000490132
-0.00102766 0.00491478 -0.000133171
0.000490132 -0.000133171 0.00187054
0.0108919 6.33356e-05 -3.28682e-05
6.33356e-05 -0.00427343 0.000211821
-3.28682e-05 0.000211821 -0.00308272
0.0069077 -0.00575679 -0.000174006
-0.00575679 0.000751761 3.91041e-05
-0.000174006 3.91041e-05 0.00156414
5.80158e-05 -0.0065683 -0.000475903
-0.0065683 0.00218386 0.000183766
-0.000475903 0.000183766 -0.00479742
0.0248106 0.00472424 0.000305164
0.00472424 0.00980322 -0.000283197
0.000305164 -0.000283197 0.00288654
0.0027778 -0.00477378 -9.13822e-05
-0.00477378 0.000795189 5.47961e-05
-9.13822e-05 5.47961e-05 0.000914453
0.000145526 -0.00182284 -0.000110613
-0.00182284 0.00600535 6.9656e-05
-0.000110613 6.9656e-05 -0.00275258
0.0148233 0.000209732 0.000366357
0.000209732 0.00567237 -4.40245e-05
0.000366357 -4.40245e-05 0.000207415
0.0195241 -0.0019993 -8.05016e-05
-0.0019993 0.00312587 -9.08129e-07
-8.05016e-05 -9.08129e-07 0.00279919
-0.00566101 -0.000661412 -0.000240697
-0.000661412 -0.000690108 0.000238816
-0.000240697 0.000238816 -0.00147602
0.00124445 0.00107183 -0.000260015
0.00107183 0.00604438 -0.000207564
-0.000260015 -0.000207564 -0.00272386
0.0090864 -0.00650147 -4.8249e-05
-0.00650147 0.00305581 -0.000275446
-4.8249e-05 -0.000275446 -0.00495426
0.0204378 -0.00286251 0.000470816
-0.00286251 0.00927951 -0.000790758
0.000470816 -0.000790758 0.004606
0.000142357 4.74251e-05 3.36081e-05
4.74251e-05 0.000359663 -5.4934e-06
3.36081e-05 -5.4934e-06 -8.85478e-05
0.000635207 0.000205891 -9.39465e-07
0.000205891 0.000308151 -3.04142e-06
-9.39465e-07 -3.04142e-06 0.000137832
0.000500751 -2.71029e-05 1.16148e-06
-2.71029e-05 0.000232199 -8.33822e-06
1.16148e-06 -8.33822e-06 -3.9148e-06
0.00093391 0.000199847 -5.08317e-06
0.000199847 0.000377575 -1.48417e-05
-5.08317e-06 -1.48417e-05 0.000188019
0.00115109 -0.00198822 8.61484e-05
-0.00198822 0.000929896 2.70322e-05
8.61484e-05 2.70322e-05 -0.000105568
0.000645011 -0.000501556 -3.35156e-06
-0.000501556 0.00112692 -1.19254e-05
-3.35156e-06 -1.19254e-05 0.000301653
0.000247649 9.01456e-05 -3.63541e-05
9.01456e-05 0.000200632 -9.66936e-06
-3.63541e-05 -9.66936e-06 -2.34391e-05
0.00127374 -0.00022219 9.67328e-06
-0.00022219 0.000996177 -4.33838e-05
9.67328e-06 -4.33838e-05 0.000604952
-0.000117213 -8.33665e-05 -1.66322e-05
-8.33665e-05 0.000514327 7.77766e-06
-1.66322e-05 7.77766e-06 -6.71476e-05
0.000115236 0.00013699 7.23978e-07
0.00013699 0.000297478 7.8333e-06
7.23978e-07 7.8333e-06 -7.16346e-05
0.00105181 -0.000135976 7.81809e-07
-0.000135976 0.00125299 6.73607e-07
7.81809e-07 6.73607e-07 0.000645934
0.000721697 -0.0012523 2.86362e-05
-0.0012523 0.00177115 -1.36337e-05
2.86362e-05 -1.36337e-05 2.19814e-05
0.00076606 -0.00018122 -2.58702e-06
-0.00018122 0.0015927 -1.82422e-05
-2.58702e-06 -1.82422e-05 0.000846971
0.000617415 0.000146711 7.10816e-06
0.000146711 0.000633636 -1.55798e-05
7.10816e-06 -1.55798e-05 0.000264396
-0.00139944 0.000184802 -0.000237753
0.000184802 0.00242553 -3.07596e-06
-0.000237753 -3.07596e-06 -2.0287e-05
0.00090739 0.000506937 1.65691e-05
0.000506937 0.00140596 -4.39581e-06
1.65691e-05 -4.39581e-06 0.000721702
-0.00370847 -0.000148378 -8.13903e-05
-0.000148378 0.00415555 -0.000107442
-8.13903e-05 -0.000107442 0.00145334
0.00241126 0.000208776 3.89609e-05
0.000208776 0.00122661 2.06866e-05
3.89609e-05 2.06866e-05 -0.00144493
-0.00440858 0.00148992 -0.000113664
0.00148992 0.00347541 -0.000105273
-0.000113664 -0.000105273 6.59797e-05
0.000195496 0.00053867 -1.7003e-05
0.00053867 0.000865533 2.13335e-06
-1.7003e-05 2.13335e-06 0.000205373
-0.00128332 0.00134206 0.000283582
0.00134206 0.0012159 0.000120133
0.000283582 0.000120133 -0.000140609
0.00110811 7.64911e-05 0.000105272
7.64911e-05 0.0024854 -1.13172e-05
0.000105272 -1.13172e-05 0.000515535
0.00669164 -0.00217817 0.000398636
-0.00217817 0.00681164 -0.000238768
0.000398636 -0.000238768 -0.00304628
0.0261807 0.00441948 -0.000379163
0.00441948 0.0101103 0.000273307
-0.000379163 0.000273307 0.00258386
0.00324219 -0.00098493 -0.000466782
-0.00098493 0.00333613 7.43837e-05
-0.000466782 7.43837e-05 0.000550515
0.0166519 0.00594604 -0.000372214
0.00594604 0.0118678 -0.000324404
-0.000372214 -0.000324404 0.00627964
0.000680551 0.000243685 -5.36518e-05
0.000243685 0.00182538 6.19266e-06
-5.36518e-05 6.19266e-06 0.000262747
-0.000631812 -0.00064322 -0.000157966
-0.00064322 0.00441575 3.30993e-06
-0.000157966 3.30993e-06 0.00213082
0.00214122 -0.00227516 0.00030784
-0.00227516 0.00230785 -6.63688e-05
0.00030784 -6.63688e-05 -0.0035817
-0.00405256 5.12991e-05 8.99602e-05
5.12991e-05 0.000604507 4.45794e-05
8.99602e-05 4.45794e-05 -0.000381719
0.0304209 0.0168492 0.000933009
0.0168492 0.0212977 -0.000293849
0.000933009 -0.000293849 0.00976318
0.0135207 0.00360139 -0.00013477
0.00360139 0.00942339 0.000496448
-0.00013477 0.000496448 0.000901886
-0.00127357 -0.00197712 0.000319426
-0.00197712 0.00443835 -0.000217224
0.000319426 -0.000217224 -0.00473002
-0.00265861 -0.000772647 -4.99413e-05
-0.000772647 0.000390627 -4.56515e-05
-4.99413e-05 -4.56515e-05 -0.00129644
0.00167007 -0.00140877 0.00045159
-0.00140877 0.000174803 -0.000116161
0.00045159 -0.000116161 -0.00474664
0.00375854 0.00395035 -0.00249498
0.00395035 0.0127005 0.000303012
-0.00249498 0.000303012 0.00434471
0.0257437 0.00977952 -0.00059874
0.00977952 0.0111615 0.000453606
-0.00059874 0.000453606 0.00198055
0.00666429 -0.00584507 -0.000322348
-0.00584507 0.00407581 0.000159862
-0.000322348 0.000159862 0.000231293
0.00377369 -0.00305013 9.54732e-05
-0.00305013 0.00466606 3.67025e-05
9.54732e-05 3.67025e-05 0.00277726
-7.14527e-06 -0.000115644 7.38587e-06
-0.000115644 0.000692384 -2.16759e-05
7.38587e-06 -2.16759e-05 -0.000113234
0.000190817 -0.000524558 2.20411e-06
-0.000524558 0.000698019 -1.87664e-06
2.20411e-06 -1.87664e-06 -0.000176193
0.000250904 -0.00128571 -5.66298e-06
-0.00128571 0.000391819 1.21377e-05
-5.66298e-06 1.21377e-05 -0.000393343
-0.000144832 -0.000237403 -1.39537e-06
-0.000237403 0.000360504 1.09662e-05
-1.39537e-06 1.09662e-05 -3.13653e-05
0.00023372 -0.00064064 -4.55285e-06
-0.00064064 0.000325691 3.83432e-06
-4.55285e-06 3.83432e-06 -0.000175053
0.00209646 -0.00109917 3.58151e-05
-0.00109917 0.000851611 -2.56969e-05
3.58151e-05 -2.56969e-05 0.000248049
0.00623519 -0.0014919 -9.75509e-06
-0.0014919 0.00331749 4.91558e-06
-9.75509e-06 4.91558e-06 0.00266692
0.00276966 -0.00112526 1.23342e-05
-0.00112526 0.00132303 -4.72354e-06
1.23342e-05 -4.72354e-06 0.000430932
0.00275472 -0.00142125 3.77085e-06
-0.00142125 0.00090282 -2.07984e-05
3.77085e-06 -2.07984e-05 2.00963e-06
0.00293075 -0.00104692 -7.97144e-06
-0.00104692 0.0012871 -8.23626e-06
-7.97144e-06 -8.23626e-06 0.000597168
0.00224859 -0.00120186 6.04406e-07
-0.00120186 0.000725064 -2.43633e-06
6.04406e-07 -2.43633e-06 -0.000102467
0.00301491 -0.00143569 -8.74491e-06
-0.00143569 0.000974279 -1.02457e-05
-8.74491e-06 -1.02457e-05 0.000176179
0.00260592 -0.00102608 -2.46381e-06
-0.00102608 0.000502625 -6.67551e-06
-2.46381e-06 -6.67551e-06 1.63192e-06
0.00313394 -0.001351 -1.06923e-05
-0.001351 0.00101627 -1.53781e-06
-1.06923e-05 -1.53781e-06 0.00032002
0.00296879 -0.0013664 -4.4973e-06
-0.0013664 0.000948835 -4.6862e-07
-4.4973e-06 -4.6862e-07 0.00021225
0.00236382 -0.00118602 8.75887e-06
-0.00118602 0.00082695 -7.76845e-06
8.75887e-06 -7.76845e-06 0.00014277
0.00193478 -0.00111742 3.67403e-06
-0.00111742 0.000567596 -1.2387e-06
3.67403e-06 -1.2387e-06 -0.000102981
0.00206423 -0.00104267 9.3345e-06
-0.00104267 0.000691659 -3.31671e-06
9.3345e-06 -3.31671e-06 2.01751e-05
0.00171029 -0.000785162 1.30112e-05
-0.000785162 0.000626013 -7.73458e-07
1.30112e-05 -7.73458e-07 6.67413e-05
0.00183587 -0.000913906 -1.32057e-06
-0.000913906 0.000650923 -1.67007e-06
-1.32057e-06 -1.67007e-06 5.14672e-05
0.00188356 -0.000982367 7.38466e-07
-0.000982367 0.000600366 6.85558e-06
7.38466e-07 6.85558e-06 -1.63082e-05
0.00198744 -0.000286091 7.89622e-07
-0.000286091 0.000956932 -4.97344e-06
7.89622e-07 -4.97344e-06 0.000644503
0.00100372 -0.000362907 -5.92314e-06
-0.000362907 0.000253044 3.43831e-06
-5.92314e-06 3.43831e-06 -0.000100013
0.0013701 -0.000656777 -8.979e-06
-0.000656777 0.00041248 -5.66199e-06
-8.979e-06 -5.66199e-06 -6.85318e-05
0.000361238 -0.000114022 1.09494e-06
-0.000114022 -2.76446e-05 1.19226e-06
1.09494e-06 1.19226e-06 -0.000302987
0.000552374 -0.000182632 -8.58427e-07
-0.000182632 0.000115963 1.26681e-06
-8.58427e-07 1.26681e-06 -0.000197202
0.000429213 -0.000242797 3.88651e-06
-0.000242797 -1.34029e-05 -7.6836e-07
3.88651e-06 -7.6836e-07 -0.000348908
0.000312126 -6.81452e-05 -1.40568e-05
-6.81452e-05 -9.44899e-05 1.9853e-05
-1.40568e-05 1.9853e-05 -0.000168762
0.000771228 -0.000131106 9.60579e-08
-0.000131106 0.000254504 6.75818e-07
9.60579e-08 6.75818e-07 2.39212e-05
0.00182163 -0.00034666 -8.0381e-07
-0.00034666 0.000992747 3.33589e-06
-8.0381e-07 3.33589e-06 0.00066165
0.001112 -0.000147563 6.34728e-08
-0.000147563 0.000446162 -8.70062e-06
6.34728e-08 -8.70062e-06 0.000270916
0.00040476 -2.61974e-05 -2.96392e-07
-2.61974e-05 -2.43379e-05 -4.69513e-07
-2.96392e-07 -4.69513e-07 -8.75569e-05
0.00355502 0.000137512 -5.24803e-05
0.000137512 0.00204362 7.15357e-06
-5.24803e-05 7.15357e-06 0.00203416
0.000448848 -3.78194e-05 3.89262e-06
-3.78194e-05 -1.20745e-06 -1.22688e-05
3.89262e-06 -1.22688e-05 -5.12201e-05
0.00321948 0.000102133 7.91506e-06
0.000102133 0.0018114 9.07956e-07
7.91506e-06 9.07956e-07 0.00181115
0.00291898 7.12575e-05 4.72301e-05
7.12575e-05 0.00160528 -6.24759e-06
4.72301e-05 -6.24759e-06 0.00161197
0.0027689 8.01708e-05 1.20314e-05
8.01708e-05 0.00176312 -8.96469e-06
1.20314e-05 -8.96469e-06 0.00135922
0.00232884 0.000240432 1.0398e-05
0.000240432 0.0014318 -2.00838e-05
1.0398e-05 -2.00838e-05 0.0011012
0.000591951 7.60832e-05 5.81281e-06
7.60832e-05 0.000120678 -8.14104e-06
5.81281e-06 -8.14104e-06 -1.20119e-05
0.000788299 0.000170467 -3.03462e-07
0.000170467 0.000311415 1.52706e-06
-3.03462e-07 1.52706e-06 0.000105953
0.000436101 -1.77645e-05 5.91944e-06
-1.77645e-05 -8.67163e-06 -9.5178e-06
5.91944e-06 -9.5178e-06 -4.74687e-05
0.000562381 8.63999e-05 2.72269e-08
8.63999e-05 0.000112832 -3.97031e-07
2.72269e-08 -3.97031e-07 -6.00018e-06
0.000695634 7.67229e-05 -6.74377e-06
7.67229e-05 0.000227743 -3.42612e-06
-6.74377e-06 -3.42612e-06 5.35561e-05
0.00266337 -5.05294e-05 -3.28983e-05
-5.05294e-05 0.00144095 -6.36855e-06
-3.28983e-05 -6.36855e-06 0.00145033
0.000427124 5.00138e-06 -2.1333e-06
5.00138e-06 -1.75867e-05 -2.84538e-07
-2.1333e-06 -2.84538e-07 -4.87151e-05
0.000529877 8.14305e-05 -5.64148e-06
8.14305e-05 9.20838e-05 1.81805e-06
-5.64148e-06 1.81805e-06 -1.4384e-05
0.0023688 -3.25425e-05 -5.73462e-06
-3.25425e-05 0.00124486 3.32912e-07
-5.73462e-06 3.32912e-07 0.00125775
0.000419186 4.5902e-06 -4.0125e-06
4.5902e-06 -2.85109e-05 5.76452e-06
-4.0125e-06 5.76452e-06 -5.05476e-05
0.00218432 -1.44329e-05 1.8923e-05
-1.44329e-05 0.00112278 5.50873e-06
1.8923e-05 5.50873e-06 0.00113816
-0.00237769 0.00106754 -4.06222e-05
0.00106754 0.00275192 -0.000143676
-4.06222e-05 -0.000143676 -0.000230027
0.00426208 -0.000381769 -3.4179e-05
-0.000381769 0.0029319 -6.74448e-05
-3.4179e-05 -6.74448e-05 0.000846058
0.000293115 -0.000482936 6.41792e-05
-0.000482936 0.0044316 -7.45444e-05
6.41792e-05 -7.45444e-05 0.00189976
0.00056718 9.7953e-06 2.80114e-06
9.7953e-06 0.000387328 -8.06453e-06
2.80114e-06 -8.06453e-06 -5.03273e-05
1.83996e-05 0.000269011 1.21337e-05
0.000269011 -0.00013147 -7.32374e-06
1.21337e-05 -7.32374e-06 -0.000389694
-0.00253467 4.53481e-05 3.06611e-05
4.53481e-05 -0.00193815 -1.82368e-05
3.06611e-05 -1.82368e-05 -0.00212155
-0.00270665 -2.7248e-05 -4.66478e-06
-2.7248e-05 -0.00165305 2.20565e-05
-4.66478e-06 2.20565e-05 -0.00208266
0.00157711 0.000393985 8.85726e-06
0.000393985 0.000777844 -4.33235e-06
8.85726e-06 -4.33235e-06 0.000483444
0.000623627 6.34039e-05 -8.50111e-06
6.34039e-05 0.000205993 9.84549e-08
-8.50111e-06 9.84549e-08 -3.30951e-05
9.18615e-05 0.000115438 -1.11091e-05
0.000115438 -0.000165042 -1.62399e-05
-1.11091e-05 -1.62399e-05 -0.000305929
0.00132956 -1.48333e-06 8.1629e-06
-1.48333e-06 0.000637709 2.36546e-06
8.1629e-06 2.36546e-06 0.000442919
0.000906636 0.000196088 -3.77941e-06
0.000196088 0.000403286 -7.19831e-06
-3.77941e-06 -7.19831e-06 0.000286691
0.00280118 0.000220655 -4.11878e-06
0.000220655 0.00182081 -1.23026e-05
-4.11878e-06 -1.23026e-05 0.00146522
0.00958554 0.00287835 0.000830504
0.00287835 0.0062752 0.000625138
0.000830504 0.000625138 0.000908295
0.00422273 0.00161085 2.65443e-05
0.00161085 0.00149166 7.9885e-05
2.65443e-05 7.9885e-05 -0.00137908
0.00769792 -0.000349327 0.000173206
-0.000349327 0.000241713 -1.2782e-06
0.000173206 -1.2782e-06 -0.00164596
0.0150618 -0.000742792 -0.000294635
-0.000742792 0.00238654 -0.000132723
-0.000294635 -0.000132723 0.00377185
0.00364904 0.000782666 0.000152414
0.000782666 -0.000959172 0.000479618
0.000152414 0.000479618 -0.00720353
0.00310509 -0.00483458 -0.000100073
-0.00483458 0.00159488 1.62736e-05
-0.000100073 1.62736e-05 0.00131533
0.00399053 -0.00228555 -0.000386785
-0.00228555 0.00580701 0.000125636
-0.000386785 0.000125636 -0.000863709
-0.000782265 -0.00179957 -0.000108276
-0.00179957 0.00109142 0.000142299
-0.000108276 0.000142299 3.88108e-05
0.0121077 -0.000349966 -0.000358569
-0.000349966 0.00893285 -1.64011e-06
-0.000358569 -1.64011e-06 0.00100364
0.0096869 -0.0032957 0.000170193
-0.0032957 0.00607764 0.000277479
0.000170193 0.000277479 -0.00140292
0.027791 -0.0061053 0.000191434
-0.0061053 0.00970382 -0.000984704
0.000191434 -0.000984704 0.00266732
-0.000674733 0.000453929 -0.000213089
0.000453929 0.00281996 0.000127227
-0.000213089 0.000127227 0.000688659
0.00514771 0.00225242 -0.000315598
0.00225242 0.00680771 -0.000112861
-0.000315598 -0.000112861 -0.000159641
0.0292373 -0.0104177 0.000603208
-0.0104177 0.0166861 -0.00110518
0.000603208 -0.00110518 0.00645218
0.0334702 -0.0156852 8.26785e-05
-0.0156852 0.0198206 -7.97311e-05
8.26785e-05 -7.97311e-05 0.00880663
6.25246e-06 0.000394725 3.58813e-05
0.000394725 0.000163792 2.09117e-05
3.58813e-05 2.09117e-05 -0.000345575
-0.000202069 7.61369e-05 1.28859e-05
7.61369e-05 0.000220373 2.27878e-06
1.28859e-05 2.27878e-06 -0.000283526
0.000894814 0.00018892 -2.79635e-05
0.00018892 0.000473509 -1.50338e-05
-2.79635e-05 -1.50338e-05 0.000297462
0.00320804 -0.0016671 9.95393e-05
-0.0016671 0.0027883 -1.75794e-06
9.95393e-05 -1.75794e-06 0.000642531
-0.00141552 -0.000191182 0.000117018
-0.000191182 0.000626718 1.44372e-05
0.000117018 1.44372e-05 -0.000250054
-0.000204888 0.000118064 -1.73054e-05
0.000118064 7.39571e-05 1.07122e-05
-1.73054e-05 1.07122e-05 -0.000280972
-0.000287053 -0.000277332 1.25762e-05
-0.000277332 0.000607564 -5.57793e-06
1.25762e-05 -5.57793e-06 -0.000168294
-0.000324126 0.000161814 -9.17652e-06
0.000161814 0.000104154 1.97952e-06
-9.17652e-06 1.97952e-06 -0.000274482
-0.000501334 0.000351579 2.91404e-05
0.000351579 0.00043776 8.22972e-06
2.91404e-05 8.22972e-06 -0.000291595
-0.00263377 0.000120771 0.000180508
0.000120771 0.00154807 -8.60483e-05
0.000180508 -8.60483e-05 -0.000734896
0.00190983 0.000969504 5.74671e-05
0.000969504 0.00104321 5.51003e-05
5.74671e-05 5.51003e-05 0.00050305
0.00153891 0.00122659 -0.000120898
0.00122659 0.00201692 -0.000133595
-0.000120898 -0.000133595 4.31659e-05
8.7644e-05 -0.000443489 0.000321465
-0.000443489 0.00172992 0.000123098
0.000321465 0.000123098 -0.00394988
-0.00331017 0.000647426 -0.000200685
0.000647426 0.00396059 -5.38878e-06
-0.000200685 -5.38878e-06 0.000556187
0.00499006 -0.000514995 -0.000132313
-0.000514995 0.00308038 4.7455e-06
-0.000132313 4.7455e-06 0.00186053
0.000490831 0.000694066 7.46851e-05
0.000694066 0.00137679 2.15576e-05
7.46851e-05 2.15576e-05 -0.000268431
0.000348434 0.00035432 -0.000103509
0.00035432 0.00323904 0.000114686
-0.000103509 0.000114686 0.00108684
-0.00130362 -0.000228859 -3.80913e-05
-0.000228859 0.00341563 -7.12372e-05
-3.80913e-05 -7.12372e-05 0.00069431
0.0145294 -0.00627059 0.000420652
-0.00627059 0.00956629 -0.00026554
0.000420652 -0.00026554 0.00076476
0.0295283 0.00846315 -0.000728528
0.00846315 0.016403 -0.000352588
-0.000728528 -0.000352588 0.00603202
0.00681308 -0.0029491 -0.000554857
-0.0029491 0.00384982 0.000358426
-0.000554857 0.000358426 -0.0010537
0.0233214 0.0202532 0.00309454
0.0202532 0.0171132 -0.00186332
0.00309454 -0.00186332 0.00507696
8.48004e-05 -0.000852548 4.46399e-05
-0.000852548 0.00164501 -1.11938e-05
4.46399e-05 -1.11938e-05 -8.35496e-05
0.000118857 -0.000937088 9.57113e-05
-0.000937088 0.00117433 6.28211e-06
9.57113e-05 6.28211e-06 -0.00442969
0.00709673 0.00461723 -0.00167719
0.00461723 0.0120015 0.000205346
-0.00167719 0.000205346 0.00316903
0.000226264 -0.00174813 5.46492e-05
-0.00174813 0.00219328 3.01499e-05
5.46492e-05 3.01499e-05 0.000772813
0.0283275 0.00966821 0.000526893
0.00966821 0.0122426 0.00022469
0.000526893 0.00022469 0.00308088
0.00563445 -0.00851935 0.000425397
-0.00851935 0.00296987 -0.000116587
0.000425397 -0.000116587 -0.0019318
-0.000511213 -0.00221686 1.62977e-05
-0.00221686 0.000523433 5.08833e-05
1.62977e-05 5.08833e-05 -0.00104826
-0.00121025 -0.00164193 0.000212995
-0.00164193 0.00990322 -0.000130268
0.000212995 -0.000130268 0.00405871
0.0220629 0.0104941 -0.0024003
0.0104941 0.00980747 0.000348455
-0.0024003 0.000348455 0.00221484
0.00461417 -0.00734308 -0.000843711
-0.00734308 -0.00275024 0.000270062
-0.000843711 0.000270062 -0.00403255
-0.000874616 -0.00303548 0.000209628
-0.00303548 -0.000199203 -0.000173091
0.000209628 -0.000173091 0.000661464
0.00171747 -0.000729814 -0.000131494
-0.000729814 0.00137885 4.9876e-05
-0.000131494 4.9876e-05 0.000536622
0.000154632 -0.00104726 -1.41819e-05
-0.00104726 0.000418623 1.2192e-05
-1.41819e-05 1.2192e-05 -0.000357123
0.000247714 -0.00110019 9.49819e-06
-0.00110019 -5.72916e-05 -2.62485e-05
9.49819e-06 -2.62485e-05 -0.000670829
-0.000969915 -0.000362934 1.1476e-05
-0.000362934 -0.000155628 4.35664e-06
1.1476e-05 4.35664e-06 -0.000609822
0.000739187 -0.00092212 6.45037e-06
-0.00092212 0.000153805 -1.72283e-06
6.45037e-06 -1.72283e-06 -0.000401835
0.00329436 -0.00153263 6.54752e-06
-0.00153263 0.000948155 -1.33579e-05
6.54752e-06 -1.33579e-05 0.000362595
0.00459373 -0.00141852 -3.31692e-05
-0.00141852 0.00224109 8.89432e-06
-3.31692e-05 8.89432e-06 0.00133903
0.00221173 -0.00130841 -4.80278e-06
-0.00130841 0.000593624 -1.06972e-06
-4.80278e-06 -1.06972e-06 -0.000267155
0.0030779 -0.00155067 3.99062e-06
-0.00155067 0.000763758 -8.56465e-06
3.99062e-06 -8.56465e-06 5.13718e-05
0.00325684 -0.00135563 9.29459e-06
-0.00135563 0.00126994 4.31355e-06
9.29459e-06 4.31355e-06 0.000412781
0.00276312 -0.00138696 3.78971e-06
-0.00138696 0.000831768 -3.63166e-06
3.78971e-06 -3.63166e-06 5.83823e-05
0.00284036 -0.00110083 -2.70357e-06
-0.00110083 0.000591565 -6.68329e-06
-2.70357e-06 -6.68329e-06 8.85766e-05
0.00209885 -0.000661477 -1.09284e-06
-0.000661477 3.77445e-05 -2.48439e-06
-1.09284e-06 -2.48439e-06 -0.000223068
0.00216057 -0.000983031 6.27688e-07
-0.000983031 0.000173735 -3.73207e-06
6.27688e-07 -3.73207e-06 -0.000315341
0.00255563 -0.0010313 3.98176e-06
-0.0010313 0.000456546 -2.10758e-06
3.98176e-06 -2.10758e-06 -4.55879e-05
0.00301753 -0.00121463 -3.19837e-06
-0.00121463 0.00100243 -3.44677e-06
-3.19837e-06 -3.44677e-06 0.000370703
0.00311692 -0.00134913 -4.43027e-06
-0.00134913 0.00101108 -4.14087e-07
-4.43027e-06 -4.14087e-07 0.000309428
0.00279893 -0.00134293 1.11383e-05
-0.00134293 0.000847488 -3.32732e-06
1.11383e-05 -3.32732e-06 0.00011269
0.00218489 -0.00105748 6.97215e-06
-0.00105748 0.000764325 -9.29318e-06
6.97215e-06 -9.29318e-06 0.00010947
0.00209113 -0.00114613 1.71804e-06
-0.00114613 0.000676048 -8.84896e-07
1.71804e-06 -8.84896e-07 3.0454e-06
0.00159368 -0.00104998 4.32909e-06
-0.00104998 0.000377624 2.37287e-06
4.32909e-06 2.37287e-06 -0.000265143
0.00265209 -0.000545434 6.06043e-06
-0.000545434 0.00129184 8.57591e-06
6.06043e-06 8.57591e-06 0.000893571
0.00141053 -0.000734657 5.3241e-07
-0.000734657 0.000474522 2.62495e-06
5.3241e-07 2.62495e-06 -6.47298e-05
0.00219372 -0.000951815 -8.21313e-06
-0.000951815 0.000884089 9.01524e-06
-8.21313e-06 9.01524e-06 0.00027718
0.000694388 -0.000244176 -3.31398e-06
-0.000244176 0.000106441 -6.8609e-06
-3.31398e-06 -6.8609e-06 -0.000136095
0.000561818 -0.000259744 -2.86263e-06
-0.000259744 5.24083e-05 -5.57359e-06
-2.86263e-06 -5.57359e-06 -0.000261078
0.000863395 -0.000256868 -1.1279e-06
-0.000256868 0.000194054 -9.89459e-07
-1.1279e-06 -9.89459e-07 -0.000141708
0.00222438 -6.24818e-05 -7.5764e-05
-6.24818e-05 0.00114232 1.32956e-05
-7.5764e-05 1.32956e-05 0.00106089
0.000490254 -0.000198161 2.4656e-06
-0.000198161 4.25923e-05 1.54038e-06
2.4656e-06 1.54038e-06 -0.000222678
0.000996142 -0.000305032 2.27313e-06
-0.000305032 0.000396694 4.70955e-06
2.27313e-06 4.70955e-06 7.35929e-05
0.000896618 4.5791e-06 -8.48206e-05
4.5791e-06 0.000298626 9.27634e-06
-8.48206e-05 9.27634e-06 0.000282545
0.00125612 -5.41483e-05 -2.55506e-05
-5.41483e-05 0.00052393 -7.01814e-07
-2.55506e-05 -7.01814e-07 0.000448104
0.00135629 -0.00015807 9.85611e-07
-0.00015807 0.00061251 -7.01217e-06
9.85611e-07 -7.01217e-06 0.000390903
0.000544936 -4.65176e-05 8.26872e-06
-4.65176e-05 5.87358e-05 -1.43136e-05
8.26872e-06 -1.43136e-05 -4.35582e-06
0.00375729 0.000134955 1.34401e-05
0.000134955 0.00217551 1.09832e-06
1.34401e-05 1.09832e-06 0.00216727
0.00338542 0.00010042 5.86467e-05
0.00010042 0.00191954 -6.758e-06
5.86467e-05 -6.758e-06 0.00191974
-0.000542437 0.000129291 2.10706e-06
0.000129291 -0.000569049 1.2879e-05
2.10706e-06 1.2879e-05 -0.000856814
0.00239897 0.000254859 7.02398e-06
0.000254859 0.0014918 -1.90149e-05
7.02398e-06 -1.90149e-05 0.00109796
-0.000699767 6.72237e-05 5.09256e-06
6.72237e-05 -0.000460123 -1.00537e-06
5.09256e-06 -1.00537e-06 -0.00084406
0.000755287 0.000110344 5.27738e-07
0.000110344 0.000233704 -1.207e-05
5.27738e-07 -1.207e-05 7.04631e-05
0.000549407 0.000157425 4.12783e-06
0.000157425 0.000216872 -7.70457e-07
4.12783e-06 -7.70457e-07 -6.35315e-05
0.000360531 1.58962e-05 -1.90706e-06
1.58962e-05 -4.4867e-05 -1.3155e-05
-1.90706e-06 -1.3155e-05 -9.43397e-05
0.000532889 8.41906e-05 -1.88816e-07
8.41906e-05 9.22732e-05 -4.32123e-08
-1.88816e-07 -4.32123e-08 -4.48914e-05
0.000769142 9.86296e-05 -5.75729e-06
9.86296e-05 0.000322786 6.23243e-06
-5.75729e-06 6.23243e-06 0.000106224
0.00291372 -7.0078e-05 -4.34524e-05
-7.0078e-05 0.00161004 -6.50565e-06
-4.34524e-05 -6.50565e-06 0.00161622
0.000375314 1.14189e-05 -6.83689e-07
1.14189e-05 -4.44925e-05 1.34923e-08
-6.83689e-07 1.34923e-08 -8.41484e-05
0.000395147 8.24565e-05 -3.30025e-06
8.24565e-05 5.19103e-06 4.89144e-06
-3.30025e-06 4.89144e-06 -0.000112502
0.00256186 -5.22129e-05 -8.01438e-06
-5.22129e-05 0.00137459 5.24962e-07
-8.01438e-06 5.24962e-07 0.00138391
0.000325373 -1.80968e-05 -8.11741e-06
-1.80968e-05 -8.38576e-05 7.22097e-06
-8.11741e-06 7.22097e-06 -0.000113876
0.00229008 -3.07793e-05 2.38345e-05
-3.07793e-05 0.00119316 5.68635e-06
2.38345e-05 5.68635e-06 0.00120678
0.00689585 0.00157227 0.000637648
0.00157227 0.00552016 0.000157518
0.000637648 0.000157518 0.00164995
-0.0022098 0.00096037 -2.27581e-05
0.00096037 0.0023595 -1.42738e-05
-2.27581e-05 -1.42738e-05 -0.000925748
0.000543762 0.00117809 -6.10807e-06
0.00117809 0.00303746 -2.29397e-05
-6.10807e-06 -2.29397e-05 0.000265187
-0.000177423 0.000350312 -1.37834e-05
0.000350312 -0.000396835 1.47872e-05
-1.37834e-05 1.47872e-05 -0.000726492
-0.000620832 4.34594e-05 -1.46233e-05
4.34594e-05 -0.000461066 2.98397e-05
-1.46233e-05 2.98397e-05 -0.000836224
0.00039416 0.000153547 -2.08824e-05
0.000153547 8.69023e-05 -1.07185e-05
-2.08824e-05 -1.07185e-05 -0.00011457
0.00178263 0.000160761 1.07122e-05
0.000160761 0.00103017 1.62265e-07
1.07122e-05 1.62265e-07 0.000732334
0.000899319 0.000291476 -4.60914e-07
0.000291476 0.000205442 -1.21083e-05
-4.60914e-07 -1.21083e-05 -1.20591e-06
0.00243553 0.000494136 -2.0885e-05
0.000494136 0.00132911 -9.12668e-06
-2.0885e-05 -9.12668e-06 0.00110948
0.00140039 0.000413056 1.55463e-05
0.000413056 0.000581869 -2.36746e-05
1.55463e-05 -2.36746e-05 0.000206722
-0.00236262 0.000158454 -1.52426e-05
0.000158454 -0.00121392 1.49373e-06
-1.52426e-05 1.49373e-06 -0.00163725
-0.000800943 -2.58486e-06 -4.0345e-06
-2.58486e-06 -0.000662894 -1.95287e-05
-4.0345e-06 -1.95287e-05 -0.00087512
-0.00039572 6.30874e-05 -1.22026e-05
6.30874e-05 -0.000508444 -1.60573e-05
-1.22026e-05 -1.60573e-05 -0.000560574
-0.00100021 5.09042e-05 -7.96478e-06
5.09042e-05 -0.000519475 2.23643e-06
-7.96478e-06 2.23643e-06 -0.000884084
0.000114181 0.000373471 -1.79071e-06
0.000373471 0.000298895 1.47013e-05
-1.79071e-06 1.47013e-05 -0.000321986
0.0105593 -0.00845347 -0.000150633
-0.00845347 0.011841 0.000197317
-0.000150633 0.000197317 0.000851541
0.00980754 0.00343835 0.000292267
0.00343835 0.00455761 0.000207767
0.000292267 0.000207767 -0.00164213
0.00466743 0.000928237 7.23826e-05
0.000928237 0.00236515 -6.9866e-05
7.23826e-05 -6.9866e-05 -0.000862848
0.0398639 -0.00970544 -0.00142563
-0.00970544 0.0139176 -0.000497226
-0.00142563 -0.000497226 0.00559498
0.00632364 -0.00134057 0.000352554
-0.00134057 0.00547116 0.000639487
0.000352554 0.000639487 1.99151e-05
0.00140337 -0.00099034 -0.00022988
-0.00099034 0.00594628 0.000184812
-0.00022988 0.000184812 -0.00288467
0.000130175 -0.00234103 3.16433e-05
-0.00234103 0.00219482 8.62316e-05
3.16433e-05 8.62316e-05 0.000294869
-0.0012132 -0.000155725 0.00020671
-0.000155725 0.00210585 4.19225e-05
0.00020671 4.19225e-05 0.000602397
0.0303999 -0.0178972 0.000519027
-0.0178972 0.0189133 0.000560685
0.000519027 0.000560685 0.00717022
0.00407426 0.0026658 -0.000227409
0.0026658 0.00612808 -0.000140702
-0.000227409 -0.000140702 -0.00179175
0.0129964 -0.00565509 -0.000165344
-0.00565509 0.0105611 0.000189145
-0.000165344 0.000189145 0.000343349
-0.000480865 0.00118962 7.77192e-06
0.00118962 0.00172119 7.69104e-06
7.77192e-06 7.69104e-06 0.000531276
0.00617638 0.00642781 -0.00024214
0.00642781 0.00302275 3.62662e-06
-0.00024214 3.62662e-06 -0.00128984
0.0266633 -0.00917028 -0.00122119
-0.00917028 0.0115672 -0.00034798
-0.00122119 -0.00034798 0.00194872
0.00145823 0.000916718 2.09699e-05
0.000916718 0.000544694 2.52561e-05
2.09699e-05 2.52561e-05 0.000281738
0.000863062 0.00042664 7.52235e-06
0.00042664 0.000702289 4.02771e-06
7.52235e-06 4.02771e-06 0.000153531
-0.000424249 5.24206e-05 -4.22886e-05
5.24206e-05 9.1116e-05 1.70997e-06
-4.22886e-05 1.70997e-06 -0.000420781
-0.002179 -0.000277401 -0.000141796
-0.000277401 0.00165303 -2.93234e-05
-0.000141796 -2.93234e-05 -0.000477371
0.00162249 0.000447778 -4.52319e-05
0.000447778 0.00109832 -7.22362e-06
-4.52319e-05 -7.22362e-06 0.000547636
-0.000134362 0.000242411 -7.70117e-06
0.000242411 0.000217368 6.29937e-06
-7.70117e-06 6.29937e-06 -0.000216773
0.00151778 0.000918445 6.88989e-06
0.000918445 0.00080893 -1.59402e-07
6.88989e-06 -1.59402e-07 0.000277627
-5.03821e-05 0.0010301 -7.89069e-06
0.0010301 0.00127531 -5.34605e-05
-7.89069e-06 -5.34605e-05 -0.000441262
0.00265374 0.00263525 0.000121907
0.00263525 0.00115956 3.2714e-05
0.000121907 3.2714e-05 -0.00032984
-0.00688694 0.0011922 0.000610259
0.0011922 0.00656835 -4.52548e-05
0.000610259 -4.52548e-05 -0.00291032
0.00187762 -0.000804278 -3.59729e-05
-0.000804278 0.00264616 0.000101333
-3.59729e-05 0.000101333 -0.0012618
-0.00305569 0.000122335 -4.72252e-05
0.000122335 0.00310975 0.000115044
-4.72252e-05 0.000115044 -0.000105434
-0.00143311 -0.000509393 -6.09164e-05
-0.000509393 0.000858225 1.10231e-05
-6.09164e-05 1.10231e-05 -0.000895726
-0.00172395 -0.00117185 -5.42425e-05
-0.00117185 0.000587881 3.72457e-05
-5.42425e-05 3.72457e-05 0.00026687
-0.00187563 -0.00130131 -0.000296116
-0.00130131 0.00152508 0.000203152
-0.000296116 0.000203152 -0.00449311
-0.00180256 -0.00645886 0.000345763
-0.00645886 0.00275113 -0.000202064
0.000345763 -0.000202064 -0.00483587
0.0200748 0.00776456 0.000991137
0.00776456 0.00669878 -0.000391741
0.000991137 -0.000391741 -0.00195102
0.0215062 0.00944462 -0.000415975
0.00944462 0.0140953 0.00058342
-0.000415975 0.00058342 0.00338668
0.000659322 -0.0016632 -4.74033e-05
-0.0016632 0.00174925 1.24862e-05
-4.74033e-05 1.24862e-05 0.000252512
0.00567227 0.00239516 0.000372631
0.00239516 0.0122828 -7.34192e-05
0.000372631 -7.34192e-05 0.00441336
0.0078899 0.0071763 3.7293e-05
0.0071763 0.00344117 0.00011392
3.7293e-05 0.00011392 -0.00271794
0.00237496 -0.00495927 7.71939e-05
-0.00495927 0.000984574 -6.18164e-05
7.71939e-05 -6.18164e-05 0.000910972
0.0125255 -0.00793263 -7.8456e-07
-0.00793263 -0.00035464 1.79802e-05
-7.8456e-07 1.79802e-05 -0.00152803
0.00333913 -0.00284953 2.54091e-05
-0.00284953 0.00156551 1.98967e-05
2.54091e-05 1.98967e-05 0.000774088
-0.00445623 0.00326496 -0.0013416
0.00326496 0.000266061 0.000174641
-0.0013416 0.000174641 -0.00603921
0.0158693 -0.00510474 -0.000367072
-0.00510474 -0.00106742 7.89559e-05
-0.000367072 7.89559e-05 -0.000914476
0.00463707 -0.00478617 0.000127655
-0.00478617 -0.000317572 -0.00010021
0.000127655 -0.00010021 0.0011878
0.000502778 -0.000859161 1.07956e-06
-0.000859161 0.000728022 -4.44024e-06
1.07956e-06 -4.44024e-06 -6.62443e-05
0.00221054 -0.00157475 3.46431e-05
-0.00157475 0.000804024 -1.34154e-05
3.46431e-05 -1.34154e-05 0.000200452
0.00176791 -0.00129093 5.28708e-06
-0.00129093 0.000149466 -1.30707e-05
5.28708e-06 -1.30707e-05 -0.000326261
-0.000206758 -0.000811688 -5.12105e-06
-0.000811688 -0.000335771 1.61166e-05
-5.12105e-06 1.61166e-05 -0.000859407
0.00224941 -0.00142116 -8.05464e-06
-0.00142116 0.000404381 -1.96967e-07
-8.05464e-06 -1.96967e-07 -0.000178558
0.00357425 -0.00156059 3.05882e-06
-0.00156059 0.000864713 -3.69274e-06
3.05882e-06 -3.69274e-06 0.00031157
0.00146557 -0.00116691 -8.91288e-06
-0.00116691 0.000169155 1.02631e-05
-8.91288e-06 1.02631e-05 -0.000652333
0.00278215 -0.00150282 -4.17395e-07
-0.00150282 0.000610022 3.91524e-06
-4.17395e-07 3.91524e-06 -9.74333e-05
0.00280867 -0.00115593 -3.2275e-07
-0.00115593 0.000368839 -2.41335e-06
-3.2275e-07 -2.41335e-06 -3.01371e-05
0.00232304 -0.00131538 1.05764e-05
-0.00131538 0.000581779 4.23883e-06
1.05764e-05 4.23883e-06 -0.000163526
0.00247304 -0.00104323 -2.28515e-06
-0.00104323 0.000384968 2.34807e-06
-2.28515e-06 2.34807e-06 -9.91127e-05
0.0023684 -0.000736266 9.07583e-07
-0.000736266 8.96932e-05 -9.63164e-07
9.07583e-07 -9.63164e-07 -0.000127103
0.00237275 -0.000682281 -2.41747e-06
-0.000682281 0.000203067 3.85713e-07
-2.41747e-06 3.85713e-07 1.26059e-05
0.00195996 -0.000662866 -3.8902e-06
-0.000662866 -1.82181e-05 -1.72652e-06
-3.8902e-06 -1.72652e-06 -0.00029866
0.00211185 -0.000657824 1.22861e-06
-0.000657824 3.58106e-05 2.9719e-06
1.22861e-06 2.9719e-06 -0.000221077
0.00200793 -0.000851566 -4.02909e-06
-0.000851566 0.000146569 -5.21421e-06
-4.02909e-06 -5.21421e-06 -0.000285041
0.00231251 -0.000988512 3.52591e-06
-0.000988512 0.000294448 5.88182e-07
3.52591e-06 5.88182e-07 -0.000190513
0.00249084 -0.0010277 3.29507e-06
-0.0010277 0.000411767 4.49921e-06
3.29507e-06 4.49921e-06 -8.81764e-05
0.00230138 -0.00105365 -1.41762e-06
-0.00105365 0.000594097 -6.96589e-06
-1.41762e-06 -6.96589e-06 -4.65943e-06
0.00271523 -0.00118585 1.77119e-06
-0.00118585 0.000810187 -1.03648e-06
1.77119e-06 -1.03648e-06 0.000181065
0.00310767 -0.00134532 3.50499e-06
-0.00134532 0.00101386 -5.49258e-07
3.50499e-06 -5.49258e-07 0.000307469
0.00169993 -0.000736205 -4.97153e-06
-0.000736205 0.000499625 -1.79271e-06
-4.97153e-06 -1.79271e-06 -1.42568e-05
0.0022275 -0.00104952 1.57372e-06
-0.00104952 0.000794885 4.62932e-07
1.57372e-06 4.62932e-07 0.000146333
0.00164247 -0.00108285 1.87873e-07
-0.00108285 0.000421396 4.86202e-06
1.87873e-07 4.86202e-06 -0.000234793
0.000573936 -0.000276587 -6.4873e-06
-0.000276587 -3.83661e-06 -2.49951e-06
-6.4873e-06 -2.49951e-06 -0.00025405
0.00128674 -0.000535297 4.81185e-06
-0.000535297 0.000419358 9.54024e-07
4.81185e-06 9.54024e-07 2.40014e-05
0.00065174 -0.000644059 -7.51876e-06
-0.000644059 3.68167e-05 8.38643e-06
-7.51876e-06 8.38643e-06 -0.000478402
0.000430072 -0.000142451 -2.24241e-05
-0.000142451 -6.55765e-05 1.54351e-05
-2.24241e-05 1.54351e-05 -0.000180446
0.000739141 -0.000292923 -1.4044e-06
-0.000292923 0.000177134 2.24677e-07
-1.4044e-06 2.24677e-07 -0.000101118
-0.000829567 -0.00025378 -5.08064e-06
-0.00025378 -0.000845259 -1.79255e-06
-5.08064e-06 -1.79255e-06 -0.00115005
0.00511388 0.000352948 3.47078e-05
0.000352948 0.00314842 1.26615e-05
3.47078e-05 1.26615e-05 0.00307021
0.000435124 -0.000116306 1.54217e-06
-0.000116306 -3.71725e-05 8.93005e-08
1.54217e-06 8.93005e-08 -0.000140619
0.00120922 -0.000236494 2.2032e-06
-0.000236494 0.000490019 8e-07
2.2032e-06 8e-07 0.000232735
0.0041627 0.00015196 1.28449e-05
0.00015196 0.00245054 7.92868e-07
1.28449e-05 7.92868e-07 0.00243766
0.000658749 -7.66603e-05 1.17787e-05
-7.66603e-05 0.000130392 -1.59959e-05
1.17787e-05 -1.59959e-05 4.25978e-05
0.00377862 0.000115483 8.19262e-05
0.000115483 0.00218434 -8.21317e-06
8.19262e-05 -8.21317e-06 0.00218103
0.00227533 0.000460557 6.46676e-07
0.000460557 0.00106776 8.72774e-06
6.46676e-07 8.72774e-06 0.000760657
-7.63471e-05 0.000199779 2.51063e-06
0.000199779 -0.000282986 2.13136e-06
2.51063e-06 2.13136e-06 -0.000587023
0.00133188 0.000660618 -7.32717e-06
0.000660618 0.000721458 -3.52595e-06
-7.32717e-06 -3.52595e-06 0.000339048
0.0014028 0.000232103 -1.92174e-06
0.000232103 0.000641818 -1.32987e-05
-1.92174e-06 -1.32987e-05 0.000442314
0.00101324 0.000175095 -1.6842e-09
0.000175095 0.000623187 4.41941e-07
-1.6842e-09 4.41941e-07 0.000211147
-0.000561285 9.35121e-05 -2.57864e-06
9.35121e-05 -0.000339979 7.10457e-06
-2.57864e-06 7.10457e-06 -0.000751385
0.000577742 1.18777e-05 -4.26312e-06
1.18777e-05 0.00010514 -1.54972e-05
-4.26312e-06 -1.54972e-05 4.32754e-05
0.000595844 8.68436e-05 7.3502e-07
8.68436e-05 0.000132343 5.55048e-07
7.3502e-07 5.55048e-07 -2.64709e-05
-0.000488473 6.7514e-05 -5.92249e-06
6.7514e-05 -0.00048326 2.09724e-05
-5.92249e-06 2.09724e-05 -0.000746455
0.00320369 -8.90936e-05 -5.71184e-05
-8.90936e-05 0.00180714 -7.33525e-06
-5.71184e-05 -7.33525e-06 0.00181012
0.000397405 -3.0307e-05 1.80568e-06
-3.0307e-05 -1.807e-05 -4.31815e-07
1.80568e-06 -4.31815e-07 -6.82753e-05
0.000541999 6.59134e-05 -4.78795e-06
6.59134e-05 0.000108698 8.48904e-06
-4.78795e-06 8.48904e-06 -3.16845e-05
0.00289685 -7.38761e-05 -9.60672e-06
-7.38761e-05 0.00159993 7.54111e-07
-9.60672e-06 7.54111e-07 0.00160484
0.00039797 2.35035e-05 -1.03027e-06
2.35035e-05 -3.06893e-05 9.06894e-06
-1.03027e-06 9.06894e-06 -6.92031e-05
0.00253306 -5.28348e-05 2.48538e-05
-5.28348e-05 0.00135568 6.01035e-06
2.48538e-05 6.01035e-06 0.00136506
-0.00526037 0.000263495 -0.000461905
0.000263495 0.00619723 7.62862e-05
-0.000461905 7.62862e-05 -0.00274615
0.00667756 0.0013539 7.61539e-05
0.0013539 0.00464621 2.6808e-06
7.61539e-05 2.6808e-06 0.000974651
-0.0011975 0.00100347 0.000216144
0.00100347 0.00236349 0.000101724
0.000216144 0.000101724 -0.00108109
0.000233408 0.000321197 -1.25892e-05
0.000321197 -0.000102818 1.23472e-05
-1.25892e-05 1.23472e-05 -0.000491629
0.00484975 0.00122026 2.78846e-05
0.00122026 0.00271848 3.3001e-05
2.78846e-05 3.3001e-05 0.00209126
0.000294499 0.000297022 -1.51484e-05
0.000297022 0.000285485 1.12688e-05
-1.51484e-05 1.12688e-05 -0.000308285
0.00111582 0.000227656 -1.53507e-05
0.000227656 0.000641637 -1.19159e-05
-1.53507e-05 -1.19159e-05 0.000329459
0.00396894 0.000573882 -5.96008e-06
0.000573882 0.00210878 -1.02368e-05
-5.96008e-06 -1.02368e-05 0.00185913
-0.00227307 3.15645e-05 -1.25198e-05
3.15645e-05 -0.00159623 1.93834e-05
-1.25198e-05 1.93834e-05 -0.00169273
-0.000414773 0.00033203 7.31887e-07
0.00033203 -0.000171507 9.28965e-06
7.31887e-07 9.28965e-06 -0.000539409
0.000100864 0.000210457 -1.17326e-05
0.000210457 -8.84748e-05 -6.44622e-06
-1.17326e-05 -6.44622e-06 -0.000473508
0.000766682 0.000931867 -1.45539e-05
0.000931867 0.000401327 -1.56001e-05
-1.45539e-05 -1.56001e-05 -0.000233069
-0.00130087 0.000691226 -3.81535e-05
0.000691226 -0.00107864 7.07439e-05
-3.81535e-05 7.07439e-05 -0.00132651
0.000490074 4.10261e-05 -1.67587e-05
4.10261e-05 0.000317906 7.60329e-06
-1.67587e-05 7.60329e-06 1.03415e-05
0.00237548 0.000636924 2.0883e-05
0.000636924 0.00155127 -4.72171e-06
2.0883e-05 -4.72171e-06 0.000996089
0.00629196 -0.00526064 -0.00317491
-0.00526064 0.00411318 -0.000115146
-0.00317491 -0.000115146 -0.00342449
0.00433673 -0.00665644 0.0010248
-0.00665644 0.0125734 8.96321e-05
0.0010248 8.96321e-05 0.0025306
0.0103043 0.00411289 -0.00116504
0.00411289 0.00397751 -0.000354988
-0.00116504 -0.000354988 -0.00292321
0.0242469 -0.0200092 0.00315734
-0.0200092 0.0178519 0.00180889
0.00315734 0.00180889 0.00550082
0.0321022 -0.0053306 -0.000173704
-0.0053306 0.0139355 0.000563878
-0.000173704 0.000563878 0.00558906
-0.00224685 0.00172071 -0.000156457
0.00172071 0.00403927 -0.000231113
-0.000156457 -0.000231113 -0.0029559
-0.000960758 0.000101539 -0.000186503
0.000101539 0.00314397 7.74503e-06
-0.000186503 7.74503e-06 0.000864675
0.000446957 0.00132061 8.03439e-05
0.00132061 0.00245293 6.06086e-05
8.03439e-05 6.06086e-05 0.00133842
0.0280269 -0.00805796 -0.000962635
-0.00805796 0.013063 0.000142513
-0.000962635 0.000142513 0.00376893
-0.00129277 0.00616914 -0.000321143
0.00616914 0.00107413 -4.30307e-05
-0.000321143 -4.30307e-05 -0.00391245
0.00328902 0.00394807 7.45796e-05
0.00394807 0.00141195 -9.71359e-05
7.45796e-05 -9.71359e-05 0.00187801
0.00806085 0.0105235 -0.00101783
0.0105235 -0.00204647 -9.58665e-05
-0.00101783 -9.58665e-05 -0.00345913
0.00457932 0.00190553 4.1596e-05
0.00190553 0.0019778 -7.5632e-06
4.1596e-05 -7.5632e-06 0.00137357
0.00127375 0.000863807 -6.17837e-06
0.000863807 0.000386562 -4.7703e-06
-6.17837e-06 -4.7703e-06 0.000164965
-0.00014193 0.000315914 -3.97594e-05
0.000315914 0.000111289 -1.63796e-05
-3.97594e-05 -1.63796e-05 -0.000438297
-0.000619935 0.000976602 -0.000161552
0.000976602 0.00113676 -8.0245e-05
-0.000161552 -8.0245e-05 -0.000356142
0.000385797 0.000848107 -7.12922e-05
0.000848107 0.000151372 -5.78634e-05
-7.12922e-05 -5.78634e-05 -0.000322067
0.00293617 0.00268157 3.36e-06
0.00268157 0.00115033 -1.43833e-05
3.36e-06 -1.43833e-05 -0.000262648
-0.00160089 0.00260118 0.000138957
0.00260118 -0.00224238 8.16034e-05
0.000138957 8.16034e-05 -0.00279438
-0.00700106 -0.000808244 -0.00116796
-0.000808244 -0.00144682 7.53747e-05
-0.00116796 7.53747e-05 -0.00540885
-0.0105947 0.000518339 0.000822751
0.000518339 0.00704747 -1.4251e-07
0.000822751 -1.4251e-07 -0.000722704
0.00220026 0.000283969 -0.000244482
0.000283969 0.00250498 3.88032e-05
-0.000244482 3.88032e-05 -9.84831e-05
0.00120801 -0.00182766 -8.91062e-05
-0.00182766 0.0014665 -6.61099e-05
-8.91062e-05 -6.61099e-05 1.91478e-06
-0.000482516 -0.00375721 0.000231577
-0.00375721 0.000216484 1.88161e-05
0.000231577 1.88161e-05 2.44843e-05
0.0027611 0.0025788 0.000507984
0.0025788 0.0116376 0.000133671
0.000507984 0.000133671 0.0035387
0.0059436 -0.00780815 0.0010185
-0.00780815 -0.00284145 -0.000100151
0.0010185 -0.000100151 -0.00287798
0.0247393 0.00681378 0.00194742
0.00681378 0.0131407 3.60565e-05
0.00194742 3.60565e-05 0.00616189
0.00260017 -0.0033014 -2.38777e-05
-0.0033014 0.00087902 -1.28722e-06
-2.38777e-05 -1.28722e-06 -0.000216254
0.0062846 0.00401561 0.000504692
0.00401561 0.00377336 -0.000152004
0.000504692 -0.000152004 -0.00205298
0.00804083 -0.00483024 -0.000284761
-0.00483024 -0.00583078 0.000220425
-0.000284761 0.000220425 -0.00585571
0.00259002 -0.00431289 -2.74453e-05
-0.00431289 -0.00149433 4.28204e-05
-2.74453e-05 4.28204e-05 0.00065217
0.00246306 -0.00250047 5.09297e-05
-0.00250047 -0.000170813 -1.27478e-05
5.09297e-05 -1.27478e-05 -0.000302525
0.019763 -0.00138889 -0.000140956
-0.00138889 0.00170246 0.000123491
-0.000140956 0.000123491 0.00188472
0.00300723 -0.00316138 0.000137876
-0.00316138 -0.004537 -0.000140074
0.000137876 -0.000140074 -0.00135113
0.00228272 -0.00173489 -7.11764e-05
-0.00173489 0.000737485 4.89941e-05
-7.11764e-05 4.89941e-05 0.000238368
0.000625179 -0.00110769 -1.5529e-05
-0.00110769 -0.000461516 1.23127e-06
-1.5529e-05 1.23127e-06 -0.000777594
0.00539241 -0.00155955 4.80376e-05
-0.00155955 0.00173233 -2.44221e-05
4.80376e-05 -2.44221e-05 0.00139752
0.000820136 -0.00124557 -1.57484e-05
-0.00124557 -0.000331691 1.07085e-05
-1.57484e-05 1.07085e-05 -0.000891768
0.00291517 -0.00147295 4.48458e-07
-0.00147295 0.000532408 -9.11746e-07
4.48458e-07 -9.11746e-07 2.17617e-06
0.00321052 -0.00118118 1.32989e-06
-0.00118118 0.000404976 -1.39246e-06
1.32989e-06 -1.39246e-06 0.000191778
0.00251314 -0.00145519 8.13057e-06
-0.00145519 0.000470417 9.62061e-06
8.13057e-06 9.62061e-06 -0.000229736
0.00270202 -0.00113047 -4.16572e-06
-0.00113047 0.000311137 1.50217e-06
-4.16572e-06 1.50217e-06 -7.28103e-05
0.0025351 -0.00078856 7.54994e-07
-0.00078856 6.84296e-06 2.62306e-07
7.54994e-07 2.62306e-07 -5.70633e-05
0.00221667 -0.00100432 7.81122e-06
-0.00100432 0.000235719 6.20019e-06
7.81122e-06 6.20019e-06 -0.000234757
0.00231468 -0.000723958 1.15223e-08
-0.000723958 5.50048e-05 2.41716e-06
1.15223e-08 2.41716e-06 -0.00015076
0.00247109 -0.000758638 -1.02181e-06
-0.000758638 9.43701e-05 1.53228e-06
-1.02181e-06 1.53228e-06 -1.4471e-05
0.00240021 -0.000728846 -3.56956e-06
-0.000728846 0.000140382 5.24819e-07
-3.56956e-06 5.24819e-07 -1.02159e-05
0.0023698 -0.00068414 -3.4906e-06
-0.00068414 0.000187578 2.33045e-06
-3.4906e-06 2.33045e-06 4.55487e-06
0.00238644 -0.000664905 -7.91314e-07
-0.000664905 0.000290416 -1.82484e-06
-7.91314e-07 -1.82484e-06 7.14296e-05
0.00238556 -0.00071745 -6.42439e-06
-0.00071745 0.000297921 -2.93377e-06
-6.42439e-06 -2.93377e-06 -5.98593e-06
0.00222116 -0.000680977 1.26822e-06
-0.000680977 0.000160569 1.47231e-06
1.26822e-06 1.47231e-06 -0.000121733
0.00211616 -0.000656752 2.46644e-06
-0.000656752 2.09373e-05 7.93698e-06
2.46644e-06 7.93698e-06 -0.000232728
0.00230374 -0.000855056 -6.19622e-06
-0.000855056 0.000387865 -6.62382e-06
-6.19622e-06 -6.62382e-06 -5.27768e-05
0.00196416 -0.000860413 -6.08136e-07
-0.000860413 0.000101423 1.30784e-07
-6.08136e-07 1.30784e-07 -0.000335795
0.00248815 -0.00100102 8.09235e-06
-0.00100102 0.000422884 4.80793e-06
8.09235e-06 4.80793e-06 -6.02096e-05
0.00192652 -0.000874543 -6.32255e-06
-0.000874543 0.000415299 -3.6838e-06
-6.32255e-06 -3.6838e-06 -0.00013047
0.00244915 -0.00107571 -7.86821e-07
-0.00107571 0.000671594 5.86192e-07
-7.86821e-07 5.86192e-07 6.71393e-05
0.0024581 -0.00116365 4.81454e-06
-0.00116365 0.000642481 3.06887e-06
4.81454e-06 3.06887e-06 1.44403e-05
0.00119634 -0.000359579 -1.24134e-05
-0.000359579 0.000303716 1.05271e-05
-1.24134e-05 1.05271e-05 6.15326e-06
0.00156393 -0.00072359 2.70386e-07
-0.00072359 0.000407807 1.69236e-06
2.70386e-07 1.69236e-06 -0.000101069
0.00219874 -0.00103488 -1.74518e-06
-0.00103488 0.000777984 8.80749e-06
-1.74518e-06 8.80749e-06 0.000136894
0.000302093 -0.000210811 -2.75494e-05
-0.000210811 -0.00018015 2.00502e-05
-2.75494e-05 2.00502e-05 -0.000319323
0.000805224 -0.000285168 -2.83322e-06
-0.000285168 0.00016813 -4.10474e-07
-2.83322e-06 -4.10474e-07 -0.000107509
-0.000398975 -0.000497211 1.64559e-06
-0.000497211 -0.000654593 1.19348e-07
1.64559e-06 1.19348e-07 -0.00104956
0.00559249 0.000192609 -0.000142585
0.000192609 0.00340088 1.26461e-05
-0.000142585 1.26461e-05 0.00337509
0.000621188 -0.000180345 1.67836e-07
-0.000180345 3.89632e-05 -6.18953e-07
1.67836e-07 -6.18953e-07 -7.5746e-05
0.000489966 -0.000287337 4.71575e-06
-0.000287337 3.78501e-05 7.19008e-07
4.71575e-06 7.19008e-07 -0.000258401
0.00321615 0.00015179 7.94885e-05
0.00015179 0.00185567 4.65504e-07
7.94885e-05 4.65504e-07 0.0018131
0.000659203 -0.000126761 2.13378e-05
-0.000126761 0.000101458 -1.5472e-05
2.13378e-05 -1.5472e-05 -6.25765e-06
0.00452394 0.000135644 0.00011929
0.000135644 0.0026846 -1.14148e-05
0.00011929 -1.14148e-05 0.00267559
0.00212651 0.000558107 -2.42133e-06
0.000558107 0.000870356 9.56328e-06
-2.42133e-06 9.56328e-06 0.000481353
0.000984149 0.000309921 -4.45752e-06
0.000309921 0.000270501 1.36185e-06
-4.45752e-06 1.36185e-06 -2.69831e-06
1.60392e-05 0.000215667 4.60552e-06
0.000215667 -0.000275503 2.92907e-06
4.60552e-06 2.92907e-06 -0.000553822
0.00174321 0.000359629 9.64353e-08
0.000359629 0.000882778 -6.52709e-06
9.64353e-08 -6.52709e-06 0.00055915
0.00125961 0.000154897 -1.04454e-06
0.000154897 0.000657256 4.52109e-07
-1.04454e-06 4.52109e-07 0.000306338
0.00125223 0.000159567 2.1633e-07
0.000159567 0.000594912 -1.66291e-05
2.1633e-07 -1.66291e-05 0.000325796
0.000690353 9.07951e-05 -1.40275e-05
9.07951e-05 0.000162137 -1.92819e-05
-1.40275e-05 -1.92819e-05 8.67046e-05
0.000660276 0.000142216 -1.30097e-06
0.000142216 0.00019982 3.57645e-07
-1.30097e-06 3.57645e-07 -1.19339e-05
-0.00176324 -2.58039e-05 -1.27542e-05
-2.58039e-05 -0.00120552 2.17399e-05
-1.27542e-05 2.17399e-05 -0.00156952
0.00346567 -9.89662e-05 -8.02971e-05
-9.89662e-05 0.00198714 -9.61537e-06
-8.02971e-05 -9.61537e-06 0.00198859
0.000220752 4.44445e-05 1.3049e-06
4.44445e-05 -0.000126285 -3.16079e-07
1.3049e-06 -3.16079e-07 -0.000186445
0.000648713 0.00012629 -2.71576e-06
0.00012629 0.00017128 1.15625e-05
-2.71576e-06 1.15625e-05 1.24212e-05
0.00311102 -9.44246e-05 -1.03659e-05
-9.44246e-05 0.0017484 9.5209e-07
-1.03659e-05 9.5209e-07 0.00174927
0.000205324 -4.95994e-06 -4.68098e-08
-4.95994e-06 -0.000139018 1.16649e-05
-4.68098e-08 1.16649e-05 -0.000189235
0.00276768 -7.41998e-05 3.11556e-05
-7.41998e-05 0.00151546 6.60379e-06
3.11556e-05 6.60379e-06 0.00152005
0.00296109 -0.00120998 -0.0018975
-0.00120998 0.00456844 -5.56499e-05
-0.0018975 -5.56499e-05 0.00167719
-0.00309984 -0.00100405 -5.85665e-05
-0.00100405 0.00782359 -5.57401e-05
-5.85665e-05 -5.57401e-05 -0.00161075
0.00696513 0.000842444 -0.00059574
0.000842444 0.00435123 -0.000156588
-0.00059574 -0.000156588 0.000857771
0.000959158 0.000242637 3.73573e-06
0.000242637 0.000340322 3.66757e-06
3.73573e-06 3.66757e-06 -2.85419e-05
0.000683571 0.000265131 1.35309e-05
0.000265131 0.000363888 3.60265e-06
1.35309e-05 3.60265e-06 -0.000182948
0.00280133 0.000921302 -6.41198e-06
0.000921302 0.00142016 3.73013e-07
-6.41198e-06 3.73013e-07 0.000839534
0.00265531 0.00115535 2.79344e-05
0.00115535 0.00117821 1.43714e-05
2.79344e-05 1.43714e-05 0.000461422
0.00156213 0.000894862 2.20868e-07
0.000894862 0.000971994 2.03227e-05
2.20868e-07 2.03227e-05 0.000335526
0.00290748 0.000443461 -8.55738e-08
0.000443461 0.00180843 4.04299e-06
-8.55738e-08 4.04299e-06 0.00149951
0.0017418 0.000401652 1.53827e-05
0.000401652 0.00101066 9.67945e-06
1.53827e-05 9.67945e-06 0.000608553
0.00192898 0.000886913 -5.46092e-06
0.000886913 0.00109943 1.7904e-06
-5.46092e-06 1.7904e-06 0.000493395
0.00150191 0.00121162 5.55808e-06
0.00121162 0.00034677 1.70013e-06
5.55808e-06 1.70013e-06 -0.000194025
0.00286402 0.00131333 3.90278e-06
0.00131333 0.00109556 4.51276e-05
3.90278e-06 4.51276e-05 0.000754727
0.001967 0.00151134 4.48791e-05
0.00151134 0.000251393 -4.23456e-06
4.48791e-05 -4.23456e-06 -7.72032e-05
0.00127123 0.00097441 1.52659e-05
0.00097441 0.000412199 4.81765e-06
1.52659e-05 4.81765e-06 3.92638e-05
0.00174685 0.000841836 2.66852e-06
0.000841836 0.00115694 1.11899e-05
2.66852e-06 1.11899e-05 0.000485152
0.0175549 0.0054575 -0.000154309
0.0054575 0.000857898 7.09652e-05
-0.000154309 7.09652e-05 0.00101618
0.010172 -0.00441975 -0.000913522
-0.00441975 0.00636038 -0.000259283
-0.000913522 -0.000259283 0.000913599
0.00525477 -0.00812088 0.00169671
-0.00812088 0.0138764 0.000242185
0.00169671 0.000242185 0.00393594
0.0202047 -0.00442595 0.000788443
-0.00442595 0.00843141 0.000194942
0.000788443 0.000194942 0.0001619
0.011233 0.00840623 -0.000228303
0.00840623 0.00456184 -8.58262e-05
-0.000228303 -8.58262e-05 0.000133467
-0.00191426 0.00100936 -1.68009e-05
0.00100936 0.00160092 7.92775e-06
-1.68009e-05 7.92775e-06 0.000370587
0.00175324 0.00344634 -0.00012271
0.00344634 0.000617142 -5.93821e-05
-0.00012271 -5.93821e-05 0.00150795
0.0115668 0.00877589 2.71734e-05
0.00877589 -0.000296675 5.6656e-05
2.71734e-05 5.6656e-05 -0.0022992
0.00786047 0.00630376 -0.000203225
0.00630376 -0.00077303 -0.000151035
-0.000203225 -0.000151035 0.000512668
0.00136935 0.00174527 1.9796e-05
0.00174527 -6.47915e-06 -2.21908e-05
1.9796e-05 -2.21908e-05 -0.000437961
0.00155276 0.00137457 1.65512e-05
0.00137457 0.000444591 4.56644e-07
1.65512e-05 4.56644e-07 2.67694e-06
0.0017956 0.000862022 -3.67195e-05
0.000862022 0.00078589 -2.91582e-05
-3.67195e-05 -2.91582e-05 0.000585316
0.00177733 0.00258237 -9.84649e-05
0.00258237 0.00037057 -4.8573e-05
-9.84649e-05 -4.8573e-05 -0.000954651
0.00181544 0.00302805 0.000124134
0.00302805 -0.00066443 6.61292e-05
0.000124134 6.61292e-05 -0.00150027
0.00634932 -0.000425791 -0.000114372
-0.000425791 -0.00587918 2.36237e-05
-0.000114372 2.36237e-05 -0.00656239
-0.000225264 -0.00271025 -8.51988e-07
-0.00271025 0.0043336 8.98377e-05
-8.51988e-07 8.98377e-05 0.00105643
-0.0144713 -0.000382827 0.000832509
-0.000382827 0.00818484 1.37404e-06
0.000832509 1.37404e-06 0.00223752
0.00267898 -0.00397998 -0.000127673
-0.00397998 0.000464394 6.47998e-05
-0.000127673 6.47998e-05 -0.000925768
0.00675546 -0.00580998 1.81838e-05
-0.00580998 -0.000462841 9.40771e-05
1.81838e-05 9.40771e-05 0.00108091
0.00688412 0.00149525 0.00194577
0.00149525 0.00614206 -0.000395263
0.00194577 -0.000395263 0.00276049
0.0148113 -0.00471073 -0.000441702
-0.00471073 -0.00135445 0.000294481
-0.000441702 0.000294481 -0.00013835
0.00223691 -0.00250636 -2.53799e-05
-0.00250636 -0.000292681 1.09458e-05
-2.53799e-05 1.09458e-05 -0.000578779
0.0130168 -0.000715937 -0.000364445
-0.000715937 -0.00312247 0.000118445
-0.000364445 0.000118445 -0.00293254
0.007432 -0.00369061 0.00010705
-0.00369061 -0.0018014 6.38418e-06
0.00010705 6.38418e-06 0.000501612
0.00299748 -0.00194047 4.70509e-05
-0.00194047 -0.000817314 -5.70325e-05
4.70509e-05 -5.70325e-05 -0.000482192
0.00308376 -0.00146227 8.10143e-05
-0.00146227 -0.00376288 -1.80223e-05
8.10143e-05 -1.80223e-05 -0.000706925
-0.000266111 -0.00100756 -1.37168e-05
-0.00100756 -0.000979403 2.18016e-05
-1.37168e-05 2.18016e-05 -0.0011803
0.00154063 -0.0011221 -2.20981e-05
-0.0011221 -0.000453052 5.20195e-06
-2.20981e-05 5.20195e-06 -0.000475969
0.00403577 -0.0011196 4.37016e-05
-0.0011196 0.000667231 -2.06223e-05
4.37016e-05 -2.06223e-05 0.000774542
0.00237765 -0.00139728 -1.0538e-05
-0.00139728 0.000264826 8.59867e-06
-1.0538e-05 8.59867e-06 -0.000243309
0.00287495 -0.00115996 -4.29338e-06
-0.00115996 0.000212592 1.69961e-06
-4.29338e-06 1.69961e-06 -1.05289e-06
0.00288749 -0.000889664 5.09805e-06
-0.000889664 1.68843e-05 -1.08545e-06
5.09805e-06 -1.08545e-06 5.32178e-05
0.0024215 -0.0010796 -9.2711e-06
-0.0010796 0.000162269 7.54315e-06
-9.2711e-06 7.54315e-06 -0.000199376
0.00242963 -0.000780128 8.79565e-08
-0.000780128 -6.16589e-05 1.69149e-06
8.79565e-08 1.69149e-06 -0.000123981
0.00263339 -0.000779602 -4.54512e-07
-0.000779602 3.21476e-05 -4.1012e-08
-4.54512e-07 -4.1012e-08 3.18782e-05
0.00224344 -0.000706082 1.58734e-06
-0.000706082 1.51808e-05 4.98347e-06
1.58734e-06 4.98347e-06 -0.000177573
0.00243818 -0.000749816 -1.09693e-07
-0.000749816 8.54056e-05 7.301e-07
-1.09693e-07 7.301e-07 -2.38844e-05
0.00257812 -0.00076187 -1.6255e-06
-0.00076187 0.000104465 3.22722e-07
-1.6255e-06 3.22722e-07 2.07338e-05
0.00237884 -0.000733445 -5.10936e-06
-0.000733445 0.000119943 6.81476e-07
-5.10936e-06 6.81476e-07 -2.31275e-05
0.00237094 -0.000690386 -1.08991e-06
-0.000690386 0.000171866 -2.99589e-07
-1.08991e-06 -2.99589e-07 1.03488e-05
0.00236375 -0.000685484 2.42513e-07
-0.000685484 0.000173834 3.7312e-06
2.42513e-07 3.7312e-06 -2.21737e-06
0.0023855 -0.000660792 8.18284e-07
-0.000660792 0.000289671 -5.43228e-07
8.18284e-07 -5.43228e-07 7.08954e-05
0.00232419 -0.000669643 -2.62383e-06
-0.000669643 0.000284348 -9.12408e-07
-2.62383e-06 -9.12408e-07 3.62269e-05
0.00240637 -0.000720289 -2.49758e-06
-0.000720289 0.000380518 -6.52599e-06
-2.49758e-06 -6.52599e-06 5.52104e-05
0.00244239 -0.000725647 -5.47438e-07
-0.000725647 0.000335978 2.00323e-07
-5.47438e-07 2.00323e-07 2.9477e-05
0.00248561 -0.000697643 7.82316e-06
-0.000697643 0.000345146 4.44779e-06
7.82316e-06 4.44779e-06 6.13108e-05
0.00197832 -0.000793354 -7.20155e-06
-0.000793354 0.000273778 -3.60858e-06
-7.20155e-06 -3.60858e-06 -0.000189537
0.00221626 -0.000855579 -2.16645e-06
-0.000855579 0.000317884 -1.09485e-06
-2.16645e-06 -1.09485e-06 -0.000128806
0.0018835 -0.000864177 4.95385e-06
-0.000864177 3.24949e-05 4.90565e-06
4.95385e-06 4.90565e-06 -0.000408946
0.00144101 -0.000486277 -1.91311e-05
-0.000486277 0.000306549 1.18251e-05
-1.91311e-05 1.18251e-05 -5.45518e-05
0.00202854 -0.000881767 -4.52259e-07
-0.000881767 0.00049087 1.28802e-06
-4.52259e-07 1.28802e-06 -5.41109e-05
0.00263551 -0.00110055 1.60988e-06
-0.00110055 0.000775099 7.13088e-06
1.60988e-06 7.13088e-06 0.000164869
0.000361697 -0.000240521 -1.75773e-05
-0.000240521 -0.000148506 2.61655e-05
-1.75773e-05 2.61655e-05 -0.000326182
0.00066744 -0.000338119 3.14174e-06
-0.000338119 -4.35349e-05 -1.25258e-06
3.14174e-06 -1.25258e-06 -0.000347906
0.00163122 -0.00072204 5.28926e-06
-0.00072204 0.000442961 3.03528e-06
5.28926e-06 3.03528e-06 -5.89641e-05
0.00671902 8.4658e-05 -0.000232355
8.4658e-05 0.0040955 1.76065e-05
-0.000232355 1.76065e-05 0.00409403
0.000358821 -0.000222547 -8.58986e-06
-0.000222547 -0.000133829 -9.98082e-07
-8.58986e-06 -9.98082e-07 -0.000282325
0.000762488 -0.000367824 5.77231e-06
-0.000367824 0.000187154 -3.74955e-06
5.77231e-06 -3.74955e-06 -0.000126572
0.00604682 0.000154706 8.02107e-06
0.000154706 0.00369441 -3.11332e-06
8.02107e-06 -3.11332e-06 0.00367637
0.000649106 -0.000205995 2.9584e-05
-0.000205995 5.76169e-05 -1.66898e-05
2.9584e-05 -1.66898e-05 -6.33688e-05
0.00552171 0.000156572 0.000166711
0.000156572 0.00335473 -1.7361e-05
0.000166711 -1.7361e-05 0.00333816
0.00308857 0.0010809 -2.01361e-06
0.0010809 0.00143864 1.08664e-05
-2.01361e-06 1.08664e-05 0.000775701
0.0014324 0.000585923 -2.45448e-06
0.000585923 0.00046702 7.3789e-07
-2.45448e-06 7.3789e-07 3.2151e-05
0.000276978 0.000311989 4.93936e-06
0.000311989 -0.000161391 -3.263e-07
4.93936e-06 -3.263e-07 -0.000471746
-0.00129995 0.000113306 1.97154e-06
0.000113306 -0.00113857 -1.56852e-05
1.97154e-06 -1.56852e-05 -0.00140247
0.000132182 0.000335851 5.78685e-06
0.000335851 -0.000229269 -2.3405e-06
5.78685e-06 -2.3405e-06 -0.000488524
-0.000192783 0.000381681 -9.51746e-06
0.000381681 -0.000431534 -8.48254e-06
-9.51746e-06 -8.48254e-06 -0.000685483
-0.000350732 9.50482e-05 -6.61441e-06
9.50482e-05 -0.000363432 2.72636e-06
-6.61441e-06 2.72636e-06 -0.000733121
0.000723315 0.000228058 2.54597e-06
0.000228058 0.000248904 5.3341e-07
2.54597e-06 5.3341e-07 -2.0893e-05
0.000822996 0.000133891 -2.01001e-05
0.000133891 0.000235358 -2.19461e-05
-2.01001e-05 -2.19461e-05 0.000129537
0.00389419 -0.000115722 -0.000102939
-0.000115722 0.00228007 -1.41889e-05
-0.000102939 -1.41889e-05 0.00227652
0.000489413 5.67703e-05 4.25088e-06
5.67703e-05 4.76173e-05 -2.69311e-07
4.25088e-06 -2.69311e-07 -3.02722e-05
-0.000122331 3.91444e-05 -4.8643e-06
3.91444e-05 -0.000268636 1.50379e-05
-4.8643e-06 1.50379e-05 -0.000497013
0.003466 -0.000119981 -1.25909e-05
-0.000119981 0.0019914 1.32225e-06
-1.25909e-05 1.32225e-06 0.00198662
0.000328671 -7.60209e-05 -1.1925e-05
-7.60209e-05 -4.03429e-05 1.59929e-05
-1.1925e-05 1.59929e-05 -0.000109592
0.00305628 -9.6739e-05 4.14056e-05
-9.6739e-05 0.00171375 7.14464e-06
4.14056e-05 7.14464e-06 0.00171337
0.0162158 0.000985558 0.000761043
0.000985558 0.00021773 0.000170815
0.000761043 0.000170815 0.00123575
0.00252579 -0.00569247 -0.00110393
-0.00569247 -0.000152373 -7.25081e-05
-0.00110393 -7.25081e-05 -0.00598558
-0.00671213 0.00129804 -0.0002938
0.00129804 0.00740447 -0.000101935
-0.0002938 -0.000101935 -0.00141394
0.000118752 0.000136616 7.55939e-06
0.000136616 -5.36073e-05 -3.59569e-05
7.55939e-06 -3.59569e-05 -0.000616481
0.000519157 0.000648877 -8.96378e-06
0.000648877 1.35085e-05 -1.20367e-05
-8.96378e-06 -1.20367e-05 -0.000553283
0.00226082 0.000909694 -1.50285e-05
0.000909694 0.00125585 -8.27083e-06
-1.50285e-05 -8.27083e-06 0.000629709
0.00174727 0.00102809 1.54803e-06
0.00102809 0.000645625 5.77105e-07
1.54803e-06 5.77105e-07 -4.1204e-05
0.00195459 0.00104305 2.61495e-05
0.00104305 0.000473491 2.55447e-05
2.61495e-05 2.55447e-05 -0.000124709
0.000285481 0.000984355 3.43583e-05
0.000984355 -0.000343179 1.34953e-05
3.43583e-05 1.34953e-05 -0.000872403
0.00185838 0.000795018 -1.46406e-05
0.000795018 0.00104514 -4.98942e-06
-1.46406e-05 -4.98942e-06 0.000470044
0.00149321 0.00120682 3.87802e-06
0.00120682 0.00031232 5.45452e-06
3.87802e-06 5.45452e-06 -0.000227855
0.00213909 0.00118843 2.99989e-05
0.00118843 0.000769309 4.1711e-06
2.99989e-05 4.1711e-06 0.000354733
0.00289891 0.00126286 1.76374e-05
0.00126286 0.00105569 7.71587e-06
1.76374e-05 7.71587e-06 0.000519238
0.00201787 0.00130818 1.38006e-05
0.00130818 0.000339077 5.48994e-06
1.38006e-05 5.48994e-06 4.44882e-05
0.00238577 0.00153505 2.84675e-05
0.00153505 0.000517233 1.08508e-05
2.84675e-05 1.08508e-05 -3.45262e-05
0.00168051 0.00145548 1.32121e-05
0.00145548 0.000122057 2.89653e-07
1.32121e-05 2.89653e-07 -0.000176444
0.00270792 0.00108802 -3.99723e-05
0.00108802 0.00121241 -9.32083e-05
-3.99723e-05 -9.32083e-05 0.000805182
0.00384173 0.00301735 3.34955e-05
0.00301735 -0.00433517 5.89959e-05
3.34955e-05 5.89959e-05 -0.00075119
0.01339 0.00628116 0.000450355
0.00628116 -0.00236868 0.000265144
0.000450355 0.000265144 -0.00241357
0.0179861 -0.00803864 0.0011878
-0.00803864 0.0091977 -0.000194159
0.0011878 -0.000194159 0.00171128
0.00671463 0.0101455 0.00114202
0.0101455 -0.00196153 0.000473372
0.00114202 0.000473372 -0.00481881
-0.000934621 0.00242993 -3.38307e-05
0.00242993 0.000115811 3.28765e-05
-3.38307e-05 3.28765e-05 0.000622053
0.00358264 0.00377137 -9.71398e-05
0.00377137 -0.00142956 -7.24023e-05
-9.71398e-05 -7.24023e-05 0.000502769
0.00732357 0.0033984 5.17924e-05
0.0033984 0.00102952 3.07773e-05
5.17924e-05 3.07773e-05 0.000854064
0.00620581 0.00262622 2.57832e-05
0.00262622 0.0021811 1.33707e-05
2.57832e-05 1.33707e-05 0.00151383
0.00103907 0.00124933 -4.62784e-05
0.00124933 0.000145014 5.01242e-06
-4.62784e-05 5.01242e-06 -0.000238088
0.0100123 0.00426942 -0.000222633
0.00426942 0.00317292 -7.76149e-07
-0.000222633 -7.76149e-07 0.0018851
0.00608749 -0.00118578 3.48965e-05
-0.00118578 -0.0018038 4.72155e-05
3.48965e-05 4.72155e-05 0.000618416
0.012846 -0.00056788 -5.83512e-05
-0.00056788 -0.00101917 -5.12205e-05
-5.83512e-05 -5.12205e-05 0.000239567
-0.0116307 -0.00460201 0.00149453
-0.00460201 -0.00211616 -3.87366e-05
0.00149453 -3.87366e-05 -0.00680445
0.00222199 -0.00233587 -0.000146012
-0.00233587 -0.000190263 5.61954e-05
-0.000146012 5.61954e-05 -0.000373076
0.00811156 -0.0042448 -9.27207e-05
-0.0042448 -0.00212006 0.000147907
-9.27207e-05 0.000147907 0.000449181
0.00265514 -0.00054593 -0.000493807
-0.00054593 -0.00837495 1.62616e-05
-0.000493807 1.62616e-05 -0.00797481
0.00369664 -0.00184844 5.20062e-05
-0.00184844 -0.000427603 -1.22473e-06
5.20062e-05 -1.22473e-06 0.000173439
0.00507493 -0.00153848 -9.62279e-05
-0.00153848 -0.00233853 8.18835e-08
-9.62279e-05 8.18835e-08 2.67893e-05
0.0073651 -0.00146274 7.20892e-05
-0.00146274 0.00160212 -5.22312e-05
7.20892e-05 -5.22312e-05 0.00226127
0.00716959 -0.000953135 0.000159769
-0.000953135 0.000919725 8.75931e-06
0.000159769 8.75931e-06 0.00205221
-0.00131846 -0.000830936 1.84395e-05
-0.000830936 -0.00220159 1.22017e-05
1.84395e-05 1.22017e-05 -0.00189066
0.00230802 -0.000956328 -1.12648e-05
-0.000956328 -0.000362299 3.96743e-06
-1.12648e-05 3.96743e-06 -8.09511e-05
0.00268014 -0.0007064 2.80863e-05
-0.0007064 -0.000326211 -1.19754e-05
2.80863e-05 -1.19754e-05 5.95249e-05
0.00249534 -0.00114041 -3.39749e-06
-0.00114041 -5.72149e-06 3.57844e-06
-3.39749e-06 3.57844e-06 -0.000224114
0.00285536 -0.000884651 8.08791e-07
-0.000884651 9.12593e-06 1.288e-06
8.08791e-07 1.288e-06 4.51767e-05
0.00278918 -0.000743733 -1.95309e-07
-0.000743733 -2.34599e-05 -1.31438e-06
-1.95309e-07 -1.31438e-06 1.89773e-05
0.0023571 -0.000778297 1.24288e-06
-0.000778297 -0.000113449 3.04009e-06
1.24288e-06 3.04009e-06 -0.000177319
0.00259917 -0.000776075 9.44383e-08
-0.000776075 2.51257e-05 3.744e-07
9.44383e-08 3.744e-07 1.42771e-05
0.00254818 -0.000659375 -1.68322e-06
-0.000659375 -4.83367e-06 -8.67019e-07
-1.68322e-06 -8.67019e-07 -2.45586e-05
0.00241659 -0.000744132 9.6246e-07
-0.000744132 7.97865e-05 7.24402e-07
9.6246e-07 7.24402e-07 -3.07591e-05
0.00257279 -0.000759496 -1.43865e-07
-0.000759496 0.000128691 -1.33794e-07
-1.43865e-07 -1.33794e-07 3.87521e-05
0.00246703 -0.000659664 1.05891e-06
-0.000659664 0.000114871 -5.08889e-07
1.05891e-06 -5.08889e-07 2.35088e-05
0.00235785 -0.000738415 -2.85775e-06
-0.000738415 9.79125e-05 4.98039e-07
-2.85775e-06 4.98039e-07 -3.75508e-05
0.0023289 -0.000690479 -1.52691e-06
-0.000690479 0.000139579 1.95212e-07
-1.52691e-06 1.95212e-07 -1.70699e-05
0.00237615 -0.000650081 -2.36304e-06
-0.000650081 0.000247309 3.86861e-07
-2.36304e-06 3.86861e-07 5.30838e-05
0.00238191 -0.000655121 3.11389e-06
-0.000655121 0.000287131 1.29213e-06
3.11389e-06 1.29213e-06 6.94934e-05
0.00231672 -0.00066305 6.70591e-08
-0.00066305 0.000276031 2.68798e-08
6.70591e-08 2.68798e-08 2.86864e-05
0.00238853 -0.000668701 -1.13315e-06
-0.000668701 0.000349928 -2.20239e-06
-1.13315e-06 -2.20239e-06 7.51738e-05
0.00210832 -0.000664714 -4.72784e-06
-0.000664714 0.000290327 -4.65579e-06
-4.72784e-06 -4.65579e-06 -6.47546e-05
0.00230491 -0.000717935 -5.90701e-07
-0.000717935 0.000309917 -1.73523e-06
-5.90701e-07 -1.73523e-06 -2.30566e-05
0.00250576 -0.00073529 4.6922e-06
-0.00073529 0.000378983 3.67107e-06
4.6922e-06 3.67107e-06 6.93172e-05
0.00133472 -0.000529128 -2.35065e-05
-0.000529128 9.67814e-05 6.0942e-06
-2.35065e-05 6.0942e-06 -0.000275732
0.00219685 -0.000809132 -1.26851e-06
-0.000809132 0.0004279 4.24526e-07
-1.26851e-06 4.24526e-07 -3.72137e-05
0.00215869 -0.00085959 1.24814e-06
-0.00085959 0.000267192 4.97212e-06
1.24814e-06 4.97212e-06 -0.000186512
0.000527071 -0.000274297 -2.23365e-05
-0.000274297 -8.07882e-05 2.58887e-05
-2.23365e-05 2.58887e-05 -0.000264069
0.000944734 -0.000458726 6.22593e-06
-0.000458726 5.10956e-06 9.46706e-07
6.22593e-06 9.46706e-07 -0.000358432
0.00218753 -0.000894342 6.22996e-06
-0.000894342 0.000605534 4.85261e-06
6.22996e-06 4.85261e-06 5.98448e-05
0.00796168 -1.24454e-05 -0.0003154
-1.24454e-05 0.00486023 2.72438e-05
-0.0003154 2.72438e-05 0.00487084
0.000245478 -0.000258585 1.55331e-06
-0.000258585 -0.000221861 2.47705e-07
1.55331e-06 2.47705e-07 -0.000401634
0.000251406 -0.000320519 5.35069e-06
-0.000320519 -0.000315779 -7.49393e-06
5.35069e-06 -7.49393e-06 -0.000628133
0.0071158 4.74162e-05 -1.11376e-05
4.74162e-05 0.00435342 -2.03902e-06
-1.11376e-05 -2.03902e-06 0.00435202
0.000554836 -0.000226174 1.95448e-05
-0.000226174 -1.23771e-05 -2.29356e-05
1.95448e-05 -2.29356e-05 -0.000163571
0.00618952 0.000121463 0.000223921
0.000121463 0.00379938 -3.14704e-05
0.000223921 -3.14704e-05 0.00378021
0.00224963 0.000988877 -1.37134e-05
0.000988877 0.000670287 1.37064e-05
-1.37134e-05 1.37064e-05 8.2938e-05
0.00219389 0.000959051 -1.95121e-06
0.000959051 0.00085206 -3.7764e-07
-1.95121e-06 -3.7764e-07 0.000229144
0.00109987 0.000633364 -7.15248e-06
0.000633364 0.00021205 6.99305e-06
-7.15248e-06 6.99305e-06 -0.000267814
0.000693424 0.000560009 6.04225e-06
0.000560009 9.67066e-06 -6.55488e-06
6.04225e-06 -6.55488e-06 -0.000440943
0.00105761 0.000343695 -3.55992e-06
0.000343695 0.000277261 -3.05654e-06
-3.55992e-06 -3.05654e-06 -3.77995e-05
-0.000197924 0.000228004 -5.23557e-06
0.000228004 -0.000461218 -3.11501e-06
-5.23557e-06 -3.11501e-06 -0.000751112
0.00223352 0.000233018 1.36802e-06
0.000233018 0.0011048 -4.08856e-06
1.36802e-06 -4.08856e-06 0.000860225
0.00103453 0.000202484 2.75825e-06
0.000202484 0.000389212 -1.17706e-06
2.75825e-06 -1.17706e-06 0.00011135
0.000478504 0.00018849 -3.04034e-05
0.00018849 -3.45526e-05 -2.17512e-05
-3.04034e-05 -2.17512e-05 -0.000156111
0.000260924 0.000178724 -7.26112e-07
0.000178724 -2.91385e-05 1.87674e-05
-7.26112e-07 1.87674e-05 -0.000305355
0.00045326 0.00012403 -6.3327e-07
0.00012403 5.30768e-06 -4.77075e-07
-6.3327e-07 -4.77075e-07 -9.54686e-05
0.00489358 -0.000132689 -0.000155017
-0.000132689 0.00295136 -2.08193e-05
-0.000155017 -2.08193e-05 0.00293893
0.00384029 -0.000140445 -1.40974e-05
-0.000140445 0.00225011 1.48265e-06
-1.40974e-05 1.48265e-06 0.00223974
5.63454e-05 9.97934e-05 1.46327e-05
9.97934e-05 -0.000231438 1.86315e-05
1.46327e-05 1.86315e-05 -0.000302448
0.00336639 -0.000124764 4.99017e-05
-0.000124764 0.00192723 8.12066e-06
4.99017e-05 8.12066e-06 0.00192053
0.00150592 0.00063914 0.000139694
0.00063914 -0.00325531 3.14875e-05
0.000139694 3.14875e-05 -0.000593402
0.00549349 -0.000332925 0.000288743
-0.000332925 -0.00676556 0.000169733
0.000288743 0.000169733 -0.00716684
0.0176196 -0.00647033 -0.000362976
-0.00647033 0.0100625 -0.000140845
-0.000362976 -0.000140845 0.0037513
0.0018674 0.000891987 1.39287e-05
0.000891987 0.00017969 1.2809e-05
1.39287e-05 1.2809e-05 -0.00027486
0.00343704 0.00101472 -2.07067e-05
0.00101472 0.00179748 -1.86009e-05
-2.07067e-05 -1.86009e-05 0.00118653
0.00112033 0.000943446 -1.36832e-05
0.000943446 0.000278795 -1.84518e-05
-1.36832e-05 -1.84518e-05 -0.000389745
0.00171076 0.00116377 1.5475e-06
0.00116377 0.000521065 1.76223e-06
1.5475e-06 1.76223e-06 -6.32657e-05
0.00218935 0.00107525 4.74983e-07
0.00107525 0.000641515 5.7254e-06
4.74983e-07 5.7254e-06 2.97569e-05
0.00248227 0.00120788 2.88617e-05
0.00120788 0.000722794 1.94046e-05
2.88617e-05 1.94046e-05 0.000167975
0.00169938 0.00121382 -3.05661e-05
0.00121382 0.000423197 -6.78213e-06
-3.05661e-05 -6.78213e-06 -0.000138297
0.00107253 0.000982046 -2.54382e-08
0.000982046 0.000215838 -4.35005e-05
-2.54382e-08 -4.35005e-05 -0.000169689
0.00209496 0.00128382 2.24786e-06
0.00128382 0.00049224 -8.87699e-07
2.24786e-06 -8.87699e-07 -1.31847e-05
0.00103157 0.00120811 1.59634e-05
0.00120811 -0.0002687 -3.68509e-05
1.59634e-05 -3.68509e-05 -0.000435008
0.0024319 0.00123871 2.9136e-05
0.00123871 0.000509081 -1.15876e-06
2.9136e-05 -1.15876e-06 -4.98561e-05
0.00247012 0.00109513 3.90642e-05
0.00109513 0.000437272 4.75165e-05
3.90642e-05 4.75165e-05 0.00022508
0.00116317 0.00130044 -1.11283e-05
0.00130044 -0.000116731 -1.12854e-05
-1.11283e-05 -1.12854e-05 -0.000545883
0.00168466 0.00140122 -4.64388e-05
0.00140122 0.000156915 -6.18316e-06
-4.64388e-05 -6.18316e-06 -0.000104166
0.00290837 0.00145125 3.00283e-05
0.00145125 -0.00142246 4.51293e-05
3.00283e-05 4.51293e-05 -0.000197413
0.00634676 0.00332027 -0.000132881
0.00332027 -0.00294968 -5.46269e-05
-0.000132881 -5.46269e-05 0.000454687
0.00421544 0.00452905 0.000893704
0.00452905 -0.00835872 0.000269297
0.000893704 0.000269297 -0.00812591
0.00336256 0.00340609 -0.000300613
0.00340609 -0.000368713 -0.000142606
-0.000300613 -0.000142606 0.000953831
0.00603584 0.00283137 -3.56958e-05
0.00283137 0.000883392 -9.60644e-06
-3.56958e-05 -9.60644e-06 0.00085023
0.00772312 0.0029347 -0.000230087
0.0029347 0.00278057 -6.16723e-05
-0.000230087 -6.16723e-05 0.0020394
0.00436063 -0.000246152 -3.97234e-05
-0.000246152 -0.000528935 -2.34981e-05
-3.97234e-05 -2.34981e-05 0.000273057
0.000507852 -0.000766895 0.000139742
-0.000766895 -0.00251887 3.58851e-05
0.000139742 3.58851e-05 -0.000266823
0.00775074 7.4916e-05 0.000304573
7.4916e-05 -0.00633995 -2.03797e-05
0.000304573 -2.03797e-05 -0.00658745
0.00251956 -0.00159104 -8.45215e-05
-0.00159104 -0.000959355 0.000106815
-8.45215e-05 0.000106815 -0.00018723
0.00618039 -0.00154775 -0.000233656
-0.00154775 -0.00203905 6.79302e-05
-0.000233656 6.79302e-05 -6.3743e-05
0.00348395 -0.00114784 -2.78496e-05
-0.00114784 -0.000691397 1.22751e-05
-2.78496e-05 1.22751e-05 0.000204622
0.00470651 -0.000832619 -3.84279e-05
-0.000832619 -0.000288856 1.23683e-06
-3.84279e-05 1.23683e-06 0.000652174
0.00482875 -0.000599209 0.000110943
-0.000599209 0.000913225 -2.12e-05
0.000110943 -2.12e-05 0.00130296
0.00287884 -0.000121796 4.96704e-05
-0.000121796 -1.48617e-05 3.73989e-06
4.96704e-05 3.73989e-06 0.000229878
0.000652796 -0.000768614 -1.63298e-05
-0.000768614 -0.00128418 1.51927e-05
-1.63298e-05 1.51927e-05 -0.000849226
0.0026537 -0.000736101 -3.93971e-06
-0.000736101 -0.000325564 5.71476e-07
-3.93971e-06 5.71476e-07 1.59857e-05
0.00272189 -0.000547144 3.44008e-06
-0.000547144 -0.000269661 -2.36813e-06
3.44008e-06 -2.36813e-06 1.99995e-05
0.00279696 -0.000872618 -3.31785e-06
-0.000872618 -8.24573e-06 2.88983e-06
-3.31785e-06 2.88983e-06 3.01463e-05
0.00278677 -0.000718225 -2.13907e-07
-0.000718225 9.2273e-06 -4.39314e-07
-2.13907e-07 -4.39314e-07 6.47171e-05
0.00257163 -0.000534814 -1.57917e-06
-0.000534814 -0.000115705 -8.50937e-07
-1.57917e-06 -8.50937e-07 -2.95371e-05
0.00255919 -0.000769875 -6.35886e-07
-0.000769875 1.77695e-05 4.933e-07
-6.35886e-07 4.933e-07 -2.553e-06
0.00254013 -0.000661315 -6.19163e-07
-0.000661315 6.06685e-06 -4.35547e-08
-6.19163e-07 -4.35547e-08 -1.14882e-05
0.00242512 -0.000545208 3.57729e-07
-0.000545208 2.90528e-05 -5.68961e-07
3.57729e-07 -5.68961e-07 -6.77175e-06
0.00256541 -0.00075576 -1.4862e-07
-0.00075576 0.000152963 -2.845e-07
-1.4862e-07 -2.845e-07 5.69709e-05
0.00247084 -0.000660844 1.00778e-06
-0.000660844 0.000115349 -1.42629e-07
1.00778e-06 -1.42629e-07 2.33682e-05
0.00234722 -0.000586481 -7.60413e-07
-0.000586481 0.000135397 2.28151e-07
-7.60413e-07 2.28151e-07 1.43095e-05
0.00228772 -0.000691048 -1.64217e-06
-0.000691048 0.000108324 8.44405e-07
-1.64217e-06 8.44405e-07 -4.37424e-05
0.00229887 -0.000647356 -1.06288e-06
-0.000647356 0.000188201 4.88666e-07
-1.06288e-06 4.88666e-07 -2.55754e-06
0.00241586 -0.000631692 -1.41404e-06
-0.000631692 0.000314682 -1.46237e-06
-1.41404e-06 -1.46237e-06 8.59924e-05
0.00231366 -0.000656941 3.08053e-06
-0.000656941 0.000270324 1.54764e-06
3.08053e-06 1.54764e-06 2.35307e-05
0.00233579 -0.000665321 -4.55841e-07
-0.000665321 0.00031336 3.90787e-07
-4.55841e-07 3.90787e-07 4.16063e-05
0.00223626 -0.000608138 -3.54295e-06
-0.000608138 0.000338555 -2.27973e-06
-3.54295e-06 -2.27973e-06 3.71216e-05
0.00143122 -0.000469338 -1.96863e-05
-0.000469338 7.08791e-05 6.42729e-06
-1.96863e-05 6.42729e-06 -0.000248871
0.00207874 -0.000662223 -2.77348e-07
-0.000662223 0.000276275 -1.47542e-06
-2.77348e-07 -1.47542e-06 -8.38841e-05
0.00217971 -0.000713678 1.14107e-06
-0.000713678 0.000222411 3.338e-06
1.14107e-06 3.338e-06 -0.000117828
0.000113472 -0.000271372 -2.13591e-05
-0.000271372 -0.000360717 2.27189e-05
-2.13591e-05 2.27189e-05 -0.000552343
0.0013389 -0.000520077 3.22725e-07
-0.000520077 0.000110523 -9.49389e-08
3.22725e-07 -9.49389e-08 -0.000256952
0.00236523 -0.000820634 4.69841e-06
-0.000820634 0.000547058 4.40711e-06
4.69841e-06 4.40711e-06 8.10989e-05
0.0087311 -7.08563e-05 -0.000372564
-7.08563e-05 0.00532118 3.46314e-05
-0.000372564 3.46314e-05 0.00533916
9.07579e-05 -0.000290348 1.35797e-06
-0.000290348 -0.000346566 2.11928e-06
1.35797e-06 2.11928e-06 -0.000541757
0.000623702 -0.000445835 1.89482e-05
-0.000445835 -0.00019528 -5.81522e-06
1.89482e-05 -5.81522e-06 -0.000561689
0.00826638 -3.85339e-05 -1.04443e-05
-3.85339e-05 0.00505755 1.14662e-06
-1.04443e-05 1.14662e-06 0.00506865
5.21529e-05 -0.000294449 2.14054e-05
-0.000294449 -0.000340906 -2.80851e-05
2.14054e-05 -2.80851e-05 -0.000524698
0.0075583 3.27318e-05 0.00031009
3.27318e-05 0.00464894 -3.96841e-05
0.00031009 -3.96841e-05 0.00464581
0.00187943 0.000830144 -6.72935e-06
0.000830144 0.000238372 1.31043e-05
-6.72935e-06 1.31043e-05 -0.000222242
0.00214164 0.000968306 -1.99296e-06
0.000968306 0.000607289 1.28829e-06
-1.99296e-06 1.28829e-06 2.5724e-05
0.00187413 0.000801105 -6.54406e-06
0.000801105 0.000478648 9.5073e-06
-6.54406e-06 9.5073e-06 -4.06716e-05
0.00132622 0.000832757 8.29796e-07
0.000832757 0.00029116 -9.82556e-06
8.29796e-07 -9.82556e-06 -0.000290974
0.00159049 0.000662183 -2.76765e-06
0.000662183 0.000484403 -1.28372e-06
-2.76765e-06 -1.28372e-06 3.68481e-06
0.000341404 0.000327486 -1.29579e-05
0.000327486 -0.000201979 -2.18873e-06
-1.29579e-05 -2.18873e-06 -0.000519828
0.00191484 0.000385223 7.49263e-07
0.000385223 0.000758593 -7.56086e-06
7.49263e-07 -7.56086e-06 0.000439338
0.000425162 0.000279641 3.28431e-06
0.000279641 -9.88454e-05 -1.11419e-06
3.28431e-06 -1.11419e-06 -0.000359108
0.000332408 0.000229434 -3.31858e-05
0.000229434 -0.000172405 -2.27244e-05
-3.31858e-05 -2.27244e-05 -0.000298074
0.00107462 0.000229956 2.32861e-06
0.000229956 0.00039781 9.27412e-06
2.32861e-06 9.27412e-06 0.0001253
0.000645728 0.000182543 -1.17502e-06
0.000182543 7.64292e-05 -1.00731e-06
-1.17502e-06 -1.00731e-06 -3.90947e-05
0.00632033 -0.000188784 -0.00019563
-0.000188784 0.00390654 -2.79256e-05
-0.00019563 -2.79256e-05 0.00387345
0.000275321 0.000124572 1.94829e-05
0.000124572 -0.000101616 2.20882e-05
1.94829e-05 2.20882e-05 -0.000199129
0.00452835 -0.000180205 -1.77976e-05
-0.000180205 0.00272627 2.00552e-06
-1.77976e-05 2.00552e-06 0.00270078
0.0037582 -0.000156833 6.48302e-05
-0.000156833 0.00219942 1.00352e-05
6.48302e-05 1.00352e-05 0.00218385
0.000539192 0.00051447 2.36445e-05
0.00051447 -0.00289579 1.59539e-05
2.36445e-05 1.59539e-05 -0.00137618
0.00540772 0.000482395 7.3567e-05
0.000482395 -0.00195757 3.4068e-05
7.3567e-05 3.4068e-05 0.000742962
0.017389 0.00092907 3.54193e-05
0.00092907 0.000451099 0.000124256
3.54193e-05 0.000124256 0.00184511
0.00233635 0.0010342 3.1165e-06
0.0010342 0.000388678 6.97339e-06
3.1165e-06 6.97339e-06 -7.22205e-05
0.00232223 0.000933142 9.45626e-07
0.000933142 0.000231949 6.62329e-06
9.45626e-07 6.62329e-06 -0.000146522
0.00185625 0.000895594 -7.45831e-07
0.000895594 0.000175237 -5.00074e-06
-7.45831e-07 -5.00074e-06 -0.00027588
0.00321363 0.00134846 -1.48701e-05
0.00134846 0.00142525 -3.94272e-06
-1.48701e-05 -3.94272e-06 0.000788701
0.00224842 0.00107842 -1.78874e-05
0.00107842 0.000702817 -1.32504e-05
-1.78874e-05 -1.32504e-05 8.70392e-05
0.00250595 0.00125496 6.84477e-06
0.00125496 0.000683795 2.24474e-06
6.84477e-06 2.24474e-06 0.000123128
0.0026827 0.00118632 -7.45188e-06
0.00118632 0.000319563 -5.65183e-08
-7.45188e-06 -5.65183e-08 -7.7353e-05
0.00179292 0.00133947 -1.25894e-05
0.00133947 0.000239289 -8.1858e-06
-1.25894e-05 -8.1858e-06 -0.000261664
0.0010324 0.00124805 -3.78549e-05
0.00124805 -0.00027371 0.000102824
-3.78549e-05 0.000102824 -0.000451646
0.00287431 0.00134031 2.87269e-06
0.00134031 0.000725163 -5.68673e-06
2.87269e-06 -5.68673e-06 0.000152236
0.00326489 0.00115632 1.18713e-06
0.00115632 0.000521723 1.53573e-05
1.18713e-06 1.53573e-05 0.000285616
0.00228834 0.000555696 6.89439e-05
0.000555696 0.000112842 9.12738e-06
6.89439e-05 9.12738e-06 0.000314689
0.000360783 0.000861184 5.69191e-06
0.000861184 -0.000663383 -1.49385e-05
5.69191e-06 -1.49385e-05 -0.000837958
0.00120245 0.00125913 -5.26049e-05
0.00125913 -6.00984e-05 -1.96199e-06
-5.26049e-05 -1.96199e-06 -0.000480201
0.00416945 0.00159267 3.33019e-05
0.00159267 -0.000712094 1.52731e-05
3.33019e-05 1.52731e-05 0.000387405
0.0104764 0.00341854 -9.28482e-05
0.00341854 -0.000592267 -5.99336e-05
-9.28482e-05 -5.99336e-05 0.00198968
0.005891 0.00239212 -8.52097e-05
0.00239212 0.00133955 -0.000105104
-8.52097e-05 -0.000105104 0.00140867
0.00353743 -4.58881e-05 7.94656e-05
-4.58881e-05 0.000405373 7.13312e-06
7.94656e-05 7.13312e-06 0.000725391
0.00382951 -0.000272336 -0.000114207
-0.000272336 -0.00104578 1.04485e-05
-0.000114207 1.04485e-05 5.45928e-05
0.00523682 0.000572613 -4.17232e-05
0.000572613 -0.000684023 -2.20486e-05
-4.17232e-05 -2.20486e-05 0.0010046
0.00118222 -0.00101336 -0.000106592
-0.00101336 -0.00206333 8.0831e-05
-0.000106592 8.0831e-05 -0.00106283
0.00254898 -0.000808047 -0.000109992
-0.000808047 -0.00135481 9.11954e-06
-0.000109992 9.11954e-06 -0.000569534
0.0033914 -0.000539418 3.90667e-07
-0.000539418 -2.37898e-05 -5.98808e-06
3.90667e-07 -5.98808e-06 0.000530167
0.00254035 -0.000118743 -1.60398e-05
-0.000118743 -0.000226541 -2.49976e-06
-1.60398e-05 -2.49976e-06 4.54053e-05
0.002655 -0.000324629 8.44639e-06
-0.000324629 -0.000335883 3.39499e-07
8.44639e-06 3.39499e-07 -1.27466e-05
0.00248044 9.45128e-05 3.36404e-06
9.45128e-05 -0.000412527 9.97109e-07
3.36404e-06 9.97109e-07 -0.00018999
0.00269964 -0.000775651 -2.01711e-05
-0.000775651 -0.000293327 9.12173e-06
-2.01711e-05 9.12173e-06 4.16577e-06
0.00277858 -0.000576771 -3.11466e-06
-0.000576771 -0.000249739 6.57429e-07
-3.11466e-06 6.57429e-07 1.38279e-06
0.0026473 -0.000391878 -7.2212e-07
-0.000391878 -0.000184421 -5.06417e-07
-7.2212e-07 -5.06417e-07 1.25516e-05
0.00278145 -0.00069321 -2.80347e-06
-0.00069321 3.48903e-05 1.18318e-06
-2.80347e-06 1.18318e-06 0.000105331
0.00258847 -0.000538126 3.02115e-07
-0.000538126 -9.48305e-05 -1.93386e-07
3.02115e-07 -1.93386e-07 -1.51964e-05
0.00245619 -0.000436054 8.08862e-07
-0.000436054 -5.82059e-05 -3.61673e-07
8.08862e-07 -3.61673e-07 -4.37502e-06
0.00253242 -0.00066379 -7.6448e-07
-0.00066379 1.5854e-05 6.40211e-07
-7.6448e-07 6.40211e-07 5.81356e-07
0.00243833 -0.000544293 3.93955e-07
-0.000544293 3.12296e-05 -1.43693e-07
3.93955e-07 -1.43693e-07 -4.60283e-06
0.00232875 -0.000485063 -6.62088e-07
-0.000485063 6.00776e-05 5.05698e-08
-6.62088e-07 5.05698e-08 -1.19479e-06
0.00247584 -0.000662389 1.65666e-06
-0.000662389 0.000116234 1.46433e-07
1.65666e-06 1.46433e-07 2.35903e-05
0.00233354 -0.000586774 5.95503e-07
-0.000586774 0.000121835 -1.36991e-07
5.95503e-07 -1.36991e-07 5.18623e-07
0.00234509 -0.000554275 -2.48025e-06
-0.000554275 0.00020543 3.18638e-07
-2.48025e-06 3.18638e-07 3.29777e-05
0.00221907 -0.000644595 6.08967e-07
-0.000644595 0.000127095 2.31881e-07
6.08967e-07 2.31881e-07 -6.00183e-05
0.00229896 -0.000624219 8.52455e-08
-0.000624219 0.000236067 -4.95839e-07
8.52455e-08 -4.95839e-07 8.22481e-06
0.00216666 -0.000562323 -2.70109e-06
-0.000562323 0.000226805 -1.75918e-06
-2.70109e-06 -1.75918e-06 -3.37483e-05
0.00229037 -0.000662491 3.67219e-07
-0.000662491 0.000282283 3.56375e-06
3.67219e-07 3.56375e-06 1.33085e-05
0.00224173 -0.000611374 -6.72005e-07
-0.000611374 0.000343125 -1.21323e-07
-6.72005e-07 -1.21323e-07 4.2851e-05
0.00143942 -0.000407551 -1.46494e-05
-0.000407551 5.22165e-05 5.70304e-06
-1.46494e-05 5.70304e-06 -0.000224
0.000340291 -0.000263195 -1.88908e-05
-0.000263195 -0.000252524 2.1167e-05
-1.88908e-05 2.1167e-05 -0.000435725
0.00147092 -0.000471145 -2.39145e-08
-0.000471145 9.95313e-05 1.83253e-07
-2.39145e-08 1.83253e-07 -0.000219138
0.00208784 -0.000663061 3.5619e-06
-0.000663061 0.000288678 1.93383e-06
3.5619e-06 1.93383e-06 -7.71829e-05
0.00874791 -0.000160374 -0.0004111
-0.000160374 0.00531021 3.97567e-05
-0.0004111 3.97567e-05 0.00533683
0.000327158 -0.000287379 -1.30213e-06
-0.000287379 -0.000235484 9.87684e-07
-1.30213e-06 9.87684e-07 -0.000425744
0.00134019 -0.000506885 2.17271e-05
-0.000506885 0.000128529 -6.24972e-06
2.17271e-05 -6.24972e-06 -0.000232969
0.00883729 -0.000107733 -6.30113e-07
-0.000107733 0.00538804 1.85542e-06
-6.30113e-07 1.85542e-06 0.00540794
9.7565e-05 -0.00030246 2.56675e-05
-0.00030246 -0.000344661 -2.58444e-05
2.56675e-05 -2.58444e-05 -0.00054286
0.00873769 -8.05604e-05 0.000380925
-8.05604e-05 0.00535137 -4.17011e-05
0.000380925 -4.17011e-05 0.00536521
0.0020821 0.000850449 1.06777e-06
0.000850449 0.000201642 1.17304e-05
1.06777e-06 1.17304e-05 -0.000197489
0.00199468 0.000849437 2.00379e-06
0.000849437 0.000324432 -1.20996e-07
2.00379e-06 -1.20996e-07 -0.000137874
0.00226122 0.000810924 -1.54741e-06
0.000810924 0.000551533 1.05191e-05
-1.54741e-06 1.05191e-05 8.13225e-05
0.00211427 0.000954025 1.082e-05
0.000954025 0.000607351 -9.95047e-06
1.082e-05 -9.95047e-06 2.96686e-05
0.00186748 0.000799247 -2.14449e-07
0.000799247 0.000471459 1.51921e-06
-2.14449e-07 1.51921e-06 -4.89442e-05
0.00072494 0.000398015 -2.47315e-05
0.000398015 -0.00010872 -1.44204e-06
-2.47315e-05 -1.44204e-06 -0.000445978
0.00214208 0.000675024 -4.30394e-08
0.000675024 0.00078058 -5.45607e-06
-4.30394e-08 -5.45607e-06 0.000308035
0.000584038 0.000299616 5.39783e-07
0.000299616 -6.02468e-05 -5.0636e-07
5.39783e-07 -5.0636e-07 -0.000357945
0.000394299 0.000287759 -3.40804e-05
0.000287759 -0.000141376 -2.72548e-05
-3.40804e-05 -2.72548e-05 -0.000298603
0.00164314 0.000212423 2.78232e-06
0.000212423 0.000663334 2.70803e-06
2.78232e-06 2.70803e-06 0.000414544
0.000322752 0.000216211 3.95529e-06
0.000216211 -0.000173954 -1.30972e-06
3.95529e-06 -1.30972e-06 -0.000299793
0.0073482 -0.000157637 -0.000252361
-0.000157637 0.00455071 -3.27302e-05
-0.000252361 -3.27302e-05 0.00452392
0.00030988 0.000172247 2.65301e-05
0.000172247 -0.000125113 2.36379e-05
2.65301e-05 2.36379e-05 -0.000239926
0.00579252 -0.000190019 -9.11818e-06
-0.000190019 0.00355327 -5.49676e-08
-9.11818e-06 -5.49676e-08 0.00352357
0.00433681 -0.000196437 8.70055e-05
-0.000196437 0.00260243 1.44643e-05
8.70055e-05 1.44643e-05 0.00257362
0.00163051 0.000356799 5.13455e-05
0.000356799 -0.000596806 1.65378e-05
5.13455e-05 1.65378e-05 -0.00012421
0.00185381 0.000600978 2.93413e-06
0.000600978 -0.00252229 -7.16609e-06
2.93413e-06 -7.16609e-06 -0.000965116
0.00558333 0.00111561 0.000289759
0.00111561 -0.00207917 0.000114568
0.000289759 0.000114568 0.000981724
0.00272398 0.000996945 -9.08628e-06
0.000996945 0.000392907 6.66176e-07
-9.08628e-06 6.66176e-07 4.57963e-05
0.0023494 0.00105449 -9.58981e-06
0.00105449 0.000386502 -5.34151e-06
-9.58981e-06 -5.34151e-06 -7.56074e-05
0.00248506 0.000754719 5.21804e-06
0.000754719 0.000210807 4.64199e-06
5.21804e-06 4.64199e-06 -2.74659e-05
0.00253373 0.00094308 1.5446e-06
0.00094308 0.000369548 4.20312e-07
1.5446e-06 4.20312e-07 -2.73014e-06
0.00193377 0.000903434 -6.53698e-06
0.000903434 0.000234414 -1.59106e-05
-6.53698e-06 -1.59106e-05 -0.000213861
0.00287561 0.000903219 -6.00725e-06
0.000903219 0.000205652 1.68529e-06
-6.00725e-06 1.68529e-06 3.61638e-05
0.0025106 0.0012997 -8.29924e-06
0.0012997 0.000634049 -8.60039e-06
-8.29924e-06 -8.60039e-06 6.74482e-05
0.00278713 0.00115405 -1.63282e-06
0.00115405 0.000411582 -1.27808e-06
-1.63282e-06 -1.27808e-06 1.96023e-05
0.00235932 0.000553565 -1.1452e-05
0.000553565 -0.000313313 -8.03725e-07
-1.1452e-05 -8.03725e-07 -0.00016329
0.00278316 0.00139346 -1.68194e-05
0.00139346 0.000592856 1.98385e-05
-1.68194e-05 1.98385e-05 7.0507e-05
0.0028668 0.00110966 1.61561e-06
0.00110966 0.000298917 -4.16856e-06
1.61561e-06 -4.16856e-06 6.81429e-05
0.000551155 0.00052183 -2.00904e-05
0.00052183 -0.00103166 6.97795e-07
-2.00904e-05 6.97795e-07 -0.00068831
-0.00275334 0.000542989 -2.714e-05
0.000542989 -0.0023208 -1.64651e-05
-2.714e-05 -1.64651e-05 -0.00242003
0.00485607 0.00172581 -0.000183755
0.00172581 -0.000335904 -7.13299e-05
-0.000183755 -7.13299e-05 0.000648411
0.00274748 0.000197916 1.48032e-06
0.000197916 -0.000186274 -1.84561e-06
1.48032e-06 -1.84561e-06 5.0629e-05
0.00317003 -1.52646e-05 -6.02099e-06
-1.52646e-05 0.00020165 1.62033e-06
-6.02099e-06 1.62033e-06 0.000460877
0.00289895 -0.00034254 -0.000139735
-0.00034254 -0.00165629 -1.25708e-05
-0.000139735 -1.25708e-05 -0.000379625
0.00155762 -0.00045388 -9.73584e-05
-0.00045388 -0.00120392 2.28383e-05
-9.73584e-05 2.28383e-05 -0.000473676
0.00219741 -0.000127721 -1.64114e-05
-0.000127721 -0.000437833 -3.0843e-06
-1.64114e-05 -3.0843e-06 -0.00014591
0.00256672 -0.00033713 5.20291e-06
-0.00033713 -0.000413362 -7.17373e-07
5.20291e-06 -7.17373e-07 -4.75258e-05
0.00276406 0.000110031 -3.0839e-06
0.000110031 -0.000228432 -3.77191e-07
-3.0839e-06 -3.77191e-07 -2.1693e-05
0.00264981 -6.65028e-05 -2.28372e-06
-6.65028e-05 -0.000221999 -4.84082e-07
-2.28372e-06 -4.84082e-07 1.00368e-05
0.0028187 -0.0006013 -3.03213e-06
-0.0006013 -0.000231688 1.84236e-06
-3.03213e-06 1.84236e-06 -1.9403e-05
0.00257975 -0.000375665 3.02748e-07
-0.000375665 -0.000208881 -3.445e-07
3.02748e-07 -3.445e-07 -2.2406e-05
0.00248724 -0.00028135 1.32783e-06
-0.00028135 -9.70293e-05 -2.78834e-07
1.32783e-06 -2.78834e-07 3.41723e-05
0.00260761 -0.000541823 2.80817e-07
-0.000541823 -7.09202e-05 9.58038e-07
2.80817e-07 9.58038e-07 1.24031e-06
0.00245527 -0.000434628 2.82869e-07
-0.000434628 -5.55971e-05 1.26297e-07
2.82869e-07 1.26297e-07 -5.25213e-06
0.00230202 -0.000366639 -1.68993e-07
-0.000366639 -5.47244e-06 1.83869e-08
-1.68993e-07 1.83869e-08 -6.33388e-06
0.00245234 -0.000543154 4.67187e-07
-0.000543154 3.39067e-05 3.36447e-07
4.67187e-07 3.36447e-07 -1.94383e-06
0.00233723 -0.00048608 3.86084e-07
-0.00048608 6.2441e-05 -9.83241e-09
3.86084e-07 -9.83241e-09 8.56474e-07
0.00232879 -0.00045945 -4.0427e-06
-0.00045945 0.000130153 7.82865e-07
-4.0427e-06 7.82865e-07 2.39742e-05
0.00232238 -0.000587329 1.75621e-06
-0.000587329 0.000110092 -4.8948e-07
1.75621e-06 -4.8948e-07 -1.15434e-05
0.00229957 -0.000549572 5.89066e-07
-0.000549572 0.000175138 -3.80037e-07
5.89066e-07 -3.80037e-07 3.37238e-06
0.00219199 -0.000489723 -1.81106e-06
-0.000489723 0.000187465 -1.59079e-06
-1.81106e-06 -1.59079e-06 -2.2323e-05
0.00218621 -0.000617057 8.29582e-07
-0.000617057 0.000159705 4.59073e-07
8.29582e-07 4.59073e-07 -6.72119e-05
0.00222825 -0.000566064 -7.4128e-07
-0.000566064 0.000272592 1.33521e-07
-7.4128e-07 1.33521e-07 1.14096e-05
0.00143269 -0.000356101 -1.11045e-05
-0.000356101 2.45427e-05 4.60055e-06
-1.11045e-05 4.60055e-06 -0.000218241
0.00222875 -0.000612731 2.51515e-06
-0.000612731 0.000335564 2.30772e-06
2.51515e-06 2.30772e-06 3.68975e-05
0.00146821 -0.000410306 9.84184e-10
-0.000410306 6.42129e-05 2.08462e-07
9.84184e-10 2.08462e-07 -0.000211354
0.00302137 -0.000268606 -6.05472e-05
-0.000268606 0.00146838 1.55599e-05
-6.05472e-05 1.55599e-05 0.00132407
0.00290912 -0.000150627 -0.000322695
-0.000150627 0.00152879 5.05995e-05
-0.000322695 5.05995e-05 0.00151167
0.00173403 -0.00028594 -1.8541e-05
-0.00028594 0.000647035 4.22855e-07
-1.8541e-05 4.22855e-07 0.000476225
0.0014791 -0.000470148 1.79714e-05
-0.000470148 0.000107537 -6.05244e-06
1.79714e-05 -6.05244e-06 -0.000209554
0.00853507 -0.000162156 -1.00985e-05
-0.000162156 0.00518418 2.96025e-06
-1.00985e-05 2.96025e-06 0.0052043
0.000121595 -0.000305854 2.30405e-05
-0.000305854 -0.000368051 -2.31021e-05
2.30405e-05 -2.31021e-05 -0.000563671
0.00883356 -0.000116664 0.000384605
-0.000116664 0.005391 -4.36816e-05
0.000384605 -4.36816e-05 0.00540566
0.0023275 0.000587357 2.78454e-06
0.000587357 0.000127774 1.68834e-06
2.78454e-06 1.68834e-06 -3.67786e-05
0.00239779 0.000762883 5.06959e-06
0.000762883 0.000328383 8.25684e-06
5.06959e-06 8.25684e-06 2.16461e-05
0.00239433 0.000872734 7.45457e-07
0.000872734 0.000404201 8.27108e-08
7.45457e-07 8.27108e-08 8.74249e-06
0.00219907 0.000753803 6.06338e-07
0.000753803 0.000418173 9.68931e-06
6.06338e-07 9.68931e-06 1.36949e-05
0.00202957 0.00086639 7.5721e-06
0.00086639 0.000346484 -1.1617e-05
7.5721e-06 -1.1617e-05 -0.000117791
0.00205885 0.000789283 6.00291e-07
0.000789283 0.000418339 4.99939e-07
6.00291e-07 4.99939e-07 -4.79256e-05
0.00111847 0.000480579 -3.60468e-05
0.000480579 4.91643e-05 -3.0623e-06
-3.60468e-05 -3.0623e-06 -0.00030618
0.00180592 0.000794549 7.52468e-06
0.000794549 0.000420903 -7.91394e-06
7.52468e-06 -7.91394e-06 -0.000100197
0.000905739 0.000409554 -3.51179e-06
0.000409554 1.4679e-05 3.56973e-07
-3.51179e-06 3.56973e-07 -0.00032132
7.61589e-05 0.000319939 -3.17029e-05
0.000319939 -0.000352801 -2.48659e-05
-3.17029e-05 -2.48659e-05 -0.00054016
0.00113206 0.000286929 1.34788e-05
0.000286929 0.000284069 -7.90763e-07
1.34788e-05 -7.90763e-07 4.73622e-06
0.000259759 0.000245777 3.41755e-06
0.000245777 -0.00022724 -1.18069e-06
3.41755e-06 -1.18069e-06 -0.000380858
0.00863204 -2.83792e-05 -0.000342004
-2.83792e-05 0.00531122 -3.89422e-05
-0.000342004 -3.89422e-05 0.00530906
0.000585957 0.000201239 3.23336e-05
0.000201239 -4.6179e-06 2.28856e-05
3.23336e-05 2.28856e-05 -0.000126813
0.00706774 -0.000158617 8.45717e-06
-0.000158617 0.00435584 -3.71362e-06
8.45717e-06 -3.71362e-06 0.00433401
0.00519835 -0.000235796 0.000114286
-0.000235796 0.00318987 1.96206e-05
0.000114286 1.96206e-05 0.00314452
0.00252888 0.000252481 -4.85862e-06
0.000252481 -0.000355243 9.05614e-07
-4.85862e-06 9.05614e-07 -7.49737e-05
0.00172954 0.00029222 1.13123e-05
0.00029222 -0.000826776 -3.73504e-06
1.13123e-05 -3.73504e-06 -0.000225461
0.0038272 0.000720247 -0.000172019
0.000720247 -0.00178373 -1.68006e-05
-0.000172019 -1.68006e-05 -0.000147472
0.00255018 0.000702325 -8.20124e-07
0.000702325 0.000140464 1.62712e-06
-8.20124e-07 1.62712e-06 1.28092e-06
0.00265659 0.000980175 -4.38382e-06
0.000980175 0.00039051 -7.78062e-07
-4.38382e-06 -7.78062e-07 5.12983e-05
0.00228498 0.00106693 -3.57615e-06
0.00106693 0.000333605 -9.25196e-06
-3.57615e-06 -9.25196e-06 -0.000126985
0.00246509 0.000735438 1.3569e-06
0.000735438 0.000218044 1.31238e-06
1.3569e-06 1.31238e-06 -1.88053e-05
0.00264488 0.000945458 -1.18512e-06
0.000945458 0.000441687 -8.25443e-06
-1.18512e-06 -8.25443e-06 7.64235e-05
0.00275912 0.000551639 5.13065e-06
0.000551639 -4.56285e-05 1.20252e-06
5.13065e-06 1.20252e-06 4.855e-05
0.00277693 0.000895311 -2.06379e-06
0.000895311 0.000163526 5.47476e-07
-2.06379e-06 5.47476e-07 8.97604e-07
0.0029043 0.00112871 3.81759e-06
0.00112871 0.00050713 -3.47855e-06
3.81759e-06 -3.47855e-06 0.000117842
0.00226873 0.000517292 3.21427e-08
0.000517292 -0.000305495 5.87597e-07
3.21427e-08 5.87597e-07 -0.000147043
0.00249462 0.00104779 9.30578e-06
0.00104779 7.79723e-05 -1.02159e-06
9.30578e-06 -1.02159e-06 -0.000144493
-0.000387478 0.000479645 -4.35667e-05
0.000479645 -0.0016863 -1.09812e-05
-4.35667e-05 -1.09812e-05 -0.00120586
0.00257828 0.000111527 -1.64837e-07
0.000111527 -0.00015999 -5.09738e-08
-1.64837e-07 -5.09738e-08 2.92267e-05
0.00263236 0.000188659 -3.35164e-07
0.000188659 -0.000269176 8.251e-07
-3.35164e-07 8.251e-07 -2.80011e-05
0.00293051 9.44042e-06 -5.9207e-05
9.44042e-06 6.68851e-05 -5.4841e-06
-5.9207e-05 -5.4841e-06 0.000276063
0.00244906 -0.000351274 -2.34621e-05
-0.000351274 -0.000517651 2.28002e-06
-2.34621e-05 2.28002e-06 -0.000106591
0.00304574 0.000131059 4.36532e-06
0.000131059 -4.49815e-05 2.64072e-06
4.36532e-06 2.64072e-06 0.000146019
0.00266243 -7.34785e-05 -9.82696e-07
-7.34785e-05 -0.000223375 -6.52363e-07
-9.82696e-07 -6.52363e-07 9.07079e-06
0.00234437 -8.10724e-05 7.97143e-07
-8.10724e-05 -0.000121034 1.72456e-07
7.97143e-07 1.72456e-07 -5.59846e-06
0.00250643 -0.000358573 1.01475e-06
-0.000358573 -0.000237206 -2.84353e-07
1.01475e-06 -2.84353e-07 -6.03849e-05
0.00244358 -0.000289727 -2.28536e-08
-0.000289727 -0.000119884 -2.06143e-08
-2.28536e-08 -2.06143e-08 2.44241e-06
0.00224555 -0.000240599 1.14067e-06
-0.000240599 -5.39951e-05 -4.0017e-07
1.14067e-06 -4.0017e-07 -1.87817e-05
0.0024516 -0.00043305 -1.04831e-06
-0.00043305 -5.5026e-05 8.20161e-07
-1.04831e-06 8.20161e-07 -7.99411e-06
0.00230941 -0.0003663 9.06041e-08
-0.0003663 -4.81118e-06 3.6917e-08
9.06041e-08 3.6917e-08 -5.79252e-06
0.00229054 -0.000353456 -4.76003e-06
-0.000353456 6.34054e-05 6.49874e-07
-4.76003e-06 6.49874e-07 1.06671e-05
0.0023458 -0.000487094 1.37835e-06
-0.000487094 6.45281e-05 -1.10306e-07
1.37835e-06 -1.10306e-07 2.64563e-06
0.00232933 -0.000459085 5.00643e-07
-0.000459085 0.000132152 -4.09787e-08
5.00643e-07 -4.09787e-08 2.56915e-05
0.0022333 -0.000407614 -1.88442e-06
-0.000407614 0.000177578 -1.11913e-06
-1.88442e-06 -1.11913e-06 1.79814e-05
0.00224715 -0.000544309 2.59706e-06
-0.000544309 0.000140417 -7.02521e-07
2.59706e-06 -7.02521e-07 -3.0538e-05
0.00223221 -0.000493467 -7.8418e-07
-0.000493467 0.000212553 1.14956e-07
-7.8418e-07 1.14956e-07 1.99719e-06
0.00143094 -0.000304467 -8.65443e-06
-0.000304467 3.52264e-06 3.43808e-06
-8.65443e-06 3.43808e-06 -0.000210464
0.00229005 -0.000569847 2.30125e-06
-0.000569847 0.00031861 1.47535e-06
2.30125e-06 1.47535e-06 5.67867e-05
0.0014716 -0.000360737 -1.01258e-07
-0.000360737 3.8507e-05 2.68893e-07
-1.01258e-07 2.68893e-07 -0.000204057
0.0029608 -0.000246251 -6.71225e-05
-0.000246251 0.00143039 1.47855e-05
-6.71225e-05 1.47855e-05 0.00130043
0.00150335 -0.000414581 1.33618e-05
-0.000414581 7.91245e-05 -5.36527e-06
1.33618e-05 -5.36527e-06 -0.000196223
0.00312692 -0.000300903 5.7841e-05
-0.000300903 0.00154033 -1.00954e-05
5.7841e-05 -1.00954e-05 0.0014071
0.00272984 -0.000172578 -0.00031112
-0.000172578 0.00142378 5.37828e-05
-0.00031112 5.37828e-05 0.00140276
0.00544376 -0.000190542 -0.000303909
-0.000190542 0.00319116 3.86335e-05
-0.000303909 3.86335e-05 0.00319104
0.00325934 -0.000365377 0.000192668
-0.000365377 0.00164386 -3.493e-05
0.000192668 -3.493e-05 0.00150631
0.00840245 -0.000173625 0.000383482
-0.000173625 0.00510718 -4.75101e-05
0.000383482 -4.75101e-05 0.00512375
0.00241492 0.000562269 5.22499e-07
0.000562269 0.000125911 -7.52922e-07
5.22499e-07 -7.52922e-07 2.81237e-05
0.00218467 0.000601869 5.30715e-07
0.000601869 0.000156316 3.25931e-06
5.30715e-07 3.25931e-06 -6.22904e-05
0.00233038 0.000577842 6.39389e-07
0.000577842 0.000136191 -1.31744e-08
6.39389e-07 -1.31744e-08 -1.66892e-05
0.00222848 0.000662553 -3.66857e-07
0.000662553 0.00033999 7.32785e-06
-3.66857e-07 7.32785e-06 1.42164e-05
0.00245747 0.000769085 -3.17751e-08
0.000769085 0.000353935 -2.26929e-07
-3.17751e-08 -2.26929e-07 4.68997e-05
0.00280978 0.000905153 -7.01624e-07
0.000905153 0.000675347 -1.08472e-05
-7.01624e-07 -1.08472e-05 0.000281481
0.00212796 0.000749652 1.09435e-06
0.000749652 0.000365035 3.49618e-07
1.09435e-06 3.49618e-07 -3.94674e-05
0.00146978 0.000512384 -3.32952e-05
0.000512384 0.000143882 -4.41752e-06
-3.32952e-05 -4.41752e-06 -0.000195765
0.00191591 0.000775359 4.78527e-06
0.000775359 0.000323005 -9.35886e-06
4.78527e-06 -9.35886e-06 -0.000141454
0.00121686 0.000499771 -3.37476e-06
0.000499771 8.85386e-05 -1.2301e-07
-3.37476e-06 -1.2301e-07 -0.000271873
0.000184104 0.000309505 -2.79541e-05
0.000309505 -0.000313234 -2.23751e-05
-2.79541e-05 -2.23751e-05 -0.000510322
0.00115358 0.000419163 2.57439e-05
0.000419163 0.000180218 5.20751e-06
2.57439e-05 5.20751e-06 -0.000152804
0.000256159 0.000285031 2.38296e-06
0.000285031 -0.000248825 2.32141e-06
2.38296e-06 2.32141e-06 -0.000427906
0.00894562 7.1813e-05 -0.000370031
7.1813e-05 0.0054734 -4.42101e-05
-0.000370031 -4.42101e-05 0.00547877
0.000137951 0.000207932 2.67462e-05
0.000207932 -0.000316157 2.54635e-05
2.67462e-05 2.54635e-05 -0.000461218
0.00805239 -7.24972e-05 1.05549e-05
-7.24972e-05 0.00493964 -2.17266e-06
1.05549e-05 -2.17266e-06 0.00493575
0.00663213 -0.000181361 0.00019397
-0.000181361 0.00407224 1.83494e-05
0.00019397 1.83494e-05 0.00404875
0.0026131 0.000316941 2.60553e-06
0.000316941 -0.000137919 6.28149e-08
2.60553e-06 6.28149e-08 2.25123e-05
0.00243809 0.000254585 2.35931e-06
0.000254585 -0.000335956 -1.2944e-06
2.35931e-06 -1.2944e-06 -5.99955e-05
0.00097154 0.00023275 -6.40029e-05
0.00023275 -0.00159825 -2.55441e-06
-6.40029e-05 -2.55441e-06 -0.000829617
0.00247391 0.000486325 4.02629e-06
0.000486325 -2.54867e-05 1.05216e-06
4.02629e-06 1.05216e-06 -7.38037e-06
0.00250281 0.000695643 -1.3025e-06
0.000695643 0.000124089 2.24461e-07
-1.3025e-06 2.24461e-07 -1.11698e-05
0.00257135 0.000959267 7.34092e-06
0.000959267 0.000377764 -3.02164e-06
7.34092e-06 -3.02164e-06 4.82419e-05
0.00246989 0.000718514 -3.43615e-06
0.000718514 0.000239808 -4.00974e-06
-3.43615e-06 -4.00974e-06 5.03176e-06
0.00271658 0.000536441 -2.52179e-06
0.000536441 -5.72929e-05 -2.85898e-07
-2.52179e-06 -2.85898e-07 3.43387e-05
0.00265615 0.000880647 2.5154e-06
0.000880647 0.000117741 -2.4076e-06
2.5154e-06 -2.4076e-06 -3.72463e-05
0.00217273 0.000501681 9.49145e-06
0.000501681 -0.000255768 -1.34523e-06
9.49145e-06 -1.34523e-06 -0.000100701
0.00240512 8.60597e-05 1.72405e-06
8.60597e-05 -8.77908e-05 3.79701e-07
1.72405e-06 3.79701e-07 1.81795e-05
0.00251272 0.000112156 1.25107e-07
0.000112156 -0.000190155 -1.89389e-07
1.25107e-07 -1.89389e-07 -5.53088e-06
0.00252157 0.000184769 -9.18401e-06
0.000184769 -0.000343239 -5.63163e-07
-9.18401e-06 -5.63163e-07 -0.00010116
0.0022336 -1.4973e-05 2.87919e-08
-1.4973e-05 -8.51176e-05 3.06288e-07
2.87919e-08 3.06288e-07 -1.42076e-05
0.00267763 -8.50736e-05 3.42757e-06
-8.50736e-05 -0.000224826 -2.35477e-07
3.42757e-06 -2.35477e-07 9.15917e-06
0.00235393 -8.53543e-05 -3.72411e-07
-8.53543e-05 -0.000115123 3.03782e-07
-3.72411e-07 3.03782e-07 -6.12393e-07
0.00219216 -0.000126382 1.58082e-07
-0.000126382 -7.3238e-05 6.12004e-08
1.58082e-07 6.12004e-08 -2.93701e-05
0.00239991 -0.000298143 -1.15071e-06
-0.000298143 -0.000142398 4.41546e-07
-1.15071e-06 4.41546e-07 -2.92744e-05
0.00225109 -0.000237079 6.90369e-07
-0.000237079 -5.16208e-05 -3.56477e-07
6.90369e-07 -3.56477e-07 -1.55896e-05
0.00225367 -0.000242495 -3.71342e-06
-0.000242495 3.77982e-05 6.41719e-07
-3.71342e-06 6.41719e-07 1.24514e-05
0.0023195 -0.000365658 5.21516e-07
-0.000365658 -2.43444e-06 -4.80285e-08
5.21516e-07 -4.80285e-08 -3.49307e-06
0.00231885 -0.000353887 1.96736e-07
-0.000353887 8.39473e-05 -1.90174e-07
1.96736e-07 -1.90174e-07 3.06887e-05
0.00221903 -0.000325182 -1.78685e-06
-0.000325182 0.000138696 -3.21479e-08
-1.78685e-06 -3.21479e-08 2.0452e-05
0.00233183 -0.000458738 4.33746e-06
-0.000458738 0.000136118 -7.03499e-07
4.33746e-06 -7.03499e-07 2.93666e-05
0.00219734 -0.00040604 -8.62374e-07
-0.00040604 0.000148077 -2.25811e-07
-8.62374e-07 -2.25811e-07 -1.1359e-05
0.00137156 -0.000249388 -5.63579e-06
-0.000249388 -4.04266e-05 2.57595e-06
-5.63579e-06 2.57595e-06 -0.000229735
0.00227999 -0.000497512 2.38582e-06
-0.000497512 0.000243152 1.05311e-06
2.38582e-06 1.05311e-06 3.18269e-05
0.00144948 -0.00030561 -3.0414e-07
-0.00030561 5.5757e-06 1.18882e-07
-3.0414e-07 1.18882e-07 -0.000207327
0.00283482 -0.000219768 -7.21213e-05
-0.000219768 0.00135793 1.37912e-05
-7.21213e-05 1.37912e-05 0.00123907
0.00150318 -0.000365036 9.90083e-06
-0.000365036 4.74043e-05 -4.19909e-06
9.90083e-06 -4.19909e-06 -0.000194866
0.00303453 -0.000262161 5.27185e-05
-0.000262161 0.00147857 -7.82741e-06
5.27185e-05 -7.82741e-06 0.00136045
0.00268048 -0.000144843 -0.0003014
-0.000144843 0.00138598 4.61869e-05
-0.0003014 4.61869e-05 0.00136786
0.00321317 -0.000303187 0.0001806
-0.000303187 0.00159102 -3.43618e-05
0.0001806 -3.43618e-05 0.00147284
0.00231029 -0.000107944 -0.00011939
-0.000107944 0.00115116 1.95202e-05
-0.00011939 1.95202e-05 0.00111314
0.00775981 -0.000109414 0.000138083
-0.000109414 0.004675 -1.00597e-05
0.000138083 -1.00597e-05 0.00465444
0.00239235 0.000470501 2.79091e-07
0.000470501 8.35401e-05 -3.15777e-09
2.79091e-07 -3.15777e-09 3.15827e-05
0.00229978 0.000537602 -2.82806e-06
0.000537602 0.000130539 -1.01463e-06
-2.82806e-06 -1.01463e-06 -1.67469e-05
0.00240837 0.000558672 -2.9602e-06
0.000558672 0.000120969 1.42953e-07
-2.9602e-06 1.42953e-07 1.9183e-05
0.00212824 0.000558742 -2.18772e-06
0.000558742 0.000194381 2.8505e-06
-2.18772e-06 2.8505e-06 -6.77391e-05
0.00223137 0.00061854 -1.09117e-06
0.00061854 0.000163221 -2.20213e-06
-1.09117e-06 -2.20213e-06 -4.86622e-05
0.00231688 0.000565651 -6.03506e-06
0.000565651 0.0001343 -3.59431e-06
-6.03506e-06 -3.59431e-06 -6.64577e-06
0.00154082 0.000450905 -2.43159e-05
0.000450905 8.12287e-05 -4.13817e-06
-2.43159e-05 -4.13817e-06 -0.000206407
0.00215194 0.000657322 1.44976e-06
0.000657322 0.000285891 3.36882e-07
1.44976e-06 3.36882e-07 -3.89517e-05
0.00252591 0.000775719 1.32325e-06
0.000775719 0.000385876 -8.18482e-06
1.32325e-06 -8.18482e-06 7.80964e-05
0.00204912 0.000744087 8.82177e-07
0.000744087 0.000308113 -8.96373e-06
8.82177e-07 -8.96373e-06 -9.6047e-05
0.00145577 0.000514237 -7.87093e-07
0.000514237 0.000131526 1.21605e-07
-7.87093e-07 1.21605e-07 -0.000210322
0.000337135 0.000302654 -2.5483e-05
0.000302654 -0.000241752 -2.02641e-05
-2.5483e-05 -2.02641e-05 -0.000432849
0.00142874 0.000521614 3.82154e-05
0.000521614 0.000206952 5.49594e-06
3.82154e-05 5.49594e-06 -0.0001571
0.000140924 0.000294599 1.01012e-06
0.000294599 -0.000330404 1.27515e-06
1.01012e-06 1.27515e-06 -0.000524999
0.00849314 0.000161331 -0.000369069
0.000161331 0.00517571 -5.05116e-05
-0.000369069 -5.05116e-05 0.00518021
0.000169354 0.000244211 2.50882e-05
0.000244211 -0.000304046 2.51386e-05
2.50882e-05 2.51386e-05 -0.000477654
0.00880873 3.24921e-05 6.69044e-06
3.24921e-05 0.00538143 8.74315e-07
6.69044e-06 8.74315e-07 0.00539137
0.00787479 -0.000106473 0.000270376
-0.000106473 0.00482329 2.01152e-05
0.000270376 2.01152e-05 0.00482006
0.00239634 0.000258272 1.44107e-06
0.000258272 -6.95377e-05 -1.72125e-07
1.44107e-06 -1.72125e-07 6.34713e-06
0.00257833 0.00032352 -1.01383e-06
0.00032352 -0.000181082 3.36099e-07
-1.01383e-06 3.36099e-07 -1.4777e-05
0.00235427 0.000246421 -6.73003e-07
0.000246421 -0.000349676 5.36205e-08
-6.73003e-07 5.36205e-08 -7.12183e-05
0.00246501 0.000481196 4.79477e-08
0.000481196 -2.89864e-05 1.75383e-07
4.79477e-08 1.75383e-07 -8.86128e-06
0.00246148 0.000690545 -6.26734e-07
0.000690545 0.000112312 -2.06699e-06
-6.26734e-07 -2.06699e-06 -1.98289e-05
0.00264464 0.000520165 -7.85182e-08
0.000520165 -0.000101191 -7.58054e-07
-7.85182e-08 -7.58054e-07 -9.27631e-06
0.00228795 8.18003e-05 1.31533e-06
8.18003e-05 -5.39817e-05 2.67789e-07
1.31533e-06 2.67789e-07 6.19353e-06
0.0023899 8.58919e-05 2.20955e-07
8.58919e-05 -9.27872e-05 -2.02208e-07
2.20955e-07 -2.02208e-07 1.27266e-05
0.00245293 0.000112866 -1.22359e-07
0.000112866 -0.000215553 2.00831e-07
-1.22359e-07 2.00831e-07 -3.55851e-05
0.00224795 -1.16545e-05 -5.85831e-07
-1.16545e-05 -7.33591e-05 6.12856e-08
-5.85831e-07 6.12856e-08 -4.49146e-06
0.00221998 -3.36869e-05 -1.74823e-06
-3.36869e-05 5.70805e-06 4.21499e-07
-1.74823e-06 4.21499e-07 3.72586e-05
0.00236492 -8.93327e-05 -1.08715e-06
-8.93327e-05 -0.000108439 1.47264e-07
-1.08715e-06 1.47264e-07 5.33344e-06
0.00221965 -0.000127931 -1.10236e-06
-0.000127931 -4.60206e-05 2.12586e-07
-1.10236e-06 2.12586e-07 -7.4177e-06
0.00212892 -0.00014935 -4.49424e-06
-0.00014935 -3.76753e-05 8.35153e-07
-4.49424e-06 8.35153e-07 -4.75014e-05
0.00225314 -0.000233866 5.31898e-07
-0.000233866 -5.12922e-05 -3.79517e-07
5.31898e-07 -3.79517e-07 -1.44977e-05
0.00225986 -0.000242991 1.42644e-06
-0.000242991 4.41948e-05 -3.62193e-07
1.42644e-06 -3.62193e-07 1.85887e-05
0.00216774 -0.000240396 -8.37444e-07
-0.000240396 7.9672e-05 2.35003e-07
-8.37444e-07 2.35003e-07 -1.00309e-05
0.00234399 -0.000355253 4.85744e-06
-0.000355253 0.000102631 -1.04029e-06
4.85744e-06 -1.04029e-06 4.86473e-05
0.00218572 -0.000323633 -4.04049e-07
-0.000323633 0.000113927 -1.3869e-07
-4.04049e-07 -1.3869e-07 -3.9245e-06
0.00134872 -0.000198281 -3.42807e-06
-0.000198281 -5.23155e-05 1.76822e-06
-3.42807e-06 1.76822e-06 -0.000221241
0.00215947 -0.000404562 2.0342e-06
-0.000404562 0.000116029 1.15993e-07
2.0342e-06 1.15993e-07 -4.32613e-05
0.00140752 -0.000249636 -3.20743e-07
-0.000249636 -2.29696e-05 8.79224e-08
-3.20743e-07 8.79224e-08 -0.000210934
0.00272332 -0.000202671 -7.31525e-05
-0.000202671 0.00129711 1.18296e-05
-7.31525e-05 1.18296e-05 0.0011879
0.00146699 -0.00030684 7.01113e-06
-0.00030684 6.50683e-06 -3.19842e-06
7.01113e-06 -3.19842e-06 -0.000205286
0.00293047 -0.00021719 4.96599e-05
-0.00021719 0.0014147 -6.03651e-06
4.96599e-05 -6.03651e-06 0.00130942
0.00260021 -0.00011745 -0.000294037
-0.00011745 0.00133142 3.81113e-05
-0.000294037 3.81113e-05 0.00131533
0.0031162 -0.000250916 0.000174777
-0.000250916 0.00152225 -2.8631e-05
0.000174777 -2.8631e-05 0.0014201
0.0022622 -0.00010227 -0.000108674
-0.00010227 0.00112054 1.50854e-05
-0.000108674 1.50854e-05 0.0010843
0.00193896 -0.000101432 8.09151e-05
-0.000101432 0.000927006 -1.40215e-05
8.09151e-05 -1.40215e-05 0.000864849
0.00226867 0.00029235 8.32976e-07
0.00029235 -2.60097e-05 -3.31819e-08
8.32976e-07 -3.31819e-08 -2.06985e-05
0.00234559 0.000436255 -4.33004e-06
0.000436255 0.00012494 -6.2516e-07
-4.33004e-06 -6.2516e-07 2.9011e-05
0.00237102 0.00047114 -4.08605e-07
0.00047114 4.94324e-05 -1.61201e-07
-4.08605e-07 -1.61201e-07 8.83033e-06
0.00224557 0.000505705 -1.33743e-06
0.000505705 0.000191469 5.42549e-07
-1.33743e-06 5.42549e-07 -1.12017e-05
0.00230304 0.000534953 -7.88135e-07
0.000534953 0.000140918 -2.83196e-07
-7.88135e-07 -2.83196e-07 -1.10134e-05
0.00240895 0.000557263 -4.05344e-07
0.000557263 0.000121001 3.59385e-07
-4.05344e-07 3.59385e-07 1.46937e-05
0.00149863 0.00037498 -1.70431e-05
0.00037498 3.18302e-05 -3.96044e-06
-1.70431e-05 -3.96044e-06 -0.000210105
0.00213682 0.000565328 5.31793e-07
0.000565328 0.000190082 -1.2693e-06
5.31793e-07 -1.2693e-06 -6.33149e-05
0.00230701 0.000639025 -3.11622e-06
0.000639025 0.000188587 -5.63032e-06
-3.11622e-06 -5.63032e-06 -1.71505e-05
0.000371891 0.000239303 -2.21141e-05
0.000239303 -0.000245515 -1.67783e-05
-2.21141e-05 -1.67783e-05 -0.000412857
0.00150754 0.000443554 -1.13872e-07
0.000443554 7.09618e-05 2.61949e-07
-1.13872e-07 2.61949e-07 -0.000215884
0.00207477 0.000651985 2.03657e-06
0.000651985 0.000231065 -7.20809e-06
2.03657e-06 -7.20809e-06 -9.27996e-05
0.00142587 0.000516745 3.52664e-05
0.000516745 0.000105911 4.98624e-06
3.52664e-05 4.98624e-06 -0.000238715
0.000296101 0.000287959 -5.13663e-08
0.000287959 -0.000264901 9.54549e-07
-5.13663e-08 9.54549e-07 -0.000455335
0.00811972 0.000252312 -0.000368587
0.000252312 0.00493309 -5.46118e-05
-0.000368587 -5.46118e-05 0.00493502
0.000311519 0.000284057 2.62236e-05
0.000284057 -0.000218038 2.06135e-05
2.62236e-05 2.06135e-05 -0.000409466
0.00866609 0.000138789 1.01743e-05
0.000138789 0.00527281 1.99261e-06
1.01743e-05 1.99261e-06 0.00528602
0.00861593 -6.28892e-06 0.000332599
-6.28892e-06 0.0052521 2.70838e-05
0.000332599 2.70838e-05 0.00526233
0.00229441 0.0001575 8.2688e-07
0.0001575 -2.13453e-05 -2.2847e-07
8.2688e-07 -2.2847e-07 2.6473e-05
0.00236208 0.000262442 5.99273e-07
0.000262442 -9.81975e-05 3.68123e-07
5.99273e-07 3.68123e-07 -2.38564e-05
0.00255475 0.000331358 -7.39938e-07
0.000331358 -0.00021087 7.28729e-07
-7.39938e-07 7.28729e-07 -4.00205e-05
0.00246128 0.00047496 -1.68775e-06
0.00047496 -2.94235e-05 -1.08481e-06
-1.68775e-06 -1.08481e-06 -7.56058e-06
0.00218644 3.59711e-05 -1.9659e-06
3.59711e-05 1.39076e-05 3.10775e-07
-1.9659e-06 3.10775e-07 2.45679e-05
0.002286 7.23092e-05 -1.26601e-08
7.23092e-05 -5.76625e-05 -4.74683e-08
-1.26601e-08 -4.74683e-08 4.90637e-06
0.00236872 8.53274e-05 -1.00496e-06
8.53274e-05 -0.000102228 -2.45293e-07
-1.00496e-06 -2.45293e-07 2.7202e-06
0.0022648 -7.83998e-06 -2.82657e-06
-7.83998e-06 -5.9409e-05 -4.06312e-07
-2.82657e-06 -4.06312e-07 7.12047e-06
0.00222519 -2.75452e-05 -6.29826e-07
-2.75452e-05 2.3366e-06 -1.50327e-07
-6.29826e-07 -1.50327e-07 3.7242e-05
0.00213559 -6.01998e-05 -4.74061e-06
-6.01998e-05 -1.11814e-05 7.83928e-07
-4.74061e-06 7.83928e-07 -2.33139e-05
0.00224881 -0.000129488 2.55844e-07
-0.000129488 -1.73785e-05 1.7498e-07
2.55844e-07 1.7498e-07 1.56798e-05
0.00217925 -0.000150846 -1.75223e-06
-0.000150846 5.49914e-06 3.37916e-07
-1.75223e-06 3.37916e-07 -1.16942e-05
0.00219158 -0.00015799 -1.48751e-06
-0.00015799 8.30175e-05 4.74651e-07
-1.48751e-06 4.74651e-07 1.69187e-05
0.00227154 -0.000242742 6.42391e-06
-0.000242742 5.29279e-05 -1.33629e-06
6.42391e-06 -1.33629e-06 2.72448e-05
0.00220016 -0.000238271 7.63064e-07
-0.000238271 0.000105768 -2.88817e-07
7.63064e-07 -2.88817e-07 1.71198e-05
0.0013607 -0.000149035 -3.55338e-06
-0.000149035 -4.11838e-05 1.07302e-06
-3.55338e-06 1.07302e-06 -0.000192976
0.00216968 -0.00032067 1.91469e-06
-0.00032067 0.000101939 -5.13864e-07
1.91469e-06 -5.13864e-07 -1.50266e-05
0.00137048 -0.000197961 -1.53881e-07
-0.000197961 -4.15483e-05 1.42071e-07
-1.53881e-07 1.42071e-07 -0.000209455
0.000287982 -0.000106765 -1.68673e-05
-0.000106765 -0.000295947 6.934e-06
-1.68673e-05 6.934e-06 -0.000411915
0.00143885 -0.000249535 4.51833e-06
-0.000249535 -7.39802e-06 -2.39549e-06
4.51833e-06 -2.39549e-06 -0.000193945
0.00160138 -0.000142835 7.41014e-05
-0.000142835 0.000552833 -6.21582e-06
7.41014e-05 -6.21582e-06 0.000449321
0.00725218 -0.00019201 -0.000390959
-0.00019201 0.00437474 3.24265e-05
-0.000390959 3.24265e-05 0.00440297
0.00303463 -0.00019856 0.000169553
-0.00019856 0.00147142 -2.24334e-05
0.000169553 -2.24334e-05 0.00138203
0.0022079 -9.29028e-05 -9.88439e-05
-9.29028e-05 0.00108979 9.77e-06
-9.88439e-05 9.77e-06 0.00105384
0.00184091 -0.000114617 9.17371e-05
-0.000114617 0.000872805 -1.54448e-05
9.17371e-05 -1.54448e-05 0.000809897
0.00221229 0.000192802 -2.55813e-07
0.000192802 -5.10861e-06 -7.1163e-07
-2.55813e-07 -7.1163e-07 -6.93825e-07
0.00231384 0.000332659 -2.89054e-06
0.000332659 7.99069e-05 -3.33528e-07
-2.89054e-06 -3.33528e-07 2.45544e-05
0.00228578 0.000284672 -4.66489e-07
0.000284672 -8.37257e-07 -9.2668e-08
-4.66489e-07 -9.2668e-08 -1.79e-06
0.00231877 0.00040856 -9.54105e-07
0.00040856 0.000216206 6.93619e-07
-9.54105e-07 6.93619e-07 7.19043e-05
0.00227962 0.00043261 6.58846e-07
0.00043261 8.05357e-05 1.38386e-07
6.58846e-07 1.38386e-07 -1.43479e-05
0.00234956 0.000471387 -1.03363e-06
0.000471387 1.48562e-05 -3.63071e-07
-1.03363e-06 -3.63071e-07 -1.43936e-05
0.0016084 0.000326695 -1.01701e-05
0.000326695 0.000108372 -1.59205e-06
-1.01701e-05 -1.59205e-06 -9.33038e-05
0.00221323 0.000497991 -2.66149e-07
0.000497991 0.000172952 -3.18895e-07
-2.66149e-07 -3.18895e-07 -2.83993e-05
0.0022655 0.000528068 2.01629e-06
0.000528068 0.000123528 -1.18187e-06
2.01629e-06 -1.18187e-06 -3.24719e-05
0.000354804 0.000173397 -1.86696e-05
0.000173397 -0.000264761 -1.28788e-05
-1.86696e-05 -1.28788e-05 -0.000408854
0.00149005 0.000371437 4.89908e-07
0.000371437 3.46518e-05 4.9492e-07
4.89908e-07 4.9492e-07 -0.000201889
0.00211592 0.000567471 2.68256e-06
0.000567471 0.000168168 -6.42347e-06
2.68256e-06 -6.42347e-06 -7.58553e-05
0.0077708 0.000306579 -0.000370793
0.000306579 0.00470811 -5.30726e-05
-0.000370793 -5.30726e-05 0.00471092
0.000329313 0.000236265 3.23507e-07
0.000236265 -0.00027715 7.35185e-07
3.23507e-07 7.35185e-07 -0.000446162
0.00144854 0.000434292 2.61231e-05
0.000434292 4.41061e-05 4.55909e-06
2.61231e-05 4.55909e-06 -0.000241638
0.000241209 0.000274422 2.31053e-05
0.000274422 -0.000296609 2.04385e-05
2.31053e-05 2.04385e-05 -0.00048645
0.00818283 0.00024943 9.95425e-06
0.00024943 0.00496984 2.82216e-06
9.95425e-06 2.82216e-06 0.00497781
0.00867669 0.00011398 0.000388207
0.00011398 0.00526467 3.57541e-05
0.000388207 3.57541e-05 0.00528639
0.00214404 9.86233e-05 -2.95184e-06
9.86233e-05 -7.55249e-06 -9.76245e-08
-2.95184e-06 -9.76245e-08 -5.11024e-06
0.00228622 0.000151927 -1.46279e-07
0.000151927 -2.64091e-05 4.34156e-08
-1.46279e-07 4.34156e-08 1.87111e-05
0.0023277 0.000266144 -1.07101e-06
0.000266144 -0.000126242 3.18422e-07
-1.07101e-06 3.18422e-07 -5.31105e-05
0.00217468 1.72821e-05 -6.28107e-06
1.72821e-05 3.13722e-05 3.15235e-07
-6.28107e-06 3.15235e-07 9.45907e-06
0.0021552 4.22645e-05 7.55962e-07
4.22645e-05 -1.14473e-05 1.19172e-08
7.55962e-07 1.19172e-08 3.26789e-06
0.00228695 6.19262e-05 -1.71734e-06
6.19262e-05 -5.9631e-05 -2.15095e-07
-1.71734e-06 -2.15095e-07 5.51832e-06
0.00222857 -2.16104e-05 5.97522e-07
-2.16104e-05 -2.82812e-06 -3.74497e-07
5.97522e-07 -3.74497e-07 3.58486e-05
0.00213472 -5.88454e-05 -5.90556e-07
-5.88454e-05 -1.26284e-05 2.69804e-08
-5.90556e-07 2.69804e-08 -2.37346e-05
0.00210341 -7.37446e-05 -1.13197e-06
-7.37446e-05 3.65116e-05 5.68196e-07
-1.13197e-06 5.68196e-07 -3.43381e-05
0.00222908 -0.000152495 4.23606e-06
-0.000152495 4.8992e-05 -6.77951e-07
4.23606e-06 -6.77951e-07 2.45503e-05
0.00215826 -0.00015966 8.36532e-07
-0.00015966 6.99215e-05 -3.65698e-08
8.36532e-07 -3.65698e-08 -6.22332e-06
0.00150145 -9.40229e-05 -4.1921e-06
-9.40229e-05 5.76356e-05 3.81547e-07
-4.1921e-06 3.81547e-07 -6.72787e-05
0.00221011 -0.000237283 2.39748e-06
-0.000237283 0.000116898 -9.01529e-07
2.39748e-06 -9.01529e-07 2.88339e-05
0.001354 -0.000145267 4.19356e-08
-0.000145267 -5.11555e-05 4.2275e-08
4.19356e-08 4.2275e-08 -0.000201884
0.000278169 -3.64694e-05 -1.55454e-05
-3.64694e-05 -0.000300207 3.86865e-06
-1.55454e-05 3.86865e-06 -0.000404922
0.00140929 -0.000196947 2.73798e-06
-0.000196947 -2.23745e-05 -1.53602e-06
2.73798e-06 -1.53602e-06 -0.000189004
0.000317021 -9.16516e-05 -4.96578e-07
-9.16516e-05 -0.000274564 5.23867e-07
-4.96578e-07 5.23867e-07 -0.000389963
0.00714792 -8.27302e-05 -0.000379579
-8.27302e-05 0.00429977 2.08034e-05
-0.000379579 2.08034e-05 0.0043348
0.000416097 -0.000102004 1.25716e-05
-0.000102004 -0.000219395 -9.2528e-06
1.25716e-05 -9.2528e-06 -0.00034419
0.00462801 -0.000126331 0.000162033
-0.000126331 0.0026732 -9.66783e-06
0.000162033 -9.66783e-06 0.00265768
0.00179469 -0.000100678 9.63084e-05
-0.000100678 0.000846134 -1.43439e-05
9.63084e-05 -1.43439e-05 0.00078542
0.00221981 0.000160846 -5.09533e-06
0.000160846 6.21776e-05 -7.95373e-07
-5.09533e-06 -7.95373e-07 5.71247e-05
0.00228583 0.000237987 -5.00451e-06
0.000237987 8.89431e-05 -6.94956e-07
-5.00451e-06 -6.94956e-07 4.10158e-05
0.0022042 0.000185686 -6.65378e-07
0.000185686 -4.86593e-06 -2.66905e-07
-6.65378e-07 -2.66905e-07 -1.15507e-07
0.00228344 0.00032408 -7.00713e-07
0.00032408 0.000183941 2.40191e-07
-7.00713e-07 2.40191e-07 6.3278e-05
0.0023285 0.000329729 -7.54031e-08
0.000329729 8.97613e-05 -9.09675e-08
-7.54031e-08 -9.09675e-08 3.32847e-05
0.00230356 0.000277386 7.01527e-07
0.000277386 2.54291e-05 2.44911e-07
7.01527e-07 2.44911e-07 1.81641e-05
0.0015258 0.000257975 -4.73311e-06
0.000257975 6.34551e-05 -1.17438e-06
-4.73311e-06 -1.17438e-06 -0.000110875
0.00216961 0.000399426 1.87445e-06
0.000399426 0.00012294 3.58469e-07
1.87445e-06 3.58469e-07 -3.08339e-05
0.00220473 0.000428899 3.59957e-06
0.000428899 2.98713e-05 9.68658e-08
3.59957e-06 9.68658e-08 -6.38088e-05
0.000331705 0.000125505 -1.66014e-05
0.000125505 -0.000277333 -9.58444e-06
-1.66014e-05 -9.58444e-06 -0.000406622
0.00153246 0.00031683 1.55241e-06
0.00031683 6.4388e-05 1.03453e-06
1.55241e-06 1.03453e-06 -0.000134499
0.00220504 0.000492852 1.44513e-06
0.000492852 0.000171414 -1.57447e-06
1.44513e-06 -1.57447e-06 -2.86641e-05
0.00748913 0.000334418 -0.000383275
0.000334418 0.0045392 -5.00657e-05
-0.000383275 -5.00657e-05 0.00454241
0.000346247 0.00017734 5.54743e-07
0.00017734 -0.000275447 3.99807e-07
5.54743e-07 3.99807e-07 -0.000422021
0.00147912 0.000369848 1.76985e-05
0.000369848 3.34071e-05 3.19325e-06
1.76985e-05 3.19325e-06 -0.000198361
0.00787715 0.000328999 1.15376e-05
0.000328999 0.00478685 5.21062e-06
1.15376e-05 5.21062e-06 0.00478658
0.000304914 0.000233447 1.97398e-05
0.000233447 -0.000297596 1.72219e-05
1.97398e-05 1.72219e-05 -0.000468331
0.00825511 0.000223572 0.000388766
0.000223572 0.00499961 4.45295e-05
0.000388766 4.45295e-05 0.00501756
0.00212593 8.0142e-05 -6.00047e-06
8.0142e-05 -8.79828e-06 -3.75926e-08
-6.00047e-06 -3.75926e-08 -3.72129e-05
0.00214969 0.000106031 -9.1775e-07
0.000106031 3.10809e-06 -2.36585e-07
-9.1775e-07 -2.36585e-07 5.3667e-06
0.00227592 0.00014681 -5.215e-07
0.00014681 -3.20594e-05 2.45602e-07
-5.215e-07 2.45602e-07 1.00423e-05
0.0020831 -2.96156e-06 -2.24397e-07
-2.96156e-06 2.68717e-05 2.91089e-07
-2.24397e-07 2.91089e-07 -4.3636e-05
0.00214185 1.87881e-05 -6.88192e-07
1.87881e-05 4.35484e-06 -2.44494e-08
-6.88192e-07 -2.44494e-08 -1.44002e-05
0.0021239 4.92846e-05 1.93297e-06
4.92846e-05 -3.68433e-05 -7.66334e-08
1.93297e-06 -7.66334e-08 -1.80922e-05
0.00213408 -5.76208e-05 3.2763e-06
-5.76208e-05 -1.36995e-05 -6.85784e-07
3.2763e-06 -6.85784e-07 -2.39198e-05
0.00205968 -7.25025e-05 -1.17618e-06
-7.25025e-05 8.71927e-06 2.47504e-07
-1.17618e-06 2.47504e-07 -6.14843e-05
0.00144132 -3.82328e-05 -3.91644e-06
-3.82328e-05 3.7913e-05 4.25006e-08
-3.91644e-06 4.25006e-08 -7.91272e-05
0.00211782 -0.000161161 1.49376e-07
-0.000161161 5.14435e-05 -5.90322e-07
1.49376e-07 -5.90322e-07 -3.46914e-05
0.00140718 -9.46719e-05 3.41451e-06
-9.46719e-05 -1.06964e-05 -3.79156e-07
3.41451e-06 -3.79156e-07 -0.000142315
0.00026669 -1.53704e-05 -1.59724e-05
-1.53704e-05 -0.000300322 2.324e-06
-1.59724e-05 2.324e-06 -0.000399188
0.00133816 -0.000142931 2.93951e-06
-0.000142931 -6.55918e-05 -1.08148e-06
2.93951e-06 -1.08148e-06 -0.000215525
0.000288013 -4.76593e-05 4.00397e-07
-4.76593e-05 -0.000290942 -3.47802e-07
4.00397e-07 -3.47802e-07 -0.000394909
0.00690944 -0.000174739 -0.000377742
-0.000174739 0.00416681 2.24825e-05
-0.000377742 2.24825e-05 0.00419406
0.000323497 -7.60676e-05 1.54809e-05
-7.60676e-05 -0.000268403 -5.45365e-06
1.54809e-05 -5.45365e-06 -0.000382337
0.00706013 -0.000118467 6.91937e-06
-0.000118467 0.00424854 2.07579e-07
6.91937e-06 2.07579e-07 0.00428197
0.00209177 -5.08722e-05 0.00028842
-5.08722e-05 0.00100595 -2.22235e-05
0.00028842 -2.22235e-05 0.000998205
0.00214963 0.000162459 -7.24565e-06
0.000162459 9.39541e-06 -9.38061e-07
-7.24565e-06 -9.38061e-07 -3.16773e-05
0.00214897 0.000162027 -1.0781e-06
0.000162027 2.33482e-06 -1.15702e-07
-1.0781e-06 -1.15702e-07 4.10203e-06
0.00227811 0.000239329 1.06127e-06
0.000239329 0.00016574 1.78798e-07
1.06127e-06 1.78798e-07 6.77284e-05
0.00229431 0.000237545 7.82642e-07
0.000237545 9.0737e-05 2.64775e-08
7.82642e-07 2.64775e-08 4.34746e-05
0.00219383 0.000178389 9.93302e-07
0.000178389 -6.81406e-06 1.82636e-07
9.93302e-07 1.82636e-07 -1.53905e-06
0.00131237 0.000187688 -1.58631e-06
0.000187688 -6.9374e-05 -1.07965e-06
-1.58631e-06 -1.07965e-06 -0.000235355
0.0022163 0.000321377 3.34478e-07
0.000321377 0.000135616 1.18744e-08
3.34478e-07 1.18744e-08 1.43632e-05
0.0023466 0.000326948 4.28986e-06
0.000326948 0.000101646 6.19019e-07
4.28986e-06 6.19019e-07 4.3807e-05
0.000329047 9.23872e-05 -1.56625e-05
9.23872e-05 -0.000270689 -7.17558e-06
-1.56625e-05 -7.17558e-06 -0.000390378
0.00143428 0.00025234 2.99644e-06
0.00025234 8.40845e-06 1.0038e-06
2.99644e-06 1.0038e-06 -0.000171689
0.00204223 0.000391407 9.90112e-07
0.000391407 4.50821e-05 3.21662e-08
9.90112e-07 3.21662e-08 -0.00011827
0.00727419 0.000321379 -0.000395021
0.000321379 0.00441359 -4.49608e-05
-0.000395021 -4.49608e-05 0.00441918
0.000344359 0.000132293 6.97796e-07
0.000132293 -0.0002722 2.93345e-07
6.97796e-07 2.93345e-07 -0.000403871
0.0014717 0.00030755 9.97025e-06
0.00030755 3.04037e-05 3.42217e-06
9.97025e-06 3.42217e-06 -0.00016558
0.00759652 0.000361996 8.31114e-06
0.000361996 0.00462021 5.57864e-06
8.31114e-06 5.57864e-06 0.00461769
0.000347104 0.000180665 1.73249e-05
0.000180665 -0.000279997 1.35152e-05
1.73249e-05 1.35152e-05 -0.000428959
0.00800218 0.000342986 0.000402113
0.000342986 0.00486286 5.55447e-05
0.000402113 5.55447e-05 0.00486681
0.00203773 7.63062e-05 1.21984e-06
7.63062e-05 -4.15887e-08 -1.3783e-07
1.21984e-06 -1.3783e-07 -7.77025e-05
0.00214894 8.06553e-05 -2.59298e-06
8.06553e-05 1.2149e-05 -1.78667e-07
-2.59298e-06 -1.78667e-07 -1.77489e-05
0.00215654 0.000113156 3.61192e-06
0.000113156 1.47136e-05 1.92207e-07
3.61192e-06 1.92207e-07 1.67497e-05
0.00140141 -6.75388e-06 -4.5278e-06
-6.75388e-06 3.07494e-05 -5.61685e-08
-4.5278e-06 -5.61685e-08 -8.53436e-05
0.00204861 -6.43518e-08 -8.06698e-07
-6.43518e-08 6.67273e-06 1.06753e-07
-8.06698e-07 1.06753e-07 -6.36676e-05
0.00210704 1.97401e-05 3.30035e-06
1.97401e-05 -2.37563e-05 -1.94962e-07
3.30035e-06 -1.94962e-07 -3.93832e-05
0.00201847 -7.15787e-05 -1.59954e-06
-7.15787e-05 -1.69377e-05 -9.45261e-08
-1.59954e-06 -9.45261e-08 -8.65886e-05
0.00141057 -4.084e-05 2.66348e-06
-4.084e-05 7.71111e-06 -1.52507e-07
2.66348e-06 -1.52507e-07 -0.000109477
0.000276831 -3.41185e-05 -1.6729e-05
-3.41185e-05 -0.000287067 1.27804e-06
-1.6729e-05 1.27804e-06 -0.000381473
0.00132071 -9.47165e-05 6.73646e-06
-9.47165e-05 -7.36644e-05 -1.18526e-06
6.73646e-06 -1.18526e-06 -0.000211912
0.000282145 -4.2326e-06 -2.35068e-08
-4.2326e-06 -0.000290426 5.72308e-08
-2.35068e-08 5.72308e-08 -0.000387636
0.00679826 -0.000141502 -0.000376982
-0.000141502 0.00409374 1.71562e-05
-0.000376982 1.71562e-05 0.00412503
0.000334288 -5.50616e-05 1.65643e-05
-5.50616e-05 -0.00025643 -3.79345e-06
1.65643e-05 -3.79345e-06 -0.000360967
0.00689796 -7.16189e-05 -2.79829e-06
-7.16189e-05 0.00414488 3.62685e-06
-2.79829e-06 3.62685e-06 0.00418121
0.00702071 -0.000132146 0.000376759
-0.000132146 0.00422594 -2.04218e-05
0.000376759 -2.04218e-05 0.00425897
0.00218782 0.000153837 1.53051e-06
0.000153837 0.00010276 -1.688e-07
1.53051e-06 -1.688e-07 1.99895e-05
0.00218032 0.000162734 -1.62903e-06
0.000162734 2.28181e-05 -1.80228e-07
-1.62903e-06 -1.80228e-07 -1.29031e-05
0.00207829 0.000163418 3.20145e-06
0.000163418 -5.78402e-05 6.66175e-07
3.20145e-06 6.66175e-07 -4.92403e-05
0.00127992 0.000126861 -1.80984e-06
0.000126861 -7.94445e-05 -6.52883e-07
-1.80984e-06 -6.52883e-07 -0.000228802
0.00221489 0.000236323 1.97363e-07
0.000236323 0.000119456 -1.19695e-07
1.97363e-07 -1.19695e-07 2.11519e-05
0.00230527 0.000236991 4.78376e-06
0.000236991 9.4568e-05 4.32689e-07
4.78376e-06 4.32689e-07 4.80191e-05
0.000321623 6.30616e-05 -1.49825e-05
6.30616e-05 -0.000264549 -5.25703e-06
-1.49825e-05 -5.25703e-06 -0.000375835
0.00133993 0.000189758 1.30079e-07
0.000189758 -4.16894e-05 2.56483e-07
1.30079e-07 2.56483e-07 -0.000208758
0.00214933 0.000318378 9.62813e-07
0.000318378 8.77044e-05 -3.38273e-07
9.62813e-07 -3.38273e-07 -3.40536e-05
0.00707034 0.000261014 -0.000400151
0.000261014 0.00428007 -3.61438e-05
-0.000400151 -3.61438e-05 0.00429684
0.000333347 0.000100596 8.57028e-07
0.000100596 -0.000269438 2.26658e-07
8.57028e-07 2.26658e-07 -0.000391549
0.00132585 0.000245344 4.72306e-06
0.000245344 -5.8621e-05 2.82173e-06
4.72306e-06 2.82173e-06 -0.000244235
0.00738576 0.00034133 4.52358e-06
0.00034133 0.00448989 3.59651e-06
4.52358e-06 3.59651e-06 0.00449332
0.000355066 0.000140463 1.58502e-05
0.000140463 -0.000267042 1.0569e-05
1.58502e-05 1.0569e-05 -0.000401706
0.00772054 0.00040289 0.000408399
0.00040289 0.00471329 6.05492e-05
0.000408399 6.05492e-05 0.00470447
0.00120272 4.0924e-05 -6.11688e-06
4.0924e-05 -9.67457e-05 -3.96447e-07
-6.11688e-06 -3.96447e-07 -0.000228604
0.00212163 7.3561e-05 -1.23921e-06
7.3561e-05 5.74266e-05 -3.12413e-08
-1.23921e-06 -3.12413e-08 -1.30662e-05
0.00217353 8.15585e-05 3.43803e-06
8.15585e-05 3.36735e-05 1.79414e-07
3.43803e-06 1.79414e-07 2.35858e-06
0.000318227 3.2758e-05 -1.74425e-05
3.2758e-05 -0.000262923 -8.98904e-07
-1.74425e-05 -8.98904e-07 -0.000348638
0.0013859 -2.83094e-06 2.55447e-06
-2.83094e-06 1.23638e-05 3.84562e-08
2.55447e-06 3.84562e-08 -0.000103532
0.00201204 4.32943e-06 -1.54545e-06
4.32943e-06 -1.51763e-05 -1.43473e-07
-1.54545e-06 -1.43473e-07 -8.53328e-05
0.00137259 -4.29384e-05 9.17994e-06
-4.29384e-05 -2.76589e-05 -7.43887e-07
9.17994e-06 -7.43887e-07 -0.000144993
0.000286262 -7.51904e-06 2.26041e-07
-7.51904e-06 -0.0002799 4.27538e-07
2.26041e-07 4.27538e-07 -0.000374021
0.00669981 -1.02296e-06 -0.000378786
-1.02296e-06 0.00402026 3.8894e-06
-0.000378786 3.8894e-06 0.00406068
0.000288509 7.13005e-06 1.61373e-05
7.13005e-06 -0.000286788 -1.34502e-06
1.61373e-05 -1.34502e-06 -0.000382259
0.00675929 -0.00013892 -7.54683e-06
-0.00013892 0.00407077 2.35245e-06
-7.54683e-06 2.35245e-06 0.00410148
0.00682843 -5.45997e-05 0.000362707
-5.45997e-05 0.00410014 -1.19003e-05
0.000362707 -1.19003e-05 0.00413677
0.00126061 8.03031e-05 -4.49936e-06
8.03031e-05 -6.94409e-05 -7.42446e-07
-4.49936e-06 -7.42446e-07 -0.000207457
0.00221753 0.000149869 -3.27501e-07
0.000149869 0.000121456 -2.5274e-07
-3.27501e-07 -2.5274e-07 4.26557e-05
0.00221063 0.000162782 1.89627e-06
0.000162782 3.6381e-05 9.1571e-08
1.89627e-06 9.1571e-08 5.95935e-06
0.00277297 7.81161e-05 -0.000167103
7.81161e-05 0.00133512 -7.25794e-06
-0.000167103 -7.25794e-06 0.00127705
0.0012936 0.000128272 6.42589e-08
0.000128272 -6.17823e-05 9.91665e-08
6.42589e-08 9.91665e-08 -0.000211877
0.00214851 0.000233017 1.42453e-07
0.000233017 7.16465e-05 -3.6528e-07
1.42453e-07 -3.6528e-07 -2.6945e-05
0.0069176 0.000191414 -0.00039811
0.000191414 0.00417449 -2.61508e-05
-0.00039811 -2.61508e-05 0.00420247
0.000328266 8.29457e-05 1.13741e-06
8.29457e-05 -0.000260138 5.05664e-07
1.13741e-06 5.05664e-07 -0.000374242
0.00136392 0.000191345 2.04293e-06
0.000191345 -1.69776e-05 1.39177e-06
2.04293e-06 1.39177e-06 -0.00018513
0.00719001 0.000278702 1.49722e-06
0.000278702 0.00435799 1.79671e-06
1.49722e-06 1.79671e-06 0.00437308
0.000345838 0.00011101 1.55649e-05
0.00011101 -0.000261855 8.30567e-06
1.55649e-05 8.30567e-06 -0.000386967
0.00748725 0.000377118 0.000411117
0.000377118 0.00456872 5.64486e-05
0.000411117 5.64486e-05 0.00456552
0.000404361 1.61147e-05 -1.30254e-05
1.61147e-05 -0.000193134 -2.03865e-06
-1.30254e-05 -2.03865e-06 -0.000288495
0.00127975 4.07398e-05 -4.19435e-07
4.07398e-05 -4.85038e-05 9.82902e-08
-4.19435e-07 9.82902e-08 -0.000174403
0.00221071 6.94823e-05 -8.64705e-07
6.94823e-05 0.000118401 -1.09162e-07
-8.64705e-07 -1.09162e-07 5.50785e-05
0.00655389 -0.000106886 -0.000362346
-0.000106886 0.00394487 6.29946e-06
-0.000362346 6.29946e-06 0.00397428
0.000273144 1.17955e-05 -7.15638e-07
1.17955e-05 -0.000286821 -2.24863e-07
-7.15638e-07 -2.24863e-07 -0.000375185
0.00137781 -1.10216e-07 9.47233e-06
-1.10216e-07 -1.13145e-06 -2.17882e-07
9.47233e-06 -2.17882e-07 -0.000116811
0.000265833 1.87606e-05 1.63864e-05
1.87606e-05 -0.000293726 1.81174e-07
1.63864e-05 1.81174e-07 -0.000386359
0.00664381 -3.52251e-05 1.63376e-06
-3.52251e-05 0.00399137 -2.01158e-06
1.63376e-06 -2.01158e-06 0.00402646
0.00673775 -6.48549e-05 0.00036738
-6.48549e-05 0.00404332 -8.92614e-06
0.00036738 -8.92614e-06 0.00408084
0.00286134 2.69645e-05 -0.000161675
2.69645e-05 0.00139523 -3.86689e-06
-0.000161675 -3.86689e-06 0.00134294
0.00124755 8.28396e-05 -8.24305e-08
8.28396e-05 -7.71477e-05 -7.8421e-08
-8.24305e-08 -7.8421e-08 -0.000215931
0.00224347 0.00014605 3.00704e-08
0.00014605 0.000137031 -3.08798e-07
3.00704e-08 -3.08798e-07 6.21658e-05
0.00647698 -1.05012e-05 -0.000172759
-1.05012e-05 0.00390228 -9.31856e-07
-0.000172759 -9.31856e-07 0.0038932
0.000302517 6.78405e-05 7.3465e-07
6.78405e-05 -0.000267752 2.42002e-07
7.3465e-07 2.42002e-07 -0.000372537
0.0013103 0.000130725 2.25725e-06
0.000130725 -4.40785e-05 6.91339e-07
2.25725e-06 6.91339e-07 -0.000195014
0.00699003 0.000168844 -8.89515e-06
0.000168844 0.00421436 -1.81717e-06
-8.89515e-06 -1.81717e-06 0.00424356
0.000328298 0.000105008 1.67175e-05
0.000105008 -0.000261072 7.02944e-06
1.67175e-05 7.02944e-06 -0.000377171
0.00728612 0.000301355 0.000412476
0.000301355 0.00442427 4.61899e-05
0.000412476 4.61899e-05 0.00443781
0.00200404 -5.22571e-05 -0.000279682
-5.22571e-05 0.000952665 1.80495e-06
-0.000279682 1.80495e-06 0.000958227
0.00153489 3.75346e-05 -7.13349e-05
3.75346e-05 0.000533656 -2.17724e-07
-7.13349e-05 -2.17724e-07 0.000465471
0.00134772 4.31464e-05 7.41678e-06
4.31464e-05 -5.89885e-06 3.56919e-07
7.41678e-06 3.56919e-07 -0.000125873
0.00661833 -5.23668e-05 6.57696e-06
-5.23668e-05 0.00397967 3.53031e-06
6.57696e-06 3.53031e-06 0.00401524
0.00028715 -7.70734e-06 1.69926e-05
-7.70734e-06 -0.000270113 7.86786e-07
1.69926e-05 7.86786e-07 -0.000362372
0.00667637 -9.60447e-05 0.000379922
-9.60447e-05 0.00401791 -7.56993e-06
0.000379922 -7.56993e-06 0.00405234
0.00158125 2.92402e-05 -8.08836e-05
2.92402e-05 0.000711715 -1.92581e-06
-8.08836e-05 -1.92581e-06 0.000666455
0.00152762 2.8247e-05 -7.21307e-05
2.8247e-05 0.000529564 -2.04946e-06
-7.21307e-05 -2.04946e-06 0.000455412
0.00124103 8.37526e-05 4.64468e-06
8.37526e-05 -7.93576e-05 4.92297e-07
4.64468e-06 4.92297e-07 -0.000218777
0.00424665 8.36991e-05 0.000141614
8.36991e-05 0.00243253 5.05126e-06
0.000141614 5.05126e-06 0.00242731
0.000283164 7.88861e-05 1.69995e-05
7.88861e-05 -0.000282239 5.29425e-06
1.69995e-05 5.29425e-06 -0.000387422
0.00707581 0.000156734 0.000392503
0.000156734 0.00426066 2.82979e-05
0.000392503 2.82979e-05 0.00429371
0.00657239 -1.49251e-05 -8.37731e-06
-1.49251e-05 0.00395477 -4.00565e-06
-8.37731e-06 -4.00565e-06 0.00398845
0.000270633 5.53879e-05 1.87096e-05
5.53879e-05 -0.000290063 2.73312e-06
1.87096e-05 2.73312e-06 -0.000375921
0.00653369 3.19722e-05 0.000368098
3.19722e-05 0.00392038 3.37942e-07
0.000368098 3.37942e-07 0.00395957
0.00413716 4.3451e-05 0.000152862
4.3451e-05 0.00236488 6.87021e-06
0.000152862 6.87021e-06 0.00236334
0.000294344 1.70617e-05 1.6604e-05
1.70617e-05 -0.000269544 2.89512e-06
1.6604e-05 2.89512e-06 -0.000365793
0.00685041 2.47814e-05 0.000378088
2.47814e-05 0.00411456 1.35471e-05
0.000378088 1.35471e-05 0.00415146
0.00661674 -0.000107974 0.000367682
-0.000107974 0.00398586 -4.43205e-06
0.000367682 -4.43205e-06 0.00401596
0.00664819 2.75313e-05 0.000370429
2.75313e-05 0.00398536 8.44511e-06
0.000370429 8.44511e-06 0.00402543
