# vtk DataFile Version 2.0
Wound Healing Simulation
ASCII
DATASET UNSTRUCTURED_GRID
POINTS 3012 float
69.9759 18.75 4
67.2507 60.3285 4
69.976 18.75 2
73.0099 25.446 4
71.1327 20.9142 4
68.6801 16.6661 4
67.8277 19.9247 3.98765
67.2507 60.3286 2
71.1327 54.0858 4
68.6801 58.3339 4
65.6939 62.2254 4
65.3141 59.0041 3.98881
74.6784 42.3946 4
73.7221 47.2057 4
69.9759 18.75 0
73.0099 25.446 2
68.6801 16.6661 2
71.1327 20.9142 2
67.8282 19.9259 2
74.6792 32.6053 4
73.7222 27.7943 4
72.1454 23.1494 4
70.6158 26.2226 3.98621
68.8879 21.9581 3.9873
67.2507 14.6715 4
66.6391 17.9692 3.98825
65.8033 21.0214 3.98256
67.2507 60.3285 0
71.1327 54.0858 2
68.6801 58.3339 2
65.694 62.2255 2
65.3145 59.0037 2
72.1454 51.8506 4
69.9759 56.25 4
68.8387 53.1129 3.98706
64.0165 64.0165 4
66.6128 57.136 3.98849
63.8874 60.769 3.99012
63.5055 57.7789 3.98423
60.3285 67.2507 4
74.6792 42.3947 2
73.7222 47.2057 2
74.9194 39.9526 4
74.2788 44.8158 4
72.1691 42.0854 3.9847
73.0099 49.554 4
71.2509 46.5971 3.98614
73.0099 25.446 0
71.1327 20.9142 0
68.6801 16.6661 0
67.8277 19.9247 0.0123489
74.6792 32.6053 2
73.7222 27.7943 2
67.2508 14.6715 2
72.1455 23.1494 2
70.6159 26.2233 2
66.6397 17.9698 2
68.8882 21.9596 2
65.8035 21.0207 2
74.9197 35.0474 4
74.2794 30.1841 4
72.1858 32.9434 3.98518
71.2796 28.4325 3.98602
69.8176 24.0609 3.98683
68.351 26.9519 3.9784
66.7684 22.9314 3.98128
65.694 12.7746 4
65.3255 16.1 3.98928
64.7197 19.1885 3.98376
63.8965 22.0283 3.97959
71.1327 54.0858 0
65.6939 62.2254 0
68.6801 58.3339 0
65.3141 59.0041 0.0111856
72.1455 51.8506 2
69.9759 56.25 2
68.839 53.1115 2
64.0165 64.0165 2
66.6133 57.1352 2
63.8877 60.7688 2
63.5056 57.7796 2
62.2254 65.694 4
58.8947 65.4161 3.99265
69.7711 50.9877 3.98661
67.7861 55.1685 3.98792
66.6556 52.2111 3.981
62.3374 62.43 3.99142
64.6671 56.0374 3.98424
62.2066 59.4124 3.98464
61.8312 56.6921 3.98181
58.3339 68.6801 4
60.3285 67.2508 2
73.7221 47.2057 0
74.6784 42.3946 0
74.9197 39.9526 2
74.2794 44.8159 2
72.1691 42.0857 2
73.0099 49.554 2
71.2508 46.597 2
75 37.5 4
72.406 39.8021 3.9837
71.7838 44.3524 3.98562
69.807 41.7894 3.97722
70.577 48.8121 3.98642
68.9166 46.0146 3.97818
74.6792 32.6053 0
73.7222 27.7943 0
67.2507 14.6715 0
72.1454 23.1494 0
70.6158 26.2226 0.0137866
68.8879 21.9581 0.0126987
66.6391 17.9692 0.0117524
65.8033 21.0214 0.0174395
74.9197 35.0474 2
74.2794 30.1841 2
72.1858 32.9434 2
71.2796 28.4328 2
65.694 12.7745 2
65.3259 16.1001 2
69.8177 24.0621 2
68.3509 26.9519 2
64.7201 19.1876 2
66.7684 22.931 2
63.8968 22.0276 2
72.4139 35.2241 3.98405
71.8051 30.6767 3.9859
69.8432 33.2687 3.97766
68.97 29.0387 3.97816
67.6163 24.9116 3.97972
66.2004 27.6335 3.97538
64.0165 10.9835 4
64.7653 23.8256 3.97823
63.8915 14.3238 3.99038
63.5182 17.4386 3.985
62.9163 20.3106 3.98065
62.1048 22.9335 3.978
60.6847 11.0952 3.99189
57.6132 11.4399 3.98699
72.1454 51.8506 0
69.9759 56.25 0
68.8387 53.1129 0.0129403
64.0165 64.0165 0
63.8874 60.769 0.00987573
66.6128 57.136 0.0115125
63.5055 57.7789 0.0157747
62.2255 65.694 2
58.8949 65.4161 2
69.7712 50.9867 2
67.7866 55.1673 2
66.6555 52.2115 2
62.3376 62.4298 2
64.6672 56.0382 2
62.2066 59.4129 2
61.8313 56.6929 2
60.6695 63.9791 3.9921
57.0252 66.7368 3.99318
57.5587 63.6973 3.98745
67.5129 50.1774 3.97953
65.7087 54.1772 3.98296
64.5469 51.39 3.97752
60.7755 60.9454 3.98552
62.8301 55.0775 3.98199
60.6645 58.1709 3.98185
60.3383 55.7994 3.98079
56.25 69.9759 4
58.3339 68.6801 2
60.3285 67.2507 0
58.9218 9.65351 3.99244
62.2254 9.30607 4
73.0099 49.554 0
74.2788 44.8158 0
71.2509 46.5971 0.0138636
72.1691 42.0854 0.0152975
74.9194 39.9526 0
75 37.5 2
72.406 39.8024 2
71.7838 44.3526 2
69.8071 41.7895 2
70.577 48.8116 2
68.9165 46.0145 2
72.4892 37.512 3.9834
70.0429 39.6572 3.97569
69.4342 43.9072 3.978
67.6019 41.4982 3.97406
68.2708 48.1072 3.97869
66.7163 45.4412 3.97533
74.9197 35.0474 0
74.2794 30.1841 0
72.1858 32.9434 0.0148188
71.2796 28.4325 0.0139777
65.694 12.7746 0
65.3255 16.1 0.0107227
69.8176 24.0609 0.0131744
68.351 26.9519 0.0215964
66.7684 22.9314 0.018722
64.7197 19.1885 0.0162413
63.8965 22.0283 0.0204137
72.4139 35.2241 2
71.8052 30.6768 2
69.8433 33.2688 2
68.9701 29.0388 2
64.0165 10.9835 2
63.8917 14.3239 2
63.5185 17.4377 2
67.6162 24.9115 2
66.2004 27.6333 2
62.9167 20.3097 2
64.7654 23.825 2
62.1051 22.9329 2
60.685 11.0952 2
57.6132 11.4392 2
70.06 35.3922 3.97643
69.4709 31.1499 3.97825
67.6604 33.5905 3.97451
66.7779 29.6219 3.97507
65.5313 25.6969 3.97657
64.1534 28.2525 3.97443
62.3426 12.6522 3.99124
62.8676 24.6303 3.9768
62.2023 15.7761 3.98539
61.8217 18.6729 3.98209
61.2294 21.3293 3.97865
60.4393 23.7155 3.9775
59.2475 12.7712 3.9857
55.875 10.2265 3.98842
56.4066 13.1023 3.98384
69.7711 50.9877 0.0133872
62.2254 65.694 0
58.8947 65.4161 0.00734709
67.7861 55.1685 0.0120761
66.6556 52.2111 0.0190018
62.3374 62.43 0.00858327
62.2066 59.4124 0.0153649
64.6671 56.0374 0.0157607
61.8312 56.6921 0.018195
60.6698 63.9791 2
57.0254 66.7368 2
57.5586 63.6978 2
67.5127 50.1776 2
65.7087 54.1779 2
64.5468 51.3908 2
60.7755 60.9461 2
62.8302 55.0784 2
60.6644 58.1717 2
60.3384 55.8001 2
55.0706 67.9337 3.99345
59.2208 62.3727 3.98615
55.805 64.9146 3.98884
56.3285 62.0983 3.98437
65.3398 49.4112 3.9762
63.7164 53.2997 3.97997
62.4532 50.6594 3.97576
59.3373 59.5678 3.98337
61.0894 54.3215 3.98104
59.2969 57.0265 3.9799
59.2538 55.198 3.98134
48.1031 68.5817 3.99024
50.9483 69.9331 3.99386
54.0858 71.1327 4
56.25 69.976 2
58.3339 68.6801 0
57.0588 8.33339 3.99294
60.3285 7.74928 4
58.922 9.65345 2
62.2255 9.30602 2
70.577 48.8121 0.0135824
71.7838 44.3524 0.0143791
68.9166 46.0146 0.0218204
69.807 41.7894 0.0227847
72.406 39.8021 0.0162963
75 37.5 0
72.4892 37.5122 2
70.0431 39.6572 2
69.4343 43.9072 2
67.6021 41.4984 2
68.2706 48.1072 2
66.7162 45.4415 2
70.1308 37.5216 3.97543
67.8371 39.5126 3.97252
67.2295 43.471 3.97499
65.5619 41.2118 3.97314
66.0759 47.4199 3.97577
64.6604 44.8516 3.97443
72.4139 35.2241 0.0159474
71.8051 30.6767 0.0140995
69.8432 33.2687 0.0223364
68.97 29.0387 0.0218364
64.0165 10.9835 0
63.8915 14.3238 0.00961639
63.5182 17.4386 0.0150023
67.6163 24.9116 0.0202769
66.2004 27.6335 0.0246195
64.7653 23.8256 0.0217723
62.9163 20.3106 0.0193467
62.1048 22.9335 0.0219997
60.6847 11.0952 0.00811002
57.6132 11.4399 0.0130147
70.0602 35.3923 2
69.471 31.15 2
67.6605 33.5903 2
66.778 29.6217 2
62.3429 12.6523 2
62.2024 15.7756 2
61.822 18.6721 2
65.5313 25.6965 2
64.1535 28.2522 2
61.2298 21.3286 2
62.8678 24.6298 2
60.4397 23.7149 2
59.2475 12.7705 2
56.4065 13.1015 2
55.875 10.2258 2
67.8739 35.5475 3.97346
67.2712 31.6215 3.97527
65.7041 33.9259 3.97328
64.67 30.1895 3.97393
63.5468 26.4097 3.97514
62.2655 28.773 3.975
60.7772 14.2156 3.98528
61.0571 25.3287 3.97617
60.6181 17.1159 3.98331
60.2324 19.8022 3.98023
59.6744 22.2441 3.97727
58.9929 24.3064 3.97785
54.038 9.13016 3.98904
57.9122 14.321 3.98359
54.7876 12.0015 3.98504
55.3142 14.6328 3.98253
67.5129 50.1774 0.0204695
57.0252 66.7368 0.00682299
60.6695 63.9791 0.00790181
57.5587 63.6973 0.0125475
65.7087 54.1772 0.0170448
64.5469 51.39 0.0224832
60.7755 60.9454 0.0144833
60.6645 58.1709 0.0181501
62.8301 55.0775 0.0180113
60.3383 55.7994 0.0192064
55.0709 67.9337 2
59.2207 62.3735 2
55.8049 64.9151 2
56.3284 62.0989 2
65.3397 49.4118 2
63.7164 53.3006 2
62.4532 50.6601 2
59.3373 59.5687 2
61.0896 54.3223 2
59.2969 57.0271 2
59.2538 55.1986 2
53.0425 69.0014 3.99368
53.9671 66.0165 3.98945
57.8832 60.8796 3.98383
54.6846 63.2144 3.98553
55.2136 60.6264 3.9828
63.2041 48.6664 3.97471
61.7545 52.5852 3.97849
60.2866 50.0292 3.97479
58.0235 58.274 3.98132
59.3408 53.9616 3.98019
58.1361 55.8281 3.97801
50.1096 67.8597 3.99004
47.4636 66.5861 3.98796
46.0568 69.1613 3.99046
48.1031 68.5821 2
48.8025 70.7243 3.99403
50.9486 69.9332 2
51.8506 72.1454 4
54.0858 71.1327 2
56.25 69.9759 0
55.1031 7.13799 3.99316
58.3339 6.31992 4
57.0591 8.33326 2
60.3286 7.74926 2
58.9218 9.65351 0.00756486
62.2254 9.30607 0
68.2708 48.1072 0.0213146
69.4342 43.9072 0.0220027
66.7163 45.4412 0.0246725
67.6019 41.4982 0.0259361
70.0429 39.6572 0.0243064
72.4892 37.512 0.0166019
70.1308 37.5217 2
67.8373 39.5127 2
67.2296 43.4712 2
65.5621 41.2121 2
66.0758 47.4203 2
64.6604 44.852 2
67.9331 37.5221 3.97208
65.791 39.3713 3.97156
65.1834 43.028 3.97406
63.7628 40.9326 3.97274
63.9745 46.7208 3.97469
62.8167 44.2216 3.97506
70.06 35.3922 0.0235682
69.4709 31.1499 0.021753
67.6604 33.5905 0.0254922
66.7779 29.6219 0.0249312
62.3426 12.6522 0.00876444
62.2023 15.7761 0.014615
61.8217 18.6729 0.01791
65.5313 25.6969 0.0234273
64.1534 28.2525 0.0255733
62.8676 24.6303 0.0232036
61.2294 21.3293 0.0213535
60.4393 23.7155 0.022504
59.2475 12.7712 0.0143042
56.4066 13.1023 0.0161552
55.875 10.2265 0.0115814
67.8743 35.5474 2
67.2712 31.6214 2
65.7043 33.9256 2
64.6701 30.1892 2
60.7772 14.215 2
60.6182 17.1151 2
60.2329 19.8014 2
63.5468 26.4093 2
62.2656 28.7727 2
59.6749 22.2434 2
61.0574 25.3282 2
58.9933 24.306 2
57.9121 14.3203 2
55.3141 14.632 2
54.0379 9.12955 2
54.7876 12.0006 2
65.8809 35.6664 3.9724
65.1937 32.1517 3.97406
64.2915 34.2485 3.97331
62.6033 30.6316 3.97362
61.6608 27.066 3.97434
60.8595 29.1335 3.97618
59.3136 15.6578 3.98367
59.3442 25.785 3.97813
59.1302 18.3414 3.98221
58.7512 20.8382 3.97827
58.2988 23.0765 3.976
57.9831 24.6501 3.97834
52.1125 8.14888 3.9894
53.0584 11.008 3.98606
56.6789 15.7293 3.98279
53.8106 13.6676 3.98335
54.3784 15.9837 3.98229
55.0706 67.9337 0.00654674
65.3398 49.4112 0.0238045
55.805 64.9146 0.0111644
59.2208 62.3727 0.0138499
56.3285 62.0983 0.0156291
63.7164 53.2997 0.020029
62.4532 50.6594 0.0242355
59.3373 59.5678 0.0166327
59.2969 57.0265 0.020101
61.0894 54.3215 0.0189564
59.2538 55.198 0.0186555
53.0427 69.0015 2
53.967 66.017 2
57.8831 60.8802 2
54.6845 63.215 2
55.2134 60.6272 2
63.2041 48.667 2
61.7546 52.5861 2
60.2866 50.0299 2
58.0235 58.2748 2
59.3409 53.9623 2
58.1361 55.8286 2
52.0706 67.0029 3.98982
52.9536 64.2244 3.98658
56.6517 59.5004 3.98261
53.6823 61.6314 3.98379
54.263 59.3329 3.98154
61.005 47.8883 3.97382
59.7246 52.1178 3.97818
58.0397 49.6305 3.9766
56.7833 57.0026 3.9784
57.1335 54.1382 3.97791
50.1096 67.8601 2
49.3373 65.9263 3.98773
47.4635 66.5866 2
46.8925 64.7435 3.98637
45.5588 67.1037 3.98787
43.9738 69.5937 3.99051
46.0568 69.1616 2
46.6092 71.3688 3.99422
48.1031 68.5817 0.00976464
48.8028 70.7245 2
49.554 73.0099 4
50.9483 69.9331 0.00613811
51.8506 72.1455 2
54.0858 71.1327 0
53.064 6.06959 3.99338
55.1033 7.13786 2
56.25 5.02411 4
58.3339 6.3199 2
57.0588 8.33339 0.00706157
60.3285 7.74928 0
66.0759 47.4199 0.0242291
67.2295 43.471 0.0250076
64.6604 44.8516 0.0255653
65.5619 41.2118 0.0268628
67.8371 39.5126 0.0274831
70.1308 37.5216 0.0245672
67.9331 37.5222 2
65.7913 39.3714 2
65.1836 43.0284 2
63.7631 40.9329 2
63.9745 46.7212 2
62.8169 44.222 2
65.8935 37.5021 3.97064
63.9043 39.2683 3.9714
63.3379 42.5546 3.97382
62.4399 40.7007 3.97292
61.9782 45.9255 3.97499
61.4629 43.6899 3.97503
67.8739 35.5475 0.0265405
67.2712 31.6215 0.0247274
65.7041 33.9259 0.026715
64.67 30.1895 0.0260664
60.7772 14.2156 0.0147223
60.6181 17.1159 0.0166942
60.2324 19.8022 0.0197729
63.5468 26.4097 0.0248616
62.2655 28.773 0.024996
61.0571 25.3287 0.0238265
59.6744 22.2441 0.0227299
58.9929 24.3064 0.0221531
57.9122 14.321 0.0164068
55.3142 14.6328 0.0174681
54.038 9.13016 0.0109609
54.7876 12.0015 0.0149641
65.8814 35.6663 2
65.1938 32.1515 2
64.2918 34.2481 2
62.6035 30.6312 2
59.3136 15.657 2
59.1306 18.3405 2
58.7518 20.8374 2
61.661 27.0657 2
60.8597 29.1332 2
58.2994 23.076 2
59.3445 25.7846 2
57.9835 24.6498 2
56.6788 15.7285 2
54.3782 15.9828 2
53.8106 13.6667 2
52.1125 8.14831 2
53.0583 11.0074 2
64.0965 35.6318 3.9723
62.9403 33.0434 3.97314
60.6249 30.6058 3.97317
59.5825 27.9013 3.97496
57.9432 16.97 3.98287
57.7546 25.7125 3.9796
57.7225 19.4602 3.98076
57.3825 21.8235 3.97589
57.2004 23.9312 3.97556
50.1125 7.28105 3.98961
51.2327 10.1168 3.98677
52.1726 12.785 3.98462
55.5402 16.9575 3.98278
52.979 15.2485 3.98169
53.7607 16.9649 3.98247
53.0425 69.0014 0.00631625
53.9671 66.0165 0.0105483
63.2041 48.6664 0.0252892
54.6846 63.2144 0.0144662
57.8832 60.8796 0.0161677
55.2136 60.6264 0.0172026
61.7545 52.5852 0.0215121
60.2866 50.0292 0.0252096
58.0235 58.274 0.018678
58.1361 55.8281 0.0219853
59.3408 53.9616 0.0198109
52.0706 67.0032 2
52.9534 64.2249 2
56.6516 59.501 2
53.6821 61.632 2
54.2628 59.3338 2
61.0051 47.8889 2
59.7247 52.1186 2
58.0397 49.6312 2
56.7834 57.0035 2
57.1335 54.1386 2
51.1681 65.1333 3.98729
52.0466 62.5463 3.98477
55.4848 58.2629 3.98206
52.8363 60.1457 3.98235
53.6436 58.4833 3.9807
58.3198 46.8606 3.9764
57.5758 51.8017 3.97746
56.2628 49.5673 3.98094
55.4797 55.809 3.9769
55.3698 53.3979 3.9731
50.1096 67.8597 0.0099633
49.3371 65.9267 2
48.6182 64.1296 3.98596
47.4636 66.5861 0.0120391
45.5586 67.1042 2
46.8923 64.7439 2
46.3819 63.0621 3.98514
45.1327 65.2051 3.9865
43.6319 67.4747 3.98803
41.861 69.8812 3.99048
43.9738 69.5941 2
44.3767 71.8636 3.99421
46.0568 69.1613 0.00954043
46.6095 71.369 2
47.2057 73.7222 4
48.8025 70.7243 0.00597236
49.554 73.0099 2
51.8506 72.1454 0
50.9537 5.13004 3.99356
53.0643 6.06942 2
54.0858 3.86728 4
55.1031 7.13799 0.00683705
56.25 5.02406 2
58.3339 6.31992 0
63.9745 46.7208 0.0253084
65.1834 43.028 0.0259432
62.8167 44.2216 0.0249416
63.7628 40.9326 0.0272594
65.791 39.3713 0.0284382
67.9331 37.5221 0.0279151
65.8935 37.5022 2
63.9048 39.2684 2
63.3381 42.5549 2
62.4403 40.701 2
61.9783 45.926 2
61.4631 43.6902 2
63.9638 37.4574 3.97051
62.1656 39.3566 3.97223
61.2304 41.9633 3.97373
60.2629 44.7789 3.97556
65.8809 35.6664 0.0276032
65.1937 32.1517 0.0259409
64.2915 34.2485 0.0266865
62.6033 30.6316 0.0263789
59.3136 15.6578 0.0163342
59.1302 18.3414 0.0177949
58.7512 20.8382 0.0217322
61.6608 27.066 0.0256554
60.8595 29.1335 0.0238241
59.3442 25.785 0.0218651
58.2988 23.0765 0.0239971
57.9831 24.6501 0.0216646
56.6789 15.7293 0.0172136
54.3784 15.9837 0.0177079
53.8106 13.6676 0.0166526
52.1125 8.14888 0.0106021
53.0584 11.008 0.0139353
64.0972 35.6317 2
62.9403 33.043 2
60.6251 30.6055 2
57.9433 16.9691 2
57.7231 19.4592 2
57.3831 21.8228 2
59.5827 27.9009 2
57.2009 23.931 2
57.755 25.7121 2
50.1125 7.28059 2
55.5402 16.9566 2
53.7605 16.964 2
52.9789 15.2476 2
52.1726 12.7843 2
51.2326 10.1162 2
62.1991 35.3583 3.97201
60.3049 32.7424 3.97252
58.6347 30.0678 3.97291
57.3055 27.3685 3.97575
56.6404 18.1412 3.98271
56.308 25.0877 3.97515
56.3654 20.505 3.97805
56.1212 22.8525 3.97286
48.0562 6.52427 3.98988
49.3244 9.32504 3.98714
50.4333 11.9836 3.98498
51.3787 14.4839 3.98317
54.4182 17.9056 3.9828
52.3632 17.0203 3.98151
52.0706 67.0029 0.0101849
52.9536 64.2244 0.0134183
61.005 47.8883 0.0261831
53.6823 61.6314 0.0162114
56.6517 59.5004 0.0173936
54.263 59.3329 0.0184575
59.7246 52.1178 0.0218212
58.0397 49.6305 0.0233967
56.7833 57.0026 0.0216034
57.1335 54.1382 0.0220926
51.1679 65.1337 2
52.0464 62.5469 2
55.4847 58.2637 2
52.8361 60.1463 2
53.6434 58.4841 2
58.3199 46.8612 2
57.5759 51.8023 2
56.2628 49.5679 2
55.4798 55.8099 2
55.3698 53.3986 2
50.3464 63.3878 3.98551
51.2451 60.9444 3.98301
54.2248 57.2776 3.98074
52.3154 58.6457 3.9808
56.7384 44.195 3.97317
55.5098 47.9099 3.97797
55.0849 51.4013 3.97386
54.0139 54.5604 3.97529
49.3373 65.9263 0.0122655
48.618 64.13 2
47.9621 62.483 3.98479
45.5588 67.1037 0.012131
46.8925 64.7435 0.0136255
43.6318 67.4751 2
46.3816 63.0625 2
45.1326 65.2055 2
45.9872 61.5957 3.98415
44.7672 63.4635 3.98568
43.3567 65.5151 3.98668
41.6639 67.6939 3.98801
39.7026 70.0284 3.99034
41.861 69.8817 2
42.1111 72.2084 3.99413
43.9738 69.5937 0.0094862
44.3769 71.8638 2
44.8159 74.2794 4
46.6092 71.3688 0.00577867
47.2057 73.7222 2
49.554 73.0099 0
48.7842 4.32112 3.99379
50.9539 5.12987 2
51.8506 2.85458 4
53.064 6.06959 0.00662305
54.0858 3.86728 2
56.25 5.02411 0
61.9782 45.9255 0.0250111
63.3379 42.5546 0.0261821
61.4629 43.6899 0.0249727
62.4399 40.7007 0.0270779
63.9043 39.2683 0.0285978
65.8935 37.5021 0.0293644
63.9638 37.4573 2
62.1661 39.3568 2
61.2308 41.9636 2
60.2631 44.7794 2
62.0016 37.4448 3.97115
60.2624 39.8507 3.9729
59.0126 42.9257 3.97386
64.0965 35.6318 0.0276969
62.9403 33.0434 0.0268552
60.6249 30.6058 0.0268312
57.9432 16.97 0.0171255
57.7225 19.4602 0.0192388
57.3825 21.8235 0.0241092
59.5825 27.9013 0.0250425
57.7546 25.7125 0.0204011
57.2004 23.9312 0.0244424
55.5402 16.9575 0.0172245
53.7607 16.9649 0.0175263
52.979 15.2485 0.0183133
50.1125 7.28105 0.0103906
52.1726 12.785 0.0153772
51.2327 10.1168 0.0132269
62.2 35.3582 2
60.3048 32.7419 2
58.635 30.0676 2
56.6407 18.1401 2
56.3662 20.5039 2
56.1221 22.8522 2
57.3057 27.368 2
56.3086 25.0878 2
48.0562 6.52382 2
49.3243 9.32459 2
54.4183 17.9045 2
52.363 17.0193 2
51.3786 14.4831 2
50.4332 11.9829 2
59.9096 35.1193 3.97257
58.0141 32.2657 3.97289
56.5613 29.3293 3.97161
55.4644 26.587 3.97737
55.347 19.1743 3.98237
54.944 24.0408 3.97192
55.0105 21.5464 3.97559
45.9621 5.8794 3.99019
43.3732 7.46864 3.98824
47.3547 8.61906 3.98738
48.5998 11.2854 3.98562
49.7143 13.7315 3.98392
50.6349 16.1173 3.98124
53.1281 18.6443 3.98093
51.305 18.0328 3.98487
51.1681 65.1333 0.012713
52.0466 62.5463 0.01523
58.3198 46.8606 0.0235964
52.8363 60.1457 0.0176511
55.4848 58.2629 0.017935
53.6436 58.4833 0.0193025
57.5758 51.8017 0.0225422
56.2628 49.5673 0.0190582
55.4797 55.809 0.0230998
55.3698 53.3979 0.0269042
50.3462 63.3881 2
51.2448 60.945 2
54.2247 57.2785 2
52.3151 58.6463 2
56.7388 44.1956 2
55.5098 47.9107 2
55.0849 51.4018 2
54.014 54.5618 2
49.5922 61.7528 3.9842
55.6722 41.7145 3.97568
50.5686 59.3385 3.98085
52.1909 56.502 3.97771
54.2091 45.5805 3.97689
53.3598 49.3388 3.97521
52.681 52.8625 3.9725
48.6182 64.1296 0.0140399
47.9618 62.4833 2
47.3294 61.0185 3.98364
43.6319 67.4747 0.0119662
45.1327 65.2051 0.0135037
46.3819 63.0621 0.0148554
41.6638 67.6943 2
43.3565 65.5154 2
45.9869 61.596 2
44.7669 63.4639 2
45.7663 60.6403 3.98333
44.483 61.8456 3.9844
43.1464 63.7363 3.98553
41.5462 65.6531 3.98669
39.6329 67.7737 3.98787
37.526 70.0536 3.99027
39.7026 70.0289 2
39.8179 72.4055 3.99405
41.861 69.8812 0.00952127
42.1112 72.2087 2
42.3947 74.6792 4
44.3767 71.8636 0.00579199
44.8159 74.2794 2
47.2057 73.7222 0
43.8514 5.35652 3.99042
46.5702 3.64573 3.99401
48.7844 4.32092 2
49.554 1.99015 4
50.9537 5.13004 0.00643851
51.8506 2.85453 2
54.0858 3.86728 0
60.2629 44.7789 0.0244385
61.2304 41.9633 0.026273
62.1656 39.3566 0.0277738
63.9638 37.4574 0.0294906
62.002 37.4449 2
60.2629 39.8508 2
59.013 42.926 2
59.7755 37.5682 3.97222
58.0251 40.663 3.97357
55.1485 39.728 3.9773
62.1991 35.3583 0.0279871
60.3049 32.7424 0.0274811
58.6347 30.0678 0.0270851
56.6404 18.1412 0.0172864
56.3654 20.505 0.0219515
56.1212 22.8525 0.0271431
57.3055 27.3685 0.0242503
56.308 25.0877 0.0248474
54.4182 17.9056 0.0171951
52.3632 17.0203 0.018494
51.3787 14.4839 0.016834
48.0562 6.52427 0.0101167
49.3244 9.32504 0.0128624
50.4333 11.9836 0.0150163
59.9106 35.1192 2
45.9621 5.87893 2
43.3733 7.46815 2
58.0138 32.2653 2
56.5617 29.3289 2
55.3475 19.1731 2
55.0116 21.5451 2
54.9447 24.0415 2
55.4646 26.5871 2
47.3547 8.61862 2
48.5997 11.285 2
53.1283 18.6432 2
51.3051 18.0319 2
50.6347 16.1163 2
49.7142 13.7308 2
57.4235 34.7599 3.97464
55.7519 31.5126 3.97183
54.5279 28.3911 3.97692
53.7889 25.4837 3.97442
53.9746 20.1215 3.9822
53.5915 22.6934 3.9725
41.3983 7.07384 3.98845
45.3593 7.99059 3.98763
42.8649 9.40927 3.98676
46.666 10.6466 3.98568
47.7452 13.0921 3.98419
48.9321 15.3883 3.98313
50.0079 17.6863 3.97915
51.6552 19.3095 3.98669
50.3464 63.3878 0.0144949
51.2451 60.9444 0.0169864
56.7384 44.195 0.0268296
55.5098 47.9099 0.0220323
52.3154 58.6457 0.0192034
54.2248 57.2776 0.0192609
55.0849 51.4013 0.0261443
54.0139 54.5604 0.0247136
49.5918 61.7532 2
55.673 41.7143 2
50.5683 59.3391 2
52.1908 56.5026 2
54.2099 45.5813 2
53.3597 49.339 2
52.6812 52.8628 2
48.8497 60.2112 3.98273
52.582 42.6585 3.97589
49.7924 57.638 3.97982
50.6027 54.4379 3.97596
51.8422 47.2827 3.97882
51.2322 50.9546 3.97137
48.2269 43.8099 3.98864
47.9621 62.483 0.015215
47.329 61.0187 2
46.6192 59.8053 3.98272
41.6639 67.6939 0.0119865
43.3567 65.5151 0.013321
44.7672 63.4635 0.0143153
45.9872 61.5957 0.0158504
39.6328 67.7742 2
41.5461 65.6535 2
45.766 60.6405 2
43.1462 63.7366 2
44.4828 61.846 2
44.6237 60.303 3.98362
42.9502 62.0946 3.98496
41.5998 63.8301 3.98547
39.6477 65.6216 3.98655
37.5634 67.7562 3.98784
31.6972 65.1403 3.98656
33.392 67.4938 3.98775
35.3333 69.9637 3.99022
37.526 70.0541 2
37.5096 72.4601 3.99397
39.7026 70.0284 0.00965736
39.8179 72.4058 2
39.9526 74.9197 4
42.1111 72.2084 0.0058695
42.3947 74.6792 2
44.8159 74.2794 0
41.7359 4.96564 3.99066
43.8514 5.35607 2
44.3256 3.10906 3.99412
46.5704 3.64549 2
47.2057 1.27793 4
48.7842 4.32112 0.00621318
49.554 1.99013 2
51.8506 2.85458 0
59.0126 42.9257 0.0261418
60.2624 39.8507 0.0271013
62.0016 37.4448 0.0288465
59.7762 37.5683 2
58.0257 40.6629 2
55.1491 39.7278 2
56.8521 37.8993 3.97465
49.6709 41.3406 3.98137
53.1894 39.3135 3.97653
39.4416 6.79728 3.98865
59.9096 35.1193 0.0274286
58.0141 32.2657 0.0271073
56.5613 29.3293 0.0283868
55.347 19.1743 0.0176292
55.0105 21.5464 0.0244059
54.944 24.0408 0.0280845
55.4644 26.587 0.0226321
53.1281 18.6443 0.0190658
51.305 18.0328 0.0151273
50.6349 16.1173 0.018759
45.9621 5.8794 0.009814
49.7143 13.7315 0.016084
47.3547 8.61906 0.0126247
48.5998 11.2854 0.0143759
43.3732 7.46864 0.0117572
57.4248 34.7601 2
41.3983 7.07331 2
45.3594 7.99013 2
42.8649 9.40874 2
55.7519 31.5124 2
54.5278 28.3914 2
53.9753 20.12 2
53.5923 22.6894 2
53.7893 25.4843 2
46.6659 10.6463 2
47.745 13.0916 2
51.6557 19.3086 2
50.0079 17.6853 2
48.9319 15.3873 2
54.9283 33.9697 3.97545
53.52 30.4745 3.97289
52.6094 27.1852 3.97565
52.1576 24.0776 3.97364
52.3979 21.0474 3.98093
41.0129 9.04246 3.98677
44.723 9.98971 3.98605
42.4675 10.895 3.98508
46.0046 12.7205 3.98438
47.6818 14.5733 3.98372
48.1149 16.9751 3.98157
49.82 19.586 3.97723
49.5922 61.7528 0.015797
50.5686 59.3385 0.0191517
55.6722 41.7145 0.0243219
54.2091 45.5805 0.0231121
53.3598 49.3388 0.0247945
52.1909 56.502 0.0222946
52.681 52.8625 0.0275032
48.8493 60.2115 2
52.5833 42.6583 2
49.7922 57.6386 2
50.6027 54.4387 2
51.8421 47.2824 2
51.2323 50.9542 2
48.2236 43.8127 2
47.9884 58.7536 3.98189
50.1488 45.2969 3.97522
48.6034 55.9295 3.9813
49.1416 52.6084 3.97584
49.6935 49.0576 3.97334
46.0879 39.8912 3.90932
46.4797 42.7063 3.95668
46.5404 45.8528 3.98932
43.9295 41.1947 3.92161
42.0902 42.0164 3.89784
47.3294 61.0185 0.0163594
46.6188 59.8054 2
45.4691 58.8021 3.98275
39.6329 67.7737 0.0121255
41.5462 65.6531 0.0133105
43.1464 63.7363 0.0144694
44.483 61.8456 0.0156015
45.7663 60.6403 0.0166737
41.5996 63.8303 2
37.5634 67.7567 2
39.6476 65.6219 2
44.6234 60.3033 2
42.95 62.0949 2
41.7534 62.5055 3.98535
42.4816 59.9957 3.98444
39.8933 63.5656 3.9854
37.6423 65.5207 3.98605
35.4634 67.6656 3.98782
33.5754 65.3538 3.98638
31.9597 63.3139 3.98561
29.8833 64.731 3.98658
31.6972 65.1406 2
31.3766 67.2034 3.98784
33.3921 67.4942 2
33.156 69.7571 3.99023
35.3332 69.9642 2
35.195 72.3745 3.99393
37.526 70.0536 0.00973457
37.5095 72.4604 2
37.5 75 4
39.8179 72.4055 0.00595002
39.9526 74.9197 2
42.3947 74.6792 0
39.6234 4.71276 3.99081
41.736 4.96517 2
42.0619 2.71669 3.99427
43.8514 5.35652 0.00958011
44.3257 3.10881 2
44.8158 0.721173 4
46.5702 3.64573 0.00598886
47.2057 1.27779 2
49.554 1.99015 0
58.0251 40.663 0.0264306
59.7755 37.5682 0.0277809
55.1485 39.728 0.0227009
49.6737 41.3427 2
56.8527 37.8994 2
53.19 39.3131 2
54.0335 36.6283 3.97623
47.6041 40.4407 3.96704
50.6391 38.5118 3.97977
37.5153 6.66832 3.98864
39.4416 6.79675 2
39.2103 8.68489 3.987
35.9407 8.48464 3.98729
57.4235 34.7599 0.0253607
55.7519 31.5126 0.0281695
54.5279 28.3911 0.0230786
53.9746 20.1215 0.0178
53.5915 22.6934 0.0274967
53.7889 25.4837 0.0255751
51.6552 19.3095 0.0133086
50.0079 17.6863 0.0208475
48.9321 15.3883 0.0168742
45.3593 7.99059 0.012374
47.7452 13.0921 0.0158144
46.666 10.6466 0.0143169
41.3983 7.07384 0.0115524
42.8649 9.40927 0.0132423
54.9297 33.97 2
41.0129 9.04188 2
44.723 9.98931 2
42.4674 10.8944 2
53.5201 30.4733 2
52.6097 27.1871 2
52.3988 21.0464 2
52.159 24.0776 2
46.0044 12.7202 2
47.6815 14.5727 2
49.8203 19.5846 2
48.1148 16.9741 2
52.4747 32.8679 3.9763
51.3591 29.1427 3.97225
50.8095 25.7099 3.97275
49.9467 22.1651 3.97921
40.5682 11.5981 3.9848
43.8572 11.9101 3.98509
45.803 15.4085 3.98362
47.506 19.2067 3.97988
46.4293 37.506 3.91362
48.8497 60.2112 0.017267
49.7924 57.638 0.0201843
52.582 42.6585 0.0241064
51.8422 47.2827 0.0211843
51.2322 50.9546 0.0286286
50.6027 54.4379 0.024045
48.2269 43.8099 0.0113642
47.988 58.7538 2
50.1502 45.2992 2
48.6031 55.9302 2
49.1415 52.6117 2
49.6934 49.0573 2
46.0984 39.896 2
46.4888 42.7169 2
46.5378 45.8448 2
43.9412 41.2006 2
42.0955 42.0179 2
46.841 57.3571 3.98269
44.6945 39.4753 3.91313
42.4698 40.8859 3.91216
48.1219 47.2556 3.97766
47.1756 54.2659 3.98166
47.6049 50.764 3.97617
44.836 47.4182 3.99703
45.1566 41.9863 3.91367
44.959 44.6158 3.95724
42.7392 42.7148 3.92401
40.9476 42.3502 3.92307
46.6192 59.8053 0.0172787
45.4686 58.8023 2
43.8774 57.7272 3.98349
37.5634 67.7562 0.0121604
39.6477 65.6216 0.0134542
41.5998 63.8301 0.0145336
42.9502 62.0946 0.0150406
44.6237 60.303 0.0163828
35.4634 67.666 2
41.7531 62.5057 2
39.8931 63.5658 2
37.6423 65.5211 2
42.4813 59.9961 2
40.6231 61.6645 3.98459
40.4458 58.2297 3.98401
37.8368 63.2271 3.98553
35.573 65.443 3.98619
33.5755 65.3541 2
31.9597 63.3142 2
33.6292 63.3539 3.98542
30.3787 62.8724 3.98564
32.1234 62.0212 3.98494
26.8682 61.5155 3.98457
28.0621 64.1589 3.9864
29.8834 64.7314 2
29.406 66.7669 3.98784
31.6972 65.1403 0.0134358
31.3767 67.2038 2
31.0132 69.422 3.99021
33.392 67.4938 0.0122476
33.156 69.7575 2
32.892 72.1487 3.99395
35.3333 69.9637 0.00977584
35.1949 72.3748 2
35.0474 74.9194 4
37.5096 72.4601 0.00603376
37.5 75 2
39.9526 74.9197 0
35.6197 6.71933 3.98869
37.5225 4.61224 3.99093
39.6235 4.71232 2
39.7884 2.47315 3.99439
41.7359 4.96564 0.0093386
42.0621 2.71641 2
42.3946 0.32156 4
44.3256 3.10906 0.00588202
44.8159 0.72056 2
47.2057 1.27793 0
49.6709 41.3406 0.0186277
56.8521 37.8993 0.0253502
53.1894 39.3135 0.0234654
47.6075 40.4422 2
50.6395 38.5125 2
54.0338 36.6285 2
51.4246 35.5821 3.96635
48.276 37.7729 3.9762
46.0884 35.1306 3.91439
43.9293 33.8128 3.91865
42.0837 32.9947 3.89666
37.457 8.52655 3.98718
37.5153 6.66781 2
39.4416 6.79728 0.0113528
39.2104 8.68427 2
38.9753 10.1168 3.98667
35.8972 9.76376 3.98614
34.1491 8.81409 3.98713
35.9407 8.48397 2
54.9283 33.9697 0.0245486
53.52 30.4745 0.0271054
52.6094 27.1852 0.0243486
52.3979 21.0474 0.0190656
52.1576 24.0776 0.0263601
49.82 19.586 0.0227702
48.1149 16.9751 0.0184271
47.6818 14.5733 0.0162777
44.723 9.98971 0.0139536
46.0046 12.7205 0.0156192
41.0129 9.04246 0.0132287
42.4675 10.895 0.0149183
52.4762 32.8671 2
40.5681 11.5975 2
43.8571 11.9096 2
51.3609 29.1441 2
50.811 25.7112 2
49.9478 22.1636 2
45.8026 15.4081 2
47.5063 19.2056 2
50.0492 31.4012 3.96531
49.3122 27.4562 3.97532
49.4194 24.3764 3.98116
47.1905 21.9071 3.9794
38.3006 12.7222 3.98449
42.1006 14.2927 3.98344
44.8019 18.4411 3.98322
44.9805 37.5113 3.91455
46.4458 37.5096 2
47.9884 58.7536 0.0181145
48.6034 55.9295 0.0187037
50.1488 45.2969 0.0247829
49.6935 49.0576 0.0266582
49.1416 52.6084 0.0241598
46.0879 39.8912 0.0906825
46.4797 42.7063 0.0433187
46.5404 45.8528 0.0106802
43.9295 41.1947 0.0783924
42.0902 42.0164 0.102157
46.8405 57.3573 2
44.7079 39.4791 2
42.4709 40.885 2
48.1216 47.2551 2
47.1755 54.2663 2
47.6051 50.7653 2
44.837 47.4115 2
45.1646 41.994 2
44.9695 44.6279 2
42.7566 42.7227 2
40.9532 42.3493 2
45.4008 55.9444 3.98295
42.8149 39.2714 3.92608
40.9181 40.8035 3.9625
46.1189 48.9314 3.98126
45.5567 52.5625 3.98345
43.4812 48.4803 3.99384
43.3716 46.1872 3.96423
43.7207 43.8033 3.90905
41.2223 43.8788 3.9253
39.3173 42.68 3.93296
45.4691 58.8021 0.0172465
43.8769 57.7273 2
42.1082 56.3541 3.98441
35.4634 67.6656 0.0121785
37.6423 65.5207 0.0139468
39.8933 63.5656 0.0146041
41.7534 62.5055 0.014653
42.4816 59.9957 0.0155636
35.573 65.4433 2
40.6228 61.6647 2
37.8366 63.2272 2
40.4454 58.2299 2
38.9269 56.5249 3.98655
38.2507 60.3497 3.98502
35.6071 63.2208 3.98522
33.5754 65.3538 0.0136241
31.9597 63.3139 0.014387
33.6292 63.3542 2
30.3788 62.8726 2
32.1234 62.0213 2
28.6811 62.2176 3.98541
33.3461 61.5343 3.98505
31.0663 61.2385 3.98485
27.5664 59.614 3.98285
23.7881 59.1013 3.98302
25.0331 60.8883 3.98381
26.8683 61.5157 2
26.2286 63.491 3.98601
28.0622 64.1592 2
27.4625 66.1906 3.98782
29.8833 64.731 0.0134241
29.4061 66.7674 2
28.9055 68.9474 3.99019
31.3766 67.2034 0.0121608
31.0132 69.4224 2
30.6144 71.7798 3.99398
33.156 69.7571 0.00976871
32.8919 72.149 2
32.6054 74.6784 4
35.195 72.3745 0.00606526
35.0474 74.9197 2
37.5 75 0
33.7222 6.97398 3.98842
35.4338 4.68263 3.9909
35.6197 6.71873 2
37.5139 2.38578 3.99446
37.5226 4.6118 2
39.6234 4.71276 0.00919187
39.7885 2.47286 2
39.9526 0.0806499 4
42.0619 2.71669 0.00572508
42.3947 0.320817 2
44.8158 0.721173 0
44.7027 35.5335 3.91284
42.469 34.1191 3.91071
47.6041 40.4407 0.0329635
50.6391 38.5118 0.0202321
54.0335 36.6283 0.0237683
48.2777 37.7714 2
51.4257 35.581 2
46.0967 35.126 2
43.9454 33.8023 2
42.0871 32.995 2
48.4377 34.2744 3.99698
45.1518 33.0269 3.90584
42.7364 32.2977 3.92421
40.9393 32.6594 3.92525
37.3093 10.6197 3.98577
37.457 8.52592 2
37.5153 6.66832 0.011355
39.2103 8.68489 0.0129983
38.9753 10.1161 2
34.7523 10.3692 3.98571
35.8972 9.76303 2
32.3758 9.36068 3.98643
34.149 8.81334 2
35.9407 8.48464 0.0127055
52.4747 32.8679 0.023698
51.3591 29.1427 0.0277543
50.8095 25.7099 0.0272491
49.9467 22.1651 0.0207929
47.506 19.2067 0.0201213
45.803 15.4085 0.0163841
43.8572 11.9101 0.0149109
40.5682 11.5981 0.0152011
50.0503 31.4006 2
38.3003 12.7215 2
42.1001 14.2921 2
49.3134 27.4568 2
49.4208 24.3748 2
47.1915 21.9078 2
44.8019 18.4406 2
47.8364 29.5704 3.97283
47.1208 25.0935 3.98527
44.2913 21.2899 3.98217
36.5803 12.9188 3.98405
38.68 14.7911 3.98301
41.7501 17.8201 3.98122
42.9561 37.493 3.92016
44.9998 37.5109 2
46.4293 37.506 0.0863751
46.841 57.3571 0.0173064
47.1756 54.2659 0.0183403
48.1219 47.2556 0.0223405
47.6049 50.764 0.0238276
44.6945 39.4753 0.0868667
45.1566 41.9863 0.0863257
44.959 44.6158 0.0427613
44.836 47.4182 0.00297406
42.7392 42.7148 0.0759874
42.4698 40.8859 0.08784
40.9476 42.3502 0.0769266
45.4005 55.9445 2
42.818 39.2698 2
40.9176 40.8006 2
46.1191 48.9302 2
45.5569 52.5623 2
43.4805 48.4934 2
43.3985 46.1987 2
43.7337 43.8111 2
41.2344 43.8804 2
39.3202 42.6794 2
43.7405 54.456 3.98805
41.0067 39.1726 3.97248
39.2457 40.8865 3.9729
43.7273 50.5391 3.9911
41.984 47.7206 3.98959
41.8974 45.2015 3.90364
39.4544 44.6274 3.93073
37.4963 42.8156 3.93134
43.8774 57.7272 0.0165132
42.1076 56.3542 2
40.4215 54.9621 3.98504
35.573 65.443 0.0138073
37.8368 63.2271 0.0144747
40.6231 61.6645 0.0154078
40.4458 58.2297 0.01599
35.6071 63.2209 2
38.2503 60.3495 2
38.9261 56.5259 2
38.0005 55.2834 3.98642
36.9356 57.6552 3.98473
35.3637 60.9338 3.98503
33.6292 63.3539 0.0145839
30.3787 62.8724 0.0143628
32.1234 62.0212 0.0150598
33.3461 61.5344 2
28.6812 62.2178 2
31.0663 61.2385 2
29.402 60.3081 3.98419
32.3556 59.7671 3.98407
28.0179 58.3934 3.98361
27.5666 59.614 2
25.375 58.6137 3.98186
22.7503 58.2599 3.97983
23.3981 60.3678 3.98254
23.7883 59.1016 2
25.0333 60.8886 2
24.4309 62.7833 3.98547
26.8682 61.5155 0.0154329
26.2287 63.4912 2
25.5465 65.5005 3.98768
28.0621 64.1589 0.0136031
27.4626 66.191 2
26.8351 68.3357 3.99014
29.406 66.7669 0.0121558
28.9054 68.9478 2
28.3695 71.265 3.99398
31.0132 69.422 0.00978832
30.6142 71.78 2
30.1842 74.2788 4
32.892 72.1487 0.0060462
32.6053 74.6792 2
35.0474 74.9194 0
31.7866 7.41379 3.98819
33.3457 4.9218 3.99074
33.7222 6.97331 2
35.2442 2.46193 3.99443
35.4339 4.68211 2
35.6197 6.71933 0.0113068
37.5 0 4
37.514 2.38549 2
37.5225 4.61224 0.00906835
39.7884 2.47315 0.00560979
39.9526 0.0802889 2
42.3946 0.32156 0
42.823 35.7227 3.92341
44.7135 35.5311 2
40.9181 34.2016 3.96249
42.4705 34.1198 2
48.276 37.7729 0.0238019
51.4246 35.5821 0.0336459
46.0884 35.1306 0.0856127
43.9293 33.8128 0.0813453
42.0837 32.9947 0.103335
48.442 34.2711 2
45.162 33.0203 2
42.7515 32.2918 2
40.9414 32.6585 2
46.3792 31.5449 3.97719
43.7118 31.2153 3.91239
41.223 31.1232 3.91865
39.3068 32.3271 3.93223
35.6906 11.7639 3.98428
37.3093 10.619 2
37.457 8.52655 0.0128233
38.9753 10.1168 0.0133319
33.0962 11.2058 3.98448
34.7523 10.3683 2
35.8972 9.76376 0.013857
30.4805 10.0088 3.98578
32.3757 9.35988 2
34.1491 8.81409 0.0128749
50.0492 31.4012 0.0346891
49.3122 27.4562 0.0246767
49.4194 24.3764 0.018843
47.1905 21.9071 0.0205955
44.8019 18.4411 0.0167843
42.1006 14.2927 0.0165618
38.3006 12.7222 0.0155099
36.58 12.9181 2
47.8361 29.5682 2
38.6795 14.7905 2
41.7498 17.8192 2
47.1226 25.0941 2
44.2921 21.2889 2
45.5926 27.7281 3.98489
43.8144 24.0169 3.9897
41.3426 20.6966 3.9811
35.7701 14.7433 3.9833
38.6805 17.577 3.98134
41.0557 37.4847 3.96903
42.9607 37.4937 2
44.9805 37.5113 0.0854463
45.4008 55.9444 0.01705
45.5567 52.5625 0.0165549
46.1189 48.9314 0.0187394
42.8149 39.2714 0.073925
43.7207 43.8033 0.0909546
43.3716 46.1872 0.0357651
43.4812 48.4803 0.00616438
41.2223 43.8788 0.0746971
40.9181 40.8035 0.0375036
39.3173 42.68 0.0670422
43.7402 54.4567 2
41.0075 39.1709 2
39.2447 40.8859 2
43.7267 50.5449 2
41.9865 47.7293 2
41.9154 45.2081 2
37.4982 42.8154 2
39.4687 44.6233 2
41.8875 53.0307 3.9935
39.2405 39.1732 3.96341
37.497 40.9316 3.963
35.6815 42.6827 3.93338
40.9644 49.77 4.00131
39.8066 46.0888 3.90137
37.5 44.8809 3.93239
42.1082 56.3541 0.0155887
40.4204 54.9623 2
38.7299 53.8963 3.98726
35.6071 63.2208 0.0147799
38.2507 60.3497 0.0149816
38.9269 56.5249 0.0134487
35.3635 60.9336 2
36.9349 57.6544 2
37.9995 55.2826 2
36.3193 55.4188 3.98806
34.4874 58.5465 3.9847
33.3461 61.5343 0.0149509
28.6811 62.2176 0.0145898
31.0663 61.2385 0.0151538
32.3556 59.767 2
29.4022 60.3081 2
30.2935 57.8396 3.98432
28.0181 58.3933 2
26.9358 56.8435 3.98094
27.5664 59.614 0.0171481
25.3752 58.6139 2
23.8291 56.8257 3.97703
21.3251 57.419 3.97957
21.9895 59.64 3.98235
22.7504 58.2603 2
22.7343 62.0346 3.9845
23.3983 60.3682 2
23.7881 59.1013 0.0169818
25.0331 60.8883 0.0161864
24.4311 62.7837 2
23.6804 64.7188 3.98727
26.2286 63.491 0.0139918
25.5467 65.5008 2
24.8074 67.5968 3.99005
27.4625 66.1906 0.0121813
26.8351 68.336 2
26.1648 70.6058 3.99396
28.9055 68.9474 0.00980752
28.3693 71.2651 2
27.7943 73.7221 4
30.6144 71.7798 0.00602132
30.1841 74.2794 2
32.6054 74.6784 0
29.8091 7.98704 3.98769
31.2508 5.32899 3.99044
31.7865 7.413 2
32.9799 2.70005 3.99433
33.3457 4.92123 2
33.7222 6.97398 0.0115767
35.0474 0.080333 4
35.2442 2.46161 2
35.4338 4.68263 0.00909804
37.5 0 2
37.5139 2.38578 0.00553837
39.9526 0.0806499 0
41.0146 35.8083 3.97122
42.825 35.7244 2
44.7027 35.5335 0.0871632
28.5413 10.6842 3.98562
39.243 34.1199 3.97244
40.9171 34.2042 2
42.469 34.1191 0.0892904
48.4377 34.2744 0.00302253
45.1518 33.0269 0.094157
42.7364 32.2977 0.0757939
40.9393 32.6594 0.0747518
46.3925 31.5421 2
43.718 31.2077 2
41.2362 31.1181 2
39.3093 32.3274 2
44.4167 29.7247 3.97026
41.8979 29.807 3.90477
39.4524 30.3791 3.93107
37.4841 32.1875 3.93267
34.0904 12.9218 3.98366
35.6905 11.763 2
37.3093 10.6197 0.0142339
31.1842 11.974 3.98472
33.0961 11.2049 2
34.7523 10.3692 0.0142902
30.4804 10.008 2
32.3758 9.36068 0.013572
47.8364 29.5704 0.0271657
47.1208 25.0935 0.0147258
36.5803 12.9188 0.0159485
44.2913 21.2899 0.0178323
41.7501 17.8201 0.0187847
38.68 14.7911 0.0169894
35.7696 14.7426 2
45.5926 27.7193 2
38.6801 17.5761 2
41.3426 20.6946 2
43.8167 24.0202 2
33.6053 15.8599 3.98318
43.0822 26.4996 3.99583
40.9235 23.2698 3.98306
38.4219 20.3045 3.98334
35.8464 17.4904 3.98287
39.2468 37.4844 3.95738
41.056 37.4844 2
42.9561 37.493 0.0798404
43.7405 54.456 0.011948
43.7273 50.5391 0.00890391
41.0067 39.1726 0.0275197
41.8974 45.2015 0.0963641
41.984 47.7206 0.0104095
39.4544 44.6274 0.0692679
39.2457 40.8865 0.0270996
37.4963 42.8156 0.0686632
41.8864 53.0325 2
39.241 39.1728 2
37.4966 40.9308 2
40.9637 49.771 2
35.6792 42.6822 2
39.8276 46.1056 2
37.4973 44.8776 2
39.8297 51.9549 3.99988
37.4951 39.1808 3.93949
35.7502 40.8941 3.973
34.0488 42.3481 3.92374
35.5297 44.6281 3.92838
38.7539 48.7646 4.01071
37.5021 46.4068 3.90101
40.4215 54.9621 0.0149623
38.7288 53.8946 2
36.7169 53.2547 3.99682
35.3637 60.9338 0.0149655
36.9356 57.6552 0.015268
38.0005 55.2834 0.0135772
34.4871 58.546 2
36.3186 55.4167 2
33.2219 55.5334 3.98604
32.3556 59.7671 0.0159286
29.402 60.3081 0.0158056
30.2936 57.8394 2
28.6748 55.3322 3.98111
28.0179 58.3934 0.0163872
26.936 56.8434 2
25.2943 55.1635 3.97776
21.7925 55.3667 3.97624
25.375 58.6137 0.0181378
23.8293 56.8259 2
20.2083 57.049 3.98172
20.6392 58.798 3.98146
21.3252 57.4194 2
21.1638 61.1845 3.98392
21.9897 59.6404 2
22.7503 58.2599 0.0201692
21.8936 63.8468 3.98662
22.7344 62.035 2
23.3981 60.3678 0.017458
24.4309 62.7833 0.0145287
23.6806 64.7192 2
22.8357 66.7405 3.98991
25.5465 65.5005 0.0123153
24.8074 67.5971 2
24.009 69.8069 3.99387
26.8351 68.3357 0.00985686
26.1645 70.6059 2
25.446 73.0099 4
28.3695 71.265 0.00602133
27.7943 73.7222 2
30.1842 74.2788 0
27.819 8.64674 3.98735
29.1527 5.87475 3.99006
29.809 7.9863 2
30.7251 3.09721 3.99413
31.2507 5.32834 2
31.7866 7.41379 0.0118129
32.6053 0.320823 4
32.9798 2.69972 2
33.3457 4.9218 0.00925551
35.0474 0.0802903 2
35.2442 2.46193 0.00556533
37.5 0 0
39.2463 35.8083 3.96332
41.015 35.8095 2
42.823 35.7227 0.0765855
28.5412 10.6836 2
26.6202 11.3796 3.98531
29.223 12.6306 3.98476
37.4918 34.0721 3.96155
39.2418 34.1201 2
40.9181 34.2016 0.0375136
46.3792 31.5449 0.0228093
43.7118 31.2153 0.0876146
41.223 31.1232 0.0813468
39.3068 32.3271 0.0677686
44.4298 29.7173 2
41.9162 29.7971 2
39.4645 30.3823 2
37.4845 32.1858 2
42.3421 28.3499 3.95265
39.8191 28.9165 3.90842
37.488 30.1176 3.93287
35.6675 32.3165 3.93267
31.9118 14.4666 3.98377
34.0902 12.9209 2
35.6906 11.7639 0.0157212
31.1841 11.9732 2
33.0962 11.2058 0.0155178
30.4805 10.0088 0.014216
45.5926 27.7281 0.0151119
43.8144 24.0169 0.0102985
35.7701 14.7433 0.0166965
41.3426 20.6966 0.0188958
38.6805 17.577 0.0186609
33.605 15.8597 2
35.846 17.4899 2
43.0834 26.4988 2
38.4217 20.3037 2
40.9244 23.2649 2
33.5474 17.3676 3.98446
40.4603 25.6163 4.01117
38.0804 22.8305 3.99154
35.5824 20.0567 3.98376
37.4963 37.4926 3.92941
39.2469 37.4845 2
41.0557 37.4847 0.0309747
41.8875 53.0307 0.00649877
40.9644 49.77 -0.00130698
39.2405 39.1732 0.0365902
39.8066 46.0888 0.098627
37.5 44.8809 0.067612
37.497 40.9316 0.037004
35.6815 42.6827 0.066618
39.8289 51.9545 2
37.4953 39.1802 2
35.7503 40.8944 2
38.7495 48.7904 2
34.0452 42.3486 2
35.5208 44.6299 2
37.4983 46.4267 2
37.6714 51.0566 4.00886
35.7545 39.1864 3.96391
34.0824 40.8094 3.9604
32.9033 42.0108 3.8976
33.7606 43.8732 3.92358
35.1808 46.0887 3.90692
36.8832 48.4122 3.99506
38.7299 53.8963 0.0127426
36.7164 53.2513 2
34.3517 52.5133 3.98977
34.4874 58.5465 0.0152999
36.3193 55.4188 0.0119413
33.2219 55.532 2
30.5009 53.4344 3.98461
30.2935 57.8396 0.0156792
28.6751 55.3318 2
26.8593 53.4646 3.97731
26.9358 56.8435 0.019062
25.2946 55.1635 2
23.5491 53.5055 3.97462
20.4439 53.2476 3.97342
19.918 55.8527 3.98065
21.7927 55.367 2
23.8291 56.8257 0.0229717
19.4302 57.9099 3.98112
20.2084 57.0494 2
19.7024 60.2185 3.98286
20.6393 58.7984 2
21.3251 57.419 0.0204275
20.2056 62.8681 3.98569
21.1639 61.185 2
21.9895 59.64 0.0176486
20.9371 65.7696 3.98959
21.8938 63.8473 2
22.7343 62.0346 0.0155046
23.6804 64.7188 0.012728
22.8357 66.7408 2
21.9116 68.8741 3.99377
24.8074 67.5968 0.00994836
24.0088 69.807 2
23.1494 72.1454 4
26.1648 70.6058 0.00604393
25.446 73.0099 2
27.7943 73.7221 0
25.8582 9.37481 3.98692
27.0675 6.53888 3.98968
27.8189 8.64605 2
28.4873 3.64311 3.9939
29.1526 5.87415 2
29.8091 7.98704 0.0123135
30.1841 0.720592 4
30.725 3.09688 2
31.2508 5.32899 0.00956159
32.6053 0.320817 2
32.9799 2.70005 0.00566889
35.0474 0.080333 0
37.4968 35.8102 3.93832
39.2462 35.8087 2
41.0146 35.8083 0.028784
24.775 12.0625 3.98531
23.7489 14.3465 3.98431
28.5413 10.6842 0.0143771
26.6202 11.379 2
29.223 12.63 2
27.2892 13.3637 3.9846
29.7776 14.1891 3.98377
35.746 34.1049 3.97262
37.4911 34.0717 2
39.243 34.1199 0.0275598
37.4841 32.1875 0.0673344
44.4167 29.7247 0.0297397
41.8979 29.807 0.0952341
39.4524 30.3791 0.0689326
42.3536 28.3376 2
39.8374 28.9035 2
37.4879 30.1225 2
35.6657 32.3158 2
40.0254 27.523 3.97173
37.4955 28.5856 3.90407
35.5155 30.3682 3.92979
34.0415 32.6426 3.92375
30.923 16.8224 3.98349
31.9117 14.4659 2
34.0904 12.9218 0.0163358
31.1842 11.974 0.0152812
43.0822 26.4996 0.00416588
40.9235 23.2698 0.0169385
33.6053 15.8599 0.0168241
35.8464 17.4904 0.0171297
38.4219 20.3045 0.0166646
33.547 17.3676 2
35.5821 20.0556 2
40.4592 25.6146 2
38.0802 22.8307 2
32.8603 19.772 3.98471
37.7966 25.1288 4.02763
35.2026 22.614 3.98277
35.7488 37.4963 3.95716
37.4965 37.4924 2
39.2468 37.4844 0.0426221
39.8297 51.9549 0.000123734
38.7539 48.7646 -0.0107057
37.4951 39.1808 0.0605053
37.5021 46.4068 0.0989906
35.5297 44.6281 0.0716169
35.7502 40.8941 0.0269953
34.0488 42.3481 0.0762585
37.6706 51.0622 2
35.7548 39.1864 2
34.0823 40.806 2
36.8795 48.4241 2
32.8987 42.0101 2
33.7505 43.8801 2
35.158 46.1013 2
35.4301 50.1946 4.00865
33.9934 39.1848 3.96859
32.5209 40.8832 3.91123
32.2487 42.7044 3.92311
33.111 45.186 3.91166
34.2797 47.475 3.96991
36.7169 53.2547 0.00317693
34.3518 52.5116 2
31.972 51.2411 3.9897
33.2219 55.5334 0.0139648
30.5015 53.4348 2
28.3974 51.649 3.97993
28.6748 55.3322 0.0188942
26.8598 53.4649 2
25.0462 51.7874 3.9725
25.2943 55.1635 0.0222444
23.5494 53.5056 2
21.9332 51.8315 3.9724
19.1735 51.6566 3.97296
18.9028 54.329 3.97655
20.4441 53.2479 2
18.4361 56.7421 3.98184
19.918 55.853 2
21.7925 55.3667 0.0237642
18.3632 59.1258 3.98133
19.4303 57.9103 2
20.2083 57.049 0.0182772
18.616 61.7759 3.98458
19.7026 60.219 2
20.6392 58.798 0.018542
19.1259 64.6805 3.98887
20.2058 62.8687 2
21.1638 61.1845 0.0160797
19.8856 67.8107 3.99357
20.9372 65.77 2
21.8936 63.8468 0.0133822
22.8357 66.7405 0.0100862
21.9113 68.8741 2
20.9142 71.1327 4
24.009 69.8069 0.00612819
23.1494 72.1455 2
25.446 73.0099 0
23.0942 12.7772 3.98494
23.9708 10.1613 3.98671
25.0214 7.30895 3.98947
25.8583 9.37417 2
26.279 4.32732 3.99365
27.0674 6.53829 2
27.819 8.64674 0.01265
27.7943 1.27781 4
28.4871 3.64284 2
29.1527 5.87475 0.00993517
30.1841 0.720551 2
30.7251 3.09721 0.00587374
32.6053 0.320823 0
35.7501 35.8082 3.96347
37.4968 35.8102 2
39.2463 35.8083 0.0366842
24.7751 12.062 2
23.7491 14.3463 2
22.4773 15.0229 3.98382
25.3552 13.8958 3.98419
24.0216 15.6081 3.98344
26.6202 11.3796 0.0146888
29.223 12.6306 0.0152375
27.2892 13.3634 2
29.7777 14.1884 2
28.3534 15.963 3.98409
34.0851 34.1895 3.96177
35.7465 34.1053 2
37.4918 34.0721 0.0384486
35.6675 32.3165 0.0673279
37.488 30.1176 0.0671309
42.3421 28.3499 0.047346
39.8191 28.9165 0.0915783
40.0319 27.5122 2
37.4954 28.5691 2
35.5033 30.3713 2
34.0419 32.6404 2
37.6183 27.2057 3.97451
35.1493 28.9003 3.90732
33.7431 31.1153 3.92165
32.9017 32.9806 3.89807
30.2039 19.3248 3.98484
30.9229 16.8219 2
31.9118 14.4666 0.0162334
40.4603 25.6163 -0.0111738
38.0804 22.8305 0.00845645
33.5474 17.3676 0.0155375
35.5824 20.0567 0.016238
32.8595 19.7724 2
35.2022 22.6112 2
37.7976 25.1323 2
32.306 22.384 3.98428
34.9528 25.1415 4.00503
33.9453 37.4968 3.96727
35.7491 37.4966 2
37.4963 37.4926 0.0705934
37.6714 51.0566 -0.00886286
36.8832 48.4122 0.00494365
35.7545 39.1864 0.0360915
35.1808 46.0887 0.0930798
33.7606 43.8732 0.0764193
34.0824 40.8094 0.0396007
32.9033 42.0108 0.102401
35.4296 50.1969 2
33.9937 39.1828 2
32.5184 40.8808 2
34.2727 47.5039 2
32.2344 42.7066 2
33.0925 45.2024 2
33.1941 49.1834 4.0076
32.173 39.2746 3.92498
31.0576 41.1828 3.92076
31.2767 43.7863 3.90909
32.2328 46.4013 3.96727
34.3517 52.5133 0.0102287
31.9725 51.2421 2
29.8074 49.7565 3.98302
30.5009 53.4344 0.015394
28.3982 51.6463 2
26.461 50.0277 3.97277
26.8593 53.4646 0.0226924
25.0469 51.7871 2
23.2998 50.2251 3.9724
23.5491 53.5055 0.0253771
21.9337 51.8318 2
20.4313 50.338 3.97278
17.9615 50.3477 3.97481
17.8118 52.8109 3.97488
19.1741 51.6567 2
17.4225 55.358 3.97906
18.9029 54.3294 2
20.4439 53.2476 0.0265822
17.1272 57.8882 3.98226
18.4361 56.7425 2
19.918 55.8527 0.0193455
17.1328 60.5594 3.98316
18.3634 59.1263 2
19.4302 57.9099 0.0188768
17.406 63.4733 3.98768
18.6161 61.7765 2
19.7024 60.2185 0.0171446
17.9417 66.6192 3.99323
19.1259 64.681 2
20.2056 62.8681 0.0143084
18.75 69.9759 4
19.8853 67.8107 2
20.9371 65.7696 0.0104073
21.9116 68.8741 0.00623232
20.9142 71.1327 2
23.1494 72.1454 0
21.5849 13.5972 3.98455
22.1889 11.0205 3.98622
23.0944 12.777 2
23.0394 8.1743 3.98931
23.9709 10.1609 2
24.1167 5.142 3.99348
25.0212 7.30846 2
25.8582 9.37481 0.0130785
25.446 1.99014 4
26.2787 4.32711 2
27.0675 6.53888 0.0103243
27.7943 1.27778 2
28.4873 3.64311 0.00609821
30.1841 0.720592 0
33.9864 35.8102 3.97005
35.7502 35.8088 2
37.4968 35.8102 0.0616772
21.302 15.8186 3.98314
24.775 12.0625 0.0146944
23.7489 14.3465 0.0156906
25.3554 13.8954 2
22.4776 15.0229 2
24.022 15.608 2
23.2605 16.2395 3.9832
25.3769 16.0758 3.98414
27.2892 13.3637 0.0153951
29.7776 14.1891 0.0162286
28.3536 15.9628 2
27.4354 18.7841 3.98457
32.5334 34.1088 3.91236
34.0867 34.1903 2
35.746 34.1049 0.0273791
34.0415 32.6426 0.0762498
35.5155 30.3682 0.0702091
37.4955 28.5856 0.0959251
40.0254 27.523 0.0282732
37.6143 27.1725 2
32.9015 32.9814 2
35.1288 28.885 2
33.7289 31.1032 2
35.0626 27.3266 3.97793
33.077 29.8015 3.90865
32.2349 32.2757 3.92054
29.567 21.919 3.99113
30.2036 19.3248 2
30.923 16.8224 0.0165052
37.7966 25.1288 -0.0276255
35.2026 22.614 0.017229
32.8603 19.772 0.0152911
32.3054 22.3848 2
34.9563 25.1462 2
31.6536 25.5999 3.99372
32.04 37.4975 3.92166
33.9462 37.4961 2
35.7488 37.4963 0.0428446
35.4301 50.1946 -0.00865366
34.2797 47.475 0.0300912
33.9934 39.1848 0.0314078
33.111 45.186 0.0883449
32.2487 42.7044 0.076895
32.5209 40.8832 0.0887745
33.1944 49.1672 2
32.1706 39.2719 2
31.0415 41.1889 2
32.2156 46.4175 2
31.2673 43.7943 2
31.0804 48.0024 4.00105
30.2875 39.4588 3.91317
29.8363 41.976 3.90771
30.3687 44.9819 3.9669
31.972 51.2411 0.0102954
29.8082 49.7513 2
27.8071 48.2253 3.97778
28.3974 51.649 0.0200725
26.4619 50.0261 2
24.5955 48.5028 3.97454
25.0462 51.7874 0.0275037
23.3006 50.2252 2
21.6085 48.8153 3.97484
21.9332 51.8315 0.0276034
20.4322 50.338 2
19.0012 49.1107 3.97638
16.8703 49.3452 3.97755
16.7522 51.4229 3.97543
17.9622 50.348 2
16.3729 53.8863 3.97722
17.8121 52.8111 2
19.1735 51.6566 0.0270403
15.9667 56.4897 3.98098
17.4225 55.3585 2
18.9028 54.329 0.0234508
15.7451 59.2204 3.98299
17.1273 57.8887 2
18.4361 56.7421 0.0181552
15.7862 62.1438 3.98611
17.1329 60.56 2
18.3632 59.1258 0.0186707
16.0882 65.3018 3.99285
17.4061 63.4738 2
18.616 61.7759 0.0154221
16.6661 68.6801 4
17.9414 66.6192 2
19.1259 64.6805 0.0111276
18.75 69.9759 2
19.8856 67.8107 0.00643481
20.9142 71.1327 0
20.2166 14.5859 3.98386
21.5851 13.5971 2
20.5281 11.9901 3.98567
21.1425 9.14393 3.98916
22.1891 11.0202 2
23.0942 12.7772 0.01506
22.0157 6.08097 3.99333
23.0393 8.17394 2
23.9708 10.1613 0.013295
23.1494 2.85457 4
24.1163 5.14187 2
25.0214 7.30895 0.0105337
25.446 1.99012 2
26.279 4.32732 0.00635357
27.7943 1.27781 0
32.177 35.7176 3.92518
33.9873 35.8108 2
35.7501 35.8082 0.0365324
21.3023 15.8182 2
20.2988 16.9525 3.98346
22.0935 16.6239 3.98229
25.3552 13.8958 0.0158111
22.4773 15.0229 0.0161814
24.0216 15.6081 0.0165565
25.3773 16.0756 2
23.2609 16.2395 2
24.1996 18.4378 3.98196
27.0038 21.442 3.98443
28.3534 15.963 0.0159086
27.4354 18.7841 2
31.0631 33.8025 3.91775
32.5319 34.1118 2
34.0851 34.1895 0.0382342
32.9017 32.9806 0.101931
33.7431 31.1153 0.0783494
35.1493 28.9003 0.0926755
37.6183 27.2057 0.025493
35.0519 27.3096 2
32.2311 32.2805 2
33.0599 29.7847 2
32.4907 28.0516 3.98663
31.2481 31.2021 3.91007
28.7683 24.3844 3.98674
29.5662 21.9199 2
30.2039 19.3248 0.015163
34.9528 25.1415 -0.0050256
32.306 22.384 0.0157152
31.6554 25.5878 2
29.5884 27.2892 3.977
30.005 37.4856 3.91405
32.0384 37.4971 2
33.9453 37.4968 0.0327262
33.1941 49.1834 -0.00760175
32.2328 46.4013 0.0327319
32.173 39.2746 0.0750171
31.2767 43.7863 0.0909109
31.0576 41.1828 0.0792409
31.0823 48.0023 2
30.2744 39.4667 2
29.8259 41.9835 2
30.355 44.9935 2
29.1007 46.5546 3.99294
28.8994 39.8677 3.90903
28.5758 43.1917 3.96746
29.8074 49.7565 0.0169823
27.808 48.2212 2
25.8731 46.6925 3.98111
26.461 50.0277 0.027234
24.5965 48.5027 2
22.7483 47.1106 3.9793
23.2998 50.2251 0.0276034
21.6096 48.8151 2
19.9481 47.6387 3.97844
20.4313 50.338 0.0272196
19.0021 49.1109 2
17.6457 48.1925 3.97915
16.1227 48.6947 3.97959
16.8709 49.3456 2
15.831 50.1825 3.97679
15.3621 52.4285 3.97663
16.7527 51.4232 2
17.9615 50.3477 0.0251925
14.8571 54.9895 3.97911
16.373 53.8867 2
17.8118 52.8109 0.0251166
14.4531 57.7492 3.98246
15.9667 56.4902 2
17.4225 55.358 0.0209412
14.2639 60.6982 3.9851
15.7453 59.221 2
17.1272 57.8882 0.0177363
14.3324 63.861 3.99214
15.7863 62.1444 2
17.1328 60.5594 0.0168412
14.6715 67.2507 4
16.088 65.3017 2
17.406 63.4733 0.0123166
16.6661 68.6801 2
17.9417 66.6192 0.00677337
18.75 69.9759 0
18.9301 15.7729 3.98322
20.2168 14.5856 2
18.9776 13.1009 3.98495
21.5849 13.5972 0.0154508
20.5284 11.9899 2
19.3419 10.2315 3.98886
19.9903 7.1456 3.99326
21.1425 9.14361 2
22.1889 11.0205 0.0137839
20.9142 3.86727 4
22.0153 6.08096 2
23.0394 8.1743 0.0106943
23.1494 2.85451 2
24.1167 5.142 0.0065212
25.446 1.99014 0
30.2944 35.5307 3.91623
32.1747 35.7191 2
33.9864 35.8102 0.0299488
21.302 15.8186 0.0168621
22.0937 16.6235 2
20.2989 16.9518 2
19.237 18.399 3.98268
21.7773 17.8397 3.98252
25.3769 16.0758 0.0158607
23.2605 16.2395 0.0167971
24.1997 18.4379 2
22.2698 19.8803 3.98104
24.5803 21.3081 3.98286
26.3921 23.7072 3.9806
27.004 21.4425 2
27.4354 18.7841 0.0154295
29.8332 33.004 3.90761
31.0485 33.7866 2
32.5334 34.1088 0.087639
32.2349 32.2757 0.0794587
33.077 29.8015 0.0913513
35.0626 27.3266 0.0220706
32.4774 28.0463 2
31.2521 31.202 2
30.0408 29.5061 3.97743
27.8298 26.5261 3.97266
28.7687 24.3891 2
29.567 21.919 0.00886622
31.6536 25.5999 0.00627942
29.5809 27.2528 2
28.5547 37.491 3.91531
29.993 37.4884 2
32.04 37.4975 0.0783369
31.0804 48.0024 -0.00105321
30.3687 44.9819 0.0330953
30.2875 39.4588 0.0868265
29.8363 41.976 0.0922906
29.1038 46.5754 2
28.8878 39.8719 2
28.5624 43.2017 2
27.1819 44.8398 3.97955
26.6788 40.629 3.99593
27.8071 48.2253 0.0222209
25.8739 46.691 2
23.9174 45.2406 3.97299
24.5955 48.5028 0.0254557
22.7496 47.11 2
20.8827 45.92 3.97802
21.6085 48.8153 0.0251556
19.9492 47.6391 2
18.293 46.7526 3.97782
19.0012 49.1107 0.0236247
17.6464 48.1931 2
16.3137 47.7245 3.97915
16.1233 48.6952 2
15.1787 49.0252 3.97796
16.8703 49.3452 0.0224507
15.8315 50.1829 2
14.4767 50.9944 3.97681
13.8188 53.4437 3.97807
15.3624 52.4289 2
16.7522 51.4229 0.0245731
13.2472 56.1761 3.98118
14.8571 54.99 2
16.3729 53.8863 0.022778
12.8456 59.1318 3.98497
14.4531 57.7497 2
15.9667 56.4897 0.0190185
12.6777 62.3036 3.99109
14.2639 60.6985 2
15.7451 59.2204 0.0170054
12.7746 65.6939 4
14.3321 63.8608 2
15.7862 62.1438 0.0138941
14.6714 67.2507 2
16.0882 65.3018 0.00714715
16.6661 68.6801 0
17.6636 17.1483 3.98264
18.9301 15.7724 2
17.509 14.3653 3.98413
20.2166 14.5859 0.0161373
18.9779 13.1005 2
17.6375 11.4504 3.98804
20.5281 11.9901 0.0143272
19.342 10.2312 2
18.0504 8.33842 3.99318
18.75 5.0241 4
19.9899 7.14567 2
21.1425 9.14393 0.0108391
20.9142 3.86727 2
22.0157 6.08097 0.00667056
23.1494 2.85457 0
28.8973 35.103 3.90906
30.2806 35.5271 2
32.177 35.7176 0.0748154
22.0935 16.6239 0.0177089
20.2988 16.9525 0.0165438
21.7774 17.8391 2
19.237 18.3983 2
17.9714 19.9309 3.98172
20.8687 19.3673 3.98252
24.1996 18.4378 0.0180448
22.27 19.8795 2
24.5807 21.3085 2
22.3443 21.7048 3.98249
24.6742 23.1529 3.98064
25.417 25.9349 3.97212
26.3931 23.7067 2
27.0038 21.442 0.0155654
28.2169 32.2782 3.95787
29.8251 33.003 2
31.0631 33.8025 0.082246
31.2481 31.2021 0.0899303
32.4907 28.0516 0.0133658
30.0163 29.4956 2
26.9433 29.1176 3.98453
27.8255 26.5233 2
28.7683 24.3844 0.0132562
29.5884 27.2892 0.0230045
26.7816 37.3505 3.97092
28.5448 37.4889 2
30.005 37.4856 0.0859543
29.1007 46.5546 0.00705673
28.5758 43.1917 0.0325427
28.8994 39.8677 0.0909724
27.1855 44.8422 2
26.6734 40.6353 2
25.1615 43.1922 3.96843
23.92 39.4268 3.96811
25.8731 46.6925 0.0188933
23.9164 45.2415 2
21.8514 43.9699 3.97632
22.7483 47.1106 0.0206988
20.884 45.9207 2
18.9527 44.9839 3.97418
19.9481 47.6387 0.0215641
18.2936 46.7536 2
16.6054 46.2232 3.97569
17.6457 48.1925 0.0208523
16.3143 47.7251 2
14.9097 47.6782 3.97713
16.1227 48.6947 0.020412
15.1793 49.0257 2
13.7758 49.5532 3.97704
15.831 50.1825 0.0232093
14.4771 50.9949 2
12.8862 51.8805 3.97754
12.1345 54.533 3.98006
13.8189 53.4443 2
15.3621 52.4285 0.0233675
11.5296 57.4633 3.9842
13.2471 56.1767 2
14.8571 54.9895 0.0208889
11.1322 60.6297 3.99013
12.8456 59.1321 2
14.4531 57.7492 0.0175423
10.9835 64.0165 4
12.6775 62.3033 2
14.2639 60.6982 0.0149007
12.7745 65.694 2
14.3324 63.861 0.00785911
14.6715 67.2507 0
16.395 18.6421 3.98235
17.6636 17.1477 2
16.0996 15.7742 3.98386
18.9301 15.7729 0.0167766
17.5091 14.3646 2
16.0191 12.8039 3.98651
18.9776 13.1009 0.015051
17.6377 11.4499 2
16.2015 9.66154 3.99289
19.3419 10.2315 0.0111407
18.0502 8.33854 2
16.6661 6.31991 4
18.75 5.02404 2
19.9903 7.1456 0.00673612
20.9142 3.86727 0
27.2918 34.738 3.95825
28.8846 35.0995 2
30.2944 35.5307 0.0837684
16.6703 21.3666 3.9791
21.7773 17.8397 0.0174775
19.237 18.399 0.0173204
20.8688 19.3665 2
17.9715 19.9303 2
19.7117 21.5599 3.98445
22.2698 19.8803 0.0189626
24.5803 21.3081 0.0171439
22.3447 21.7034 2
24.6743 23.1528 2
22.819 24.5875 3.97616
24.487 28.5115 3.96848
25.4143 25.9329 2
26.3921 23.7072 0.0194034
26.0591 31.6889 3.99024
28.2071 32.2699 2
29.8332 33.004 0.0923881
30.0408 29.5061 0.0225743
26.9481 29.1176 2
27.8298 26.5261 0.0273445
24.5981 36.8507 3.98089
26.7772 37.3552 2
28.5547 37.491 0.0846894
27.1819 44.8398 0.0204478
26.6788 40.629 0.00406955
25.1592 43.1948 2
23.9177 39.429 2
22.898 41.8092 3.97837
21.6579 38.4971 3.97338
23.9174 45.2406 0.0270115
21.8518 43.9716 2
19.6978 42.8959 3.97368
20.8827 45.92 0.0219819
18.9526 44.9848 2
16.9323 44.3881 3.97196
18.293 46.7526 0.0221769
16.6058 46.2241 2
14.8316 46.0971 3.9743
16.3137 47.7245 0.0208512
14.9102 47.6788 2
13.2843 48.0138 3.97599
15.1787 49.0252 0.0220362
13.7763 49.5537 2
12.1063 50.257 3.97715
14.4767 50.9944 0.023186
12.8865 51.8811 2
11.1305 52.8401 3.97918
10.32 55.714 3.98313
12.1345 54.5337 2
13.8188 53.4437 0.0219256
9.6986 58.8518 3.98897
11.5295 57.4639 2
13.2472 56.1761 0.0188244
9.30605 62.2254 4
11.1319 60.6296 2
12.8456 59.1318 0.0150287
10.9835 64.0165 2
12.6777 62.3036 0.00890596
12.7746 65.6939 0
15.139 20.1763 3.98046
16.3951 18.6415 2
14.7446 17.2969 3.98294
17.6636 17.1483 0.0173602
16.0997 15.7734 2
14.4815 14.2858 3.98551
17.509 14.3653 0.0158718
16.0193 12.8032 2
14.4443 11.1127 3.99238
17.6375 11.4504 0.0119641
16.2013 9.6616 2
14.6715 7.74927 4
18.0504 8.33842 0.00681575
16.6661 6.31988 2
18.75 5.0241 0
25.242 34.2523 3.98752
27.285 34.7374 2
28.8973 35.103 0.0909393
17.842 22.3111 3.98515
15.5148 22.9106 3.97671
16.6702 21.3658 2
20.8687 19.3673 0.0174813
17.9714 19.9309 0.0182791
19.7118 21.559 2
19.6424 24.3645 3.97881
22.3443 21.7048 0.0175132
24.6742 23.1529 0.0193559
22.8171 24.5855 2
21.8671 27.8056 3.96967
23.651 31.1706 3.9713
24.4892 28.511 2
25.417 25.9349 0.0278763
26.0629 31.6845 2
28.2169 32.2782 0.0421285
26.9433 29.1176 0.0154699
22.3754 36.2668 3.97651
24.5956 36.8507 2
26.7816 37.3505 0.0290793
25.1615 43.1922 0.0315678
23.92 39.4268 0.0318931
22.8968 41.8107 2
21.6577 38.4978 2
20.6239 40.6318 3.97453
20.0148 37.7776 3.97519
21.8514 43.9699 0.0236772
19.6979 42.8969 2
17.325 42.1042 3.97407
18.9527 44.9839 0.0258167
16.9323 44.3888 2
14.8312 44.2056 3.97282
16.6054 46.2232 0.0243071
14.8319 46.0978 2
12.9577 46.2994 3.97391
14.9097 47.6782 0.0228678
13.2847 48.0144 2
11.4791 48.5523 3.97594
13.7758 49.5532 0.0229601
12.1067 50.2576 2
10.257 51.0821 3.97835
12.8862 51.8805 0.0224574
11.1307 52.8408 2
9.22901 53.8908 3.98226
8.3821 56.9837 3.98797
10.3199 55.7147 2
12.1345 54.533 0.0199357
7.74927 60.3285 4
9.69823 58.8515 2
11.5296 57.4633 0.0157976
9.306 62.2255 2
11.1322 60.6297 0.00987249
10.9835 64.0165 0
13.9508 21.7432 3.97867
15.139 20.1755 2
13.4447 18.8938 3.98176
16.395 18.6421 0.0176453
14.7448 17.2961 2
13.0265 15.8785 3.98488
16.0996 15.7742 0.0161368
14.4815 14.285 2
12.7816 12.6859 3.99153
16.0191 12.8039 0.0134869
14.4441 11.1127 2
12.7746 9.30605 4
16.2015 9.66154 0.00710956
14.6715 7.74924 2
16.6661 6.31991 0
22.9646 33.7875 3.97386
25.2364 34.251 2
27.2918 34.738 0.0417459
17.6098 24.0297 3.97876
17.8417 22.3101 2
14.2977 24.4432 3.97508
15.5142 22.9094 2
16.6703 21.3666 0.0208955
19.0018 27.1854 3.96832
19.7117 21.5599 0.0155469
19.6409 24.3639 2
21.099 30.6462 3.9715
22.819 24.5875 0.0238429
21.868 27.8051 2
23.647 31.1706 2
24.487 28.5115 0.0315244
26.0591 31.6889 0.00975643
20.1399 35.914 3.9757
22.3727 36.2679 2
24.5981 36.8507 0.0191125
22.898 41.8092 0.021634
21.6579 38.4971 0.0266244
20.6229 40.6321 2
20.0133 37.7779 2
18.0037 39.0001 3.97399
19.6978 42.8959 0.0263221
17.325 42.1049 2
14.7777 41.9208 3.9731
16.9323 44.3881 0.0280438
14.8311 44.2062 2
12.6966 44.395 3.97343
14.8316 46.0971 0.0257023
12.958 46.3001 2
10.9821 46.735 3.97428
13.2843 48.0138 0.0240102
11.4795 48.553 2
9.5214 49.2405 3.97707
12.1063 50.257 0.0228516
10.2573 51.0827 2
8.26238 52.0024 3.98137
11.1305 52.8401 0.0208246
9.22907 53.8913 2
7.19109 55.033 3.98744
6.31991 58.3339 4
8.38163 56.983 2
10.32 55.714 0.0168671
7.74924 60.3285 2
9.6986 58.8518 0.0110304
9.30605 62.2254 0
13.2193 25.3566 3.98051
12.8182 23.2734 3.97722
13.9504 21.7421 2
12.2297 20.5432 3.98076
15.139 20.1763 0.0195415
13.4447 18.8929 2
11.6559 17.5594 3.98458
14.7446 17.2969 0.0170604
13.0266 15.8778 2
11.219 14.3706 3.99038
14.4815 14.2858 0.0144866
12.7814 12.686 2
10.9835 10.9835 4
14.4443 11.1127 0.00762137
12.7745 9.306 2
14.6715 7.74927 0
20.5224 33.3812 3.97309
22.9632 33.7884 2
25.242 34.2523 0.0124797
15.8839 26.3917 3.97216
17.6087 24.0288 2
17.842 22.3111 0.0148485
14.2973 24.4427 2
15.5148 22.9106 0.0232939
18.3373 30.1582 3.97036
19.0021 27.185 2
19.6424 24.3645 0.0211916
21.0958 30.6456 2
21.8671 27.8056 0.0303251
23.651 31.1706 0.0286965
17.6407 35.9583 3.97317
20.1378 35.9142 2
22.3754 36.2668 0.0234893
20.6239 40.6318 0.0254695
20.0148 37.7776 0.0248113
18.0027 39.0002 2
14.2879 39.1751 3.97245
17.325 42.1042 0.0259327
14.7776 41.9213 2
12.3833 42.2787 3.97292
14.8312 44.2056 0.0271786
12.6966 44.3956 2
10.5587 44.8037 3.97415
12.9577 46.2994 0.026089
10.9823 46.7356 2
8.90498 47.3187 3.97559
11.4791 48.5523 0.0240594
9.52175 49.2411 2
7.43004 50.0347 3.98007
10.257 51.0821 0.0216469
8.26265 52.0027 2
6.13176 53.0066 3.98722
9.22901 53.8908 0.017738
7.19067 55.0317 2
5.0241 56.25 4
6.31988 58.3339 2
8.3821 56.9837 0.0120344
7.74927 60.3285 0
13.4569 26.8074 3.97362
11.9329 24.7835 3.97624
13.2191 25.3561 2
11.133 22.2292 3.97924
12.818 23.2726 2
13.9508 21.7432 0.021326
12.2295 20.5421 2
10.3858 19.3147 3.98393
13.4447 18.8938 0.0182415
11.6559 17.5586 2
9.75971 16.1542 3.98924
13.0265 15.8785 0.015124
11.2188 14.3707 2
9.30607 12.7746 4
12.7816 12.6859 0.00847262
10.9835 10.9835 2
12.7746 9.30605 0
17.8108 33.1009 3.97208
20.521 33.3814 2
22.9646 33.7875 0.0261376
15.4707 29.6279 3.97209
15.8837 26.3915 2
17.6098 24.0297 0.0212404
14.2977 24.4432 0.0249224
18.3365 30.1581 2
19.0018 27.1854 0.0316782
21.099 30.6462 0.0285018
14.8903 36.0141 3.97197
17.6389 35.9582 2
20.1399 35.914 0.0243022
12.587 37.8275 3.97235
18.0037 39.0001 0.0260101
14.2871 39.1754 2
11.8993 40.1409 3.97193
14.7777 41.9208 0.026901
12.3833 42.2792 2
10.1577 42.7789 3.97355
12.6966 44.395 0.0265664
10.5587 44.8042 2
8.38289 45.3207 3.9754
10.9821 46.735 0.0257235
8.90523 47.3193 2
6.72216 47.9992 3.97872
9.5214 49.2405 0.0229287
7.43036 50.0349 2
5.20876 50.909 3.98695
8.26238 52.0024 0.0186309
6.13156 53.0052 2
3.86727 54.0858 4
7.19109 55.033 0.0125643
5.02404 56.25 2
6.31991 58.3339 0
12.9121 29.0272 3.97063
11.3638 26.4842 3.97483
13.4568 26.807 2
10.1934 23.9648 3.97733
11.9328 24.7829 2
13.2193 25.3566 0.0194912
9.23819 21.1348 3.98251
11.1329 22.2282 2
12.8182 23.2734 0.0227812
12.2297 20.5432 0.0192442
10.3857 19.3136 2
8.41545 18.0257 3.9884
11.6559 17.5594 0.015424
9.75941 16.1542 2
7.74928 14.6715 4
11.219 14.3706 0.00962409
9.30602 12.7745 2
10.9835 10.9835 0
14.4639 32.8562 3.97224
17.8122 33.1008 2
20.5224 33.3812 0.026914
15.4705 29.6278 2
15.8839 26.3917 0.0278372
18.3373 30.1582 0.0296382
12.8783 36.2064 3.97153
14.8896 36.0141 2
17.6407 35.9583 0.0268252
12.5867 37.8273 2
11.2599 38.3086 3.97118
14.2879 39.1751 0.027546
11.8989 40.1413 2
9.74512 40.7545 3.97242
12.3833 42.2787 0.0270801
10.1577 42.7793 2
7.93205 43.2697 3.97492
10.5587 44.8037 0.0258503
8.38296 45.3211 2
6.12858 45.9043 3.97838
8.90498 47.3187 0.0244051
6.72239 47.9993 2
4.4207 48.7495 3.98651
7.43004 50.0347 0.0199276
5.20871 50.9079 2
2.85457 51.8506 4
6.13176 53.0066 0.0127849
3.86727 54.0858 2
5.0241 56.25 0
12.0535 31.2521 3.97208
10.7767 28.4122 3.97316
12.9119 29.027 2
9.40918 25.7964 3.9761
11.3637 26.4838 2
13.4569 26.8074 0.026379
8.22606 23.0216 3.9805
10.1934 23.9641 2
11.9329 24.7835 0.0237563
7.19756 19.9766 3.98764
9.23813 21.134 2
11.133 22.2292 0.0207602
10.3858 19.3147 0.0160664
8.41498 18.0261 2
6.31992 16.6661 4
9.75971 16.1542 0.0107627
7.74926 14.6714 2
9.30607 12.7746 0
12.0748 34.2919 3.97188
14.464 32.8561 2
17.8108 33.1009 0.0279236
15.4707 29.6279 0.0279122
10.8236 36.6095 3.97134
12.8781 36.2063 2
14.8903 36.0141 0.028031
12.587 37.8275 0.0276511
11.2597 38.3085 2
9.34303 38.8226 3.97117
11.8993 40.1409 0.0280695
9.7449 40.7549 2
7.54483 41.2107 3.97382
10.1577 42.7789 0.026454
7.93208 43.2701 2
5.64063 43.7674 3.97837
8.38289 45.3207 0.0245964
6.12869 45.9044 2
3.76659 46.5357 3.98634
6.72216 47.9992 0.0212806
4.42072 48.7489 2
1.99014 49.554 4
5.20876 50.909 0.0130504
2.85451 51.8506 2
3.86727 54.0858 0
10.9174 32.9166 3.97231
10.0904 30.3797 3.97304
12.0535 31.252 2
8.7178 27.7308 3.9751
10.7766 28.4119 2
12.9121 29.0272 0.0293718
7.3522 24.9819 3.97926
9.40918 25.796 2
11.3638 26.4842 0.0251703
6.11468 22.0016 3.98677
8.22617 23.0212 2
10.1934 23.9648 0.0226727
5.02411 18.75 4
7.19712 19.9776 2
9.23819 21.1348 0.0174874
8.41545 18.0257 0.011596
6.3199 16.6661 2
7.74928 14.6715 0
10.4333 34.9982 3.9717
12.0747 34.2917 2
14.4639 32.8562 0.0277553
9.01596 36.984 3.97098
10.8239 36.6095 2
12.8783 36.2064 0.0284734
11.2599 38.3086 0.0288228
9.34291 38.8227 2
7.22791 39.181 3.97232
9.74512 40.7545 0.0275842
7.54474 41.211 2
5.25691 41.6132 3.97724
7.93205 43.2697 0.0250782
5.64068 43.7675 2
3.24446 44.2813 3.9861
6.12858 45.9043 0.0216158
3.76664 46.5357 2
1.27781 47.2057 4
4.4207 48.7495 0.0134899
1.99012 49.554 2
2.85457 51.8506 0
10.085 33.8796 3.9728
9.38484 32.1525 3.9731
10.9173 32.9164 2
8.06774 29.6947 3.97451
10.0904 30.3795 2
12.0535 31.2521 0.0279246
6.59632 27.0084 3.97842
8.71774 27.7305 2
10.7767 28.4122 0.0268386
5.17013 24.0955 3.98643
7.3523 24.9817 2
9.40918 25.7964 0.0238956
3.86728 20.9142 4
6.11445 22.0028 2
8.22606 23.0216 0.0195004
5.02406 18.75 2
7.19756 19.9766 0.0123591
6.31992 16.6661 0
8.84192 35.2783 3.97158
10.4334 34.9982 2
12.0748 34.2919 0.0281167
7.01277 37.205 3.97189
9.016 36.9839 2
10.8236 36.6095 0.02866
9.34303 38.8226 0.0288315
7.22785 39.1811 2
4.98633 39.4665 3.97544
7.54483 41.2107 0.0261788
5.25689 41.6133 2
2.85533 42.002 3.98512
5.64063 43.7674 0.0216299
3.2445 44.2816 2
0.720592 44.8159 4
3.76659 46.5357 0.0136578
1.27778 47.2057 2
1.99014 49.554 0
8.88245 33.6962 3.97276
10.085 33.8795 2
7.50634 31.6086 3.9742
9.38473 32.1524 2
10.9174 32.9166 0.0276881
5.942 29.0697 3.9778
8.06768 29.6945 2
10.0904 30.3797 0.026964
4.35798 26.2484 3.98625
6.59635 27.0084 2
8.7178 27.7308 0.0249007
2.85458 23.1494 4
5.17002 24.0965 2
7.3522 24.9819 0.0207432
3.86728 20.9142 2
6.11468 22.0016 0.013233
5.02411 18.75 0
6.9629 35.3054 3.97236
8.84196 35.2782 2
10.4333 34.9982 0.0282958
4.83716 37.3393 3.97511
7.0128 37.205 2
9.01596 36.984 0.0290207
7.22791 39.181 0.0276804
4.9863 39.4666 2
2.604 39.7138 3.98343
5.25691 41.6132 0.0227638
2.85539 42.0025 2
0.320823 42.3947 4
3.24446 44.2813 0.0138981
0.720551 44.8159 2
1.27781 47.2057 0
7.1216 33.4604 3.97355
8.88238 33.6961 2
10.085 33.8796 0.0272047
5.41364 31.1338 3.97727
7.50621 31.6085 2
9.38484 32.1525 0.0268966
3.67999 28.4442 3.98587
5.94198 29.0698 2
8.06774 29.6947 0.0254914
1.99015 25.446 4
4.35791 26.249 2
6.59632 27.0084 0.0215794
2.85453 23.1494 2
5.17013 24.0955 0.0135744
3.86728 20.9142 0
4.85147 35.2515 3.97535
6.96293 35.3054 2
8.84192 35.2783 0.0284197
2.49563 37.4285 3.98311
4.83718 37.3394 2
7.01277 37.205 0.0281132
4.98633 39.4665 0.0245648
2.60403 39.7144 2
0.080333 39.9526 4
2.85533 42.002 0.0148754
0.320817 42.3947 2
0.720592 44.8159 0
5.04406 33.1904 3.97641
7.12152 33.4604 2
8.88245 33.6962 0.0272442
3.14468 30.6665 3.98502
5.41352 31.1339 2
7.50634 31.6086 0.025802
1.27793 27.7943 4
3.67997 28.4444 2
5.942 29.0697 0.022197
1.99013 25.446 2
4.35798 26.2484 0.0137544
2.85458 23.1494 0
2.54778 35.159 3.98318
4.85148 35.2516 2
6.9629 35.3054 0.0276357
0 37.5 4
2.49571 37.429 2
4.83716 37.3393 0.0248872
2.604 39.7138 0.0165687
0.0802903 39.9526 2
0.320823 42.3947 0
2.76511 32.9058 3.98396
5.04397 33.1906 2
7.1216 33.4604 0.0264499
0.721173 30.1842 4
3.14464 30.6666 2
5.41364 31.1338 0.0227338
1.27779 27.7943 2
3.67999 28.4442 0.0141283
1.99015 25.446 0
0.0806499 35.0474 4
2.54784 35.1595 2
4.85147 35.2515 0.024655
0 37.5 2
2.49563 37.4285 0.0168918
0.080333 39.9526 0
0.32156 32.6054 4
2.7651 32.9061 2
5.04406 33.1904 0.0235889
0.72056 30.1841 2
3.14468 30.6665 0.0149788
1.27793 27.7943 0
0.0802889 35.0474 2
2.54778 35.159 0.0168207
0 37.5 0
0.320817 32.6053 2
2.76511 32.9058 0.0160378
0.721173 30.1842 0
0.0806499 35.0474 0
0.32156 32.6054 0
CELLS 1910 17190
8 18 6 25 56 2 0 5 16
8 57 23 6 18 17 4 0 2
8 78 36 9 29 31 11 1 7
8 31 11 1 7 79 37 10 30
8 110 57 18 50 48 17 2 14
8 50 18 56 111 14 2 16 49
8 116 62 22 55 52 20 3 15
8 56 25 67 118 16 5 24 53
8 119 63 23 57 54 21 4 17
8 55 22 63 119 15 3 21 54
8 58 26 68 121 18 6 25 56
8 122 65 26 58 57 23 6 18
8 73 31 7 27 142 79 30 71
8 143 78 29 72 73 31 7 27
8 83 147 76 34 32 74 28 8
8 84 148 78 36 33 75 29 9
8 76 34 8 28 148 84 33 75
8 37 79 150 86 10 30 77 35
8 151 87 36 78 80 38 11 31
8 80 38 11 31 152 88 37 79
8 175 100 42 94 96 44 12 40
8 44 96 176 101 12 40 95 43
8 101 176 98 46 43 95 41 13
8 46 98 178 103 13 41 97 45
8 178 103 45 97 147 83 32 74
8 189 116 55 109 106 52 15 47
8 111 56 118 191 49 16 53 107
8 192 119 57 110 108 54 17 48
8 109 55 119 192 47 15 54 108
8 194 122 58 112 110 57 18 50
8 112 58 121 195 50 18 56 111
8 115 61 19 51 197 124 59 113
8 115 61 125 198 51 19 60 114
8 198 125 62 116 114 60 20 52
8 200 127 64 120 116 62 22 55
8 118 67 132 202 53 24 66 117
8 121 68 133 203 56 25 67 118
8 120 64 128 204 55 22 63 119
8 204 128 65 122 119 63 23 57
8 206 134 68 121 123 69 26 58
8 123 69 26 58 207 131 65 122
8 226 147 74 138 140 76 28 70
8 229 148 75 139 143 78 29 72
8 140 76 28 70 229 148 75 139
8 142 79 30 71 231 150 77 141
8 144 80 31 73 232 152 79 142
8 233 151 78 143 144 80 31 73
8 150 86 35 77 235 154 81 145
8 235 154 81 145 146 82 39 91
8 146 82 39 91 236 155 90 165
8 238 157 83 147 149 85 34 76
8 239 158 84 148 151 87 36 78
8 149 85 34 76 239 158 84 148
8 152 88 37 79 241 160 86 150
8 242 161 87 151 153 89 38 80
8 153 89 38 80 243 162 88 152
8 171 98 41 92 265 178 97 169
8 265 178 97 169 226 147 74 138
8 172 96 40 93 266 176 95 170
8 266 176 95 170 171 98 41 92
8 269 175 94 173 172 96 40 93
8 271 180 99 174 175 100 42 94
8 197 124 59 113 271 180 99 174
8 272 181 100 175 177 102 44 96
8 273 182 101 176 179 104 46 98
8 177 102 44 96 273 182 101 176
8 179 104 46 98 275 184 103 178
8 275 184 103 178 238 157 83 147
8 188 115 51 105 283 197 113 186
8 188 115 198 284 105 51 114 187
8 284 198 116 189 187 114 52 106
8 286 200 120 193 189 116 55 109
8 191 118 202 288 107 53 117 190
8 195 121 203 289 111 56 118 191
8 193 120 204 290 109 55 119 192
8 290 204 122 194 192 119 57 110
8 196 123 58 112 292 207 122 194
8 293 206 121 195 196 123 58 112
8 199 126 61 115 297 211 124 197
8 298 212 127 200 198 125 62 116
8 199 126 212 298 115 61 125 198
8 205 129 64 120 300 214 127 200
8 301 217 130 201 202 132 66 117
8 209 136 168 264 301 217 130 201
8 302 219 132 202 203 133 67 118
8 303 220 133 203 206 134 68 121
8 205 129 215 304 120 64 128 204
8 304 215 131 207 204 128 65 122
8 306 221 134 206 208 135 69 123
8 208 135 69 123 307 218 131 207
8 210 137 167 263 309 223 136 209
8 328 238 147 226 230 149 76 140
8 228 146 91 166 329 236 165 260
8 231 150 77 141 330 235 145 227
8 330 235 145 227 228 146 91 166
8 332 239 148 229 233 151 78 143
8 230 149 76 140 332 239 148 229
8 232 152 79 142 334 241 150 231
8 234 153 80 144 335 243 152 232
8 336 242 151 233 234 153 80 144
8 236 155 90 165 338 245 164 259
8 241 160 86 150 339 246 154 235
8 339 246 154 235 237 156 82 146
8 237 156 82 146 340 247 155 236
8 342 249 157 238 240 159 85 149
8 343 250 158 239 242 161 87 151
8 240 159 85 149 343 250 158 239
8 243 162 88 152 345 252 160 241
8 244 163 253 346 153 89 161 242
8 244 163 89 153 347 254 162 243
8 311 224 261 371 210 137 167 263
8 263 167 262 372 209 136 168 264
8 267 179 98 171 375 275 178 265
8 375 275 178 265 328 238 147 226
8 376 273 176 266 267 179 98 171
8 268 177 96 172 376 273 176 266
8 379 272 175 269 268 177 96 172
8 380 271 174 270 269 175 94 173
8 283 197 113 186 380 271 174 270
8 381 277 180 271 272 181 100 175
8 297 211 124 197 381 277 180 271
8 382 278 181 272 274 183 102 177
8 274 183 102 177 383 279 182 273
8 383 279 182 273 276 185 104 179
8 385 281 184 275 342 249 157 238
8 276 185 104 179 385 281 184 275
8 285 199 115 188 393 297 197 283
8 394 298 200 286 284 198 116 189
8 285 199 298 394 188 115 198 284
8 291 205 120 193 396 300 200 286
8 397 301 201 287 288 202 117 190
8 295 209 264 374 397 301 201 287
8 398 302 202 288 289 203 118 191
8 399 303 203 289 293 206 121 195
8 291 205 304 400 193 120 204 290
8 400 304 207 292 290 204 122 194
8 294 208 123 196 402 307 207 292
8 403 306 206 293 294 208 123 196
8 296 210 263 373 405 309 209 295
8 408 312 213 299 297 211 126 199
8 299 213 313 409 199 126 212 298
8 409 313 214 300 298 212 127 200
8 305 216 129 205 411 315 214 300
8 412 318 217 301 302 219 132 202
8 309 223 136 209 412 318 217 301
8 413 320 219 302 303 220 133 203
8 306 221 321 414 206 134 220 303
8 307 218 131 207 415 316 215 304
8 305 216 316 415 205 129 215 304
8 417 322 221 306 308 222 135 208
8 308 222 135 208 418 319 218 307
8 310 225 137 210 420 325 223 309
8 423 326 224 311 310 225 137 210
8 329 236 165 260 441 338 259 368
8 442 342 238 328 333 240 149 230
8 331 237 146 228 443 340 236 329
8 334 241 150 231 444 339 235 330
8 444 339 235 330 331 237 146 228
8 446 343 239 332 336 242 151 233
8 333 240 149 230 446 343 239 332
8 335 243 152 232 448 345 241 334
8 337 244 153 234 449 347 243 335
8 337 244 346 450 234 153 242 336
8 338 245 164 259 452 349 258 367
8 340 247 155 236 453 350 245 338
8 345 252 160 241 454 351 246 339
8 454 351 246 339 341 248 156 237
8 341 248 156 237 455 352 247 340
8 240 159 251 344 342 249 354 457
8 242 161 253 346 343 250 355 458
8 343 250 355 458 240 159 251 344
8 347 254 162 243 460 357 252 345
8 348 255 358 461 244 163 253 346
8 348 255 163 244 462 359 254 347
8 473 360 257 365 363 256 364 482
8 452 349 258 367 365 257 366 485
8 422 324 369 488 311 224 261 371
8 371 261 370 490 263 167 262 372
8 407 311 371 491 296 210 263 373
8 373 263 372 492 295 209 264 374
8 493 385 275 375 442 342 238 328
8 377 276 179 267 493 385 275 375
8 378 274 177 268 494 383 273 376
8 494 383 273 376 377 276 179 267
8 497 382 272 379 378 274 177 268
8 498 381 271 380 379 272 175 269
8 393 297 197 283 498 381 271 380
8 499 387 277 381 382 278 181 272
8 408 312 211 297 499 387 277 381
8 500 388 278 382 384 280 183 274
8 501 389 279 383 386 282 185 276
8 384 280 183 274 501 389 279 383
8 386 282 185 276 503 391 281 385
8 503 391 281 385 457 354 249 342
8 511 408 299 395 393 297 199 285
8 395 299 409 512 285 199 298 394
8 512 409 300 396 394 298 200 286
8 401 305 205 291 514 411 300 396
8 515 412 301 397 398 302 202 288
8 405 309 209 295 515 412 301 397
8 516 413 302 398 399 303 203 289
8 403 306 414 517 293 206 303 399
8 402 307 207 292 518 415 304 400
8 401 305 415 518 291 205 304 400
8 404 308 208 294 520 418 307 402
8 521 417 306 403 404 308 208 294
8 406 310 210 296 523 420 309 405
8 526 423 311 407 406 310 210 296
8 410 314 213 299 527 424 312 408
8 528 425 315 411 409 313 214 300
8 410 314 425 528 299 213 313 409
8 416 317 216 305 530 427 315 411
8 531 430 318 412 413 320 219 302
8 420 325 223 309 531 430 318 412
8 532 432 320 413 414 321 220 303
8 417 322 433 533 306 221 321 414
8 418 319 218 307 534 428 316 415
8 416 317 428 534 305 216 316 415
8 419 323 434 536 308 222 322 417
8 419 323 222 308 537 431 319 418
8 421 327 225 310 539 438 325 420
8 421 327 439 541 310 225 326 423
8 543 437 324 422 423 326 224 311
8 441 338 259 368 559 452 367 486
8 443 340 236 329 560 453 338 441
8 333 240 344 447 442 342 457 561
8 445 341 237 331 562 455 340 443
8 448 345 241 334 563 454 339 444
8 563 454 339 444 445 341 237 331
8 336 242 346 450 446 343 458 565
8 446 343 458 565 333 240 344 447
8 449 347 243 335 567 460 345 448
8 451 348 244 337 568 462 347 449
8 451 348 461 569 337 244 346 450
8 570 463 349 452 473 360 257 365
8 453 350 245 338 570 463 349 452
8 455 352 247 340 571 464 350 453
8 460 357 252 345 572 465 351 454
8 572 465 351 454 456 353 248 341
8 456 353 248 341 573 466 352 455
8 344 251 356 459 457 354 468 575
8 458 355 469 576 344 251 356 459
8 346 253 358 461 458 355 469 576
8 462 359 254 347 578 471 357 460
8 348 255 359 462 461 358 472 579
8 591 474 360 473 475 361 256 363
8 475 361 256 363 594 477 362 479
8 363 256 364 482 479 362 480 603
8 590 473 365 484 481 363 482 605
8 482 364 257 365 606 483 366 485
8 559 452 367 486 484 365 485 607
8 542 436 487 609 422 324 369 488
8 525 422 488 611 407 311 371 491
8 488 369 489 612 371 261 370 490
8 491 371 490 613 373 263 372 492
8 495 386 276 377 614 503 385 493
8 614 503 385 493 561 457 342 442
8 615 501 383 494 495 386 276 377
8 496 384 274 378 615 501 383 494
8 618 500 382 497 496 384 274 378
8 619 499 381 498 497 382 272 379
8 511 408 297 393 619 499 381 498
8 620 505 387 499 500 388 278 382
8 527 424 312 408 620 505 387 499
8 502 390 506 621 384 280 388 500
8 622 507 389 501 504 392 282 386
8 502 390 280 384 622 507 389 501
8 504 392 282 386 624 509 391 503
8 624 509 391 503 575 468 354 457
8 513 410 299 395 630 527 408 511
8 631 528 411 514 512 409 300 396
8 513 410 528 631 395 299 409 512
8 519 416 305 401 633 530 411 514
8 634 531 412 515 516 413 302 398
8 523 420 309 405 634 531 412 515
8 635 532 413 516 517 414 303 399
8 521 417 533 636 403 306 414 517
8 520 418 307 402 637 534 415 518
8 519 416 534 637 401 305 415 518
8 522 419 308 404 639 537 418 520
8 522 419 536 640 404 308 417 521
8 524 421 310 406 642 539 420 523
8 524 421 541 644 406 310 423 526
8 646 543 422 525 526 423 311 407
8 529 426 314 410 647 544 424 527
8 528 425 545 648 411 315 427 530
8 529 426 545 648 410 314 425 528
8 535 429 317 416 649 546 427 530
8 650 548 430 531 532 432 320 413
8 539 438 325 420 650 548 430 531
8 533 433 550 651 414 321 432 532
8 536 434 551 652 417 322 433 533
8 537 431 319 418 653 547 428 534
8 535 429 547 653 416 317 428 534
8 538 435 552 654 419 323 434 536
8 538 435 323 419 655 549 431 537
8 540 440 327 421 657 556 438 539
8 540 440 557 659 421 327 439 541
8 541 439 555 660 423 326 437 543
8 661 554 436 542 543 437 324 422
8 676 570 452 559 590 473 365 484
8 560 453 338 441 676 570 452 559
8 562 455 340 443 677 571 453 560
8 447 344 459 566 561 457 575 678
8 564 456 341 445 679 573 455 562
8 567 460 345 448 680 572 454 563
8 680 572 454 563 564 456 341 445
8 565 458 576 682 447 344 459 566
8 450 346 461 569 565 458 576 682
8 568 462 347 449 684 578 460 567
8 451 348 462 568 569 461 579 685
8 686 580 463 570 591 474 360 473
8 571 464 350 453 686 580 463 570
8 573 466 352 455 687 581 464 571
8 572 465 582 688 460 357 471 578
8 574 467 582 688 456 353 465 572
8 574 467 353 456 689 583 466 573
8 459 356 470 577 575 468 585 691
8 576 469 586 692 459 356 470 577
8 461 358 472 579 576 469 586 692
8 462 359 471 578 579 472 588 694
8 704 591 473 590 593 475 363 481
8 595 476 592 705 475 361 474 591
8 593 475 363 481 707 594 479 602
8 594 477 362 479 709 598 478 600
8 595 476 361 475 711 597 477 594
8 479 362 480 603 600 478 601 720
8 481 363 482 605 602 479 603 722
8 603 480 364 482 723 604 483 606
8 605 482 365 484 724 606 485 607
8 656 553 608 726 542 436 487 609
8 645 542 609 728 525 422 488 611
8 609 487 610 729 488 369 489 612
8 611 488 612 730 491 371 490 613
8 616 504 386 495 731 624 503 614
8 731 624 503 614 678 575 457 561
8 732 622 501 615 616 504 386 495
8 617 502 384 496 732 622 501 615
8 617 502 621 735 496 384 500 618
8 736 620 499 619 618 500 382 497
8 630 527 408 511 736 620 499 619
8 621 506 626 737 500 388 505 620
8 647 544 424 527 737 626 505 620
8 623 508 627 738 502 390 506 621
8 623 508 390 502 739 628 507 622
8 625 510 628 739 504 392 507 622
8 740 629 509 624 691 585 468 575
8 625 510 392 504 740 629 509 624
8 632 529 410 513 744 647 527 630
8 631 528 648 745 514 411 530 633
8 632 529 648 745 513 410 528 631
8 638 535 416 519 746 649 530 633
8 747 650 531 634 635 532 413 516
8 642 539 420 523 747 650 531 634
8 636 533 651 748 517 414 532 635
8 640 536 652 749 521 417 533 636
8 639 537 418 520 750 653 534 637
8 638 535 653 750 519 416 534 637
8 641 538 419 522 751 655 537 639
8 641 538 654 752 522 419 536 640
8 643 540 421 524 753 657 539 642
8 643 540 659 755 524 421 541 644
8 644 541 660 757 526 423 543 646
8 758 661 542 645 646 543 422 525
8 529 426 544 647 648 545 662 759
8 530 427 545 648 649 546 663 760
8 535 429 546 649 653 547 664 761
8 762 666 548 650 651 550 432 532
8 657 556 438 539 762 666 548 650
8 652 551 668 763 533 433 550 651
8 654 552 669 764 536 434 551 652
8 655 549 431 537 765 665 547 653
8 538 435 549 655 654 552 667 766
8 661 554 671 768 542 436 553 656
8 658 558 440 540 769 674 556 657
8 658 558 675 770 540 440 557 659
8 659 557 673 771 541 439 555 660
8 660 555 672 772 543 437 554 661
8 788 686 570 676 704 591 473 590
8 677 571 453 560 788 686 570 676
8 679 573 455 562 789 687 571 677
8 566 459 577 683 678 575 691 790
8 681 574 456 564 791 689 573 679
8 680 572 688 792 567 460 578 684
8 681 574 688 792 564 456 572 680
8 682 576 692 794 566 459 577 683
8 569 461 579 685 682 576 692 794
8 568 462 578 684 685 579 694 796
8 687 581 464 571 798 696 580 686
8 798 696 580 686 705 592 474 591
8 689 583 466 573 799 697 581 687
8 688 582 698 800 578 471 588 694
8 690 584 698 800 574 467 582 688
8 690 584 467 574 801 699 583 689
8 693 587 701 803 577 470 585 691
8 693 587 470 577 804 702 586 692
8 695 589 702 804 579 472 586 692
8 695 589 472 579 805 703 588 694
8 708 595 705 813 593 475 591 704
8 710 596 706 814 595 476 592 705
8 707 594 479 602 816 709 600 719
8 708 595 475 593 817 711 594 707
8 709 598 478 600 819 715 599 717
8 711 597 477 594 820 714 598 709
8 710 596 476 595 822 713 597 711
8 600 478 601 720 717 599 718 832
8 602 479 603 722 719 600 720 834
8 720 601 480 603 835 721 604 723
8 722 603 482 605 836 723 606 724
8 767 670 725 839 656 553 608 726
8 756 656 726 841 645 542 609 728
8 726 608 727 842 609 487 610 729
8 728 609 729 843 611 488 612 730
8 844 740 624 731 790 691 575 678
8 733 625 504 616 844 740 624 731
8 734 623 502 617 845 739 622 732
8 733 625 739 845 616 504 622 732
8 734 623 738 846 617 502 621 735
8 735 621 737 847 618 500 620 736
8 744 647 527 630 847 737 620 736
8 621 506 627 738 737 626 741 848
8 647 544 626 737 759 662 741 848
8 623 508 628 739 738 627 742 849
8 740 629 585 691 850 743 700 802
8 625 510 629 740 739 628 743 850
8 632 529 647 744 745 648 759 854
8 633 530 648 745 746 649 760 855
8 638 535 649 746 750 653 761 856
8 857 762 650 747 748 651 532 635
8 753 657 539 642 857 762 650 747
8 749 652 763 858 636 533 651 748
8 752 654 764 859 640 536 652 749
8 751 655 537 639 860 765 653 750
8 641 538 655 751 752 654 766 861
8 754 658 540 643 862 769 657 753
8 754 658 770 863 643 540 659 755
8 755 659 771 864 644 541 660 757
8 758 661 768 866 645 542 656 756
8 757 660 772 867 646 543 661 758
8 759 662 773 868 648 545 663 760
8 649 546 663 760 761 664 774 871
8 765 665 547 653 872 775 664 761
8 873 777 666 762 763 668 550 651
8 769 674 556 657 873 777 666 762
8 764 669 779 874 652 551 668 763
8 654 552 667 766 764 669 778 875
8 655 549 665 765 766 667 776 876
8 768 671 782 877 656 553 670 767
8 772 672 783 878 661 554 671 768
8 658 558 674 769 770 675 786 879
8 659 557 675 770 771 673 785 881
8 882 784 672 772 771 673 555 660
8 789 687 571 677 897 798 686 788
8 897 798 686 788 813 705 591 704
8 791 689 573 679 898 799 687 789
8 795 693 803 900 683 577 691 790
8 793 690 574 681 901 801 689 791
8 792 688 800 902 684 578 694 796
8 793 690 800 902 681 574 688 792
8 795 693 577 683 903 804 692 794
8 797 695 804 903 685 579 692 794
8 797 695 579 685 904 805 694 796
8 905 806 697 799 798 696 581 687
8 814 706 806 905 705 592 696 798
8 689 583 697 799 801 699 808 907
8 800 698 809 908 694 588 703 805
8 690 584 699 801 800 698 809 908
8 803 701 810 909 691 585 700 802
8 693 587 702 804 803 701 811 910
8 695 589 703 805 804 702 812 911
8 818 710 814 919 708 595 705 813
8 821 712 815 920 710 596 706 814
8 816 709 600 719 922 819 717 831
8 817 711 594 707 923 820 709 816
8 818 710 595 708 924 822 711 817
8 819 715 599 717 926 827 716 829
8 820 714 598 709 927 826 715 819
8 929 825 713 822 820 714 597 711
8 821 712 596 710 930 824 713 822
8 717 599 718 832 829 716 830 942
8 719 600 720 834 831 717 832 944
8 832 718 601 720 945 833 721 835
8 834 720 603 722 946 835 723 836
8 869 780 838 950 767 670 725 839
8 865 767 839 952 756 656 726 841
8 839 725 840 953 726 608 727 842
8 841 726 842 954 728 609 729 843
8 844 740 691 790 955 850 802 899
8 733 625 740 844 845 739 850 955
8 734 623 739 845 846 738 849 956
8 735 621 738 846 847 737 848 957
8 744 647 737 847 854 759 848 957
8 738 627 742 849 848 741 851 958
8 848 741 851 958 759 662 773 868
8 850 743 700 802 959 852 807 906
8 849 742 628 739 959 852 743 850
8 854 759 868 965 745 648 760 855
8 746 649 760 855 856 761 871 966
8 860 765 653 750 967 872 761 856
8 968 873 762 857 858 763 651 748
8 862 769 657 753 968 873 762 857
8 859 764 874 969 749 652 763 858
8 752 654 766 861 859 764 875 970
8 751 655 765 860 861 766 876 971
8 754 658 769 862 863 770 879 972
8 755 659 770 863 864 771 881 974
8 976 882 772 867 864 771 660 757
8 866 768 877 977 756 656 767 865
8 867 772 878 978 758 661 768 866
8 760 663 773 868 871 774 883 980
8 870 781 837 948 982 890 780 869
8 982 890 780 869 877 782 670 767
8 761 664 774 871 872 775 884 984
8 876 776 665 765 985 885 775 872
8 873 777 668 763 986 887 779 874
8 769 674 777 873 879 786 887 986
8 764 669 778 875 874 779 888 987
8 766 667 776 876 875 778 886 988
8 878 783 892 989 768 671 782 877
8 878 783 672 772 990 893 784 882
8 880 787 675 770 991 896 786 879
8 880 787 895 992 770 675 785 881
8 881 785 894 993 771 673 784 882
8 1006 905 799 898 897 798 687 789
8 919 814 905 1006 813 705 798 897
8 791 689 799 898 901 801 907 1007
8 900 803 909 1009 790 691 802 899
8 795 693 804 903 900 803 910 1010
8 902 800 908 1011 796 694 805 904
8 793 690 801 901 902 800 908 1011
8 797 695 805 904 903 804 911 1012
8 799 697 806 905 907 808 912 1013
8 920 815 912 1013 814 706 806 905
8 802 700 810 909 906 807 913 1014
8 801 699 808 907 908 809 914 1015
8 805 703 809 908 911 812 915 1016
8 803 701 811 910 909 810 916 1017
8 911 812 917 1018 804 702 811 910
8 925 821 920 1030 818 710 814 919
8 928 823 921 1031 821 712 815 920
8 922 819 717 831 1033 926 829 941
8 923 820 709 816 1034 927 819 922
8 1035 929 822 924 923 820 711 817
8 925 821 710 818 1036 930 822 924
8 1038 933 825 929 927 826 714 820
8 926 827 716 829 1039 935 828 939
8 927 826 715 819 1040 934 827 926
8 928 823 712 821 1041 931 824 930
8 1042 932 824 930 929 825 713 822
8 829 716 830 942 939 828 940 1058
8 831 717 832 944 941 829 942 1060
8 942 830 718 832 1061 943 833 945
8 944 832 720 834 1062 945 835 946
8 981 889 947 1064 870 781 837 948
8 948 837 949 1067 869 780 838 950
8 975 869 950 1069 865 767 839 952
8 950 838 951 1070 839 725 840 953
8 952 839 953 1071 841 726 842 954
8 955 850 802 899 1072 959 906 1008
8 956 849 739 845 1072 959 850 955
8 846 738 849 956 957 848 958 1073
8 957 848 958 1073 854 759 868 965
8 849 742 852 959 958 851 961 1076
8 960 853 961 1076 906 807 852 959
8 958 851 961 1076 868 773 883 980
8 960 853 807 906 1077 963 913 1014
8 855 760 868 965 966 871 980 1085
8 856 761 871 966 967 872 984 1086
8 971 876 765 860 1087 985 872 967
8 968 873 763 858 1088 986 874 969
8 862 769 873 968 972 879 986 1088
8 859 764 875 970 969 874 987 1089
8 861 766 876 971 970 875 988 1090
8 973 880 770 863 1091 991 879 972
8 973 880 992 1092 863 770 881 974
8 974 881 993 1093 864 771 882 976
8 979 870 948 1066 1094 982 869 975
8 1094 982 869 975 977 877 767 865
8 978 878 772 867 1095 990 882 976
8 978 878 989 1096 866 768 877 977
8 871 774 883 980 984 884 994 1099
8 983 891 999 1100 870 781 889 981
8 1101 1000 890 982 989 892 782 877
8 983 891 781 870 1101 1000 890 982
8 872 775 884 984 985 885 995 1103
8 876 776 885 985 988 886 996 1104
8 986 887 779 874 1105 998 888 987
8 879 786 887 986 991 896 998 1105
8 875 778 886 988 987 888 997 1106
8 990 893 1002 1107 878 783 892 989
8 1108 1003 893 990 993 894 784 882
8 880 787 896 991 992 895 1005 1109
8 993 894 785 881 1110 1004 895 992
8 898 799 905 1006 1007 907 1013 1120
8 1030 920 1013 1120 919 814 905 1006
8 901 801 907 1007 1011 908 1015 1121
8 899 802 909 1009 1008 906 1014 1122
8 900 803 910 1010 1009 909 1017 1123
8 1012 911 1018 1124 903 804 910 1010
8 904 805 908 1011 1012 911 1016 1125
8 1013 912 1020 1127 907 808 914 1015
8 1031 921 1020 1127 920 815 912 1013
8 1019 918 962 1075 1128 1021 913 1014
8 1128 1021 913 1014 1017 916 810 909
8 1015 914 1022 1129 908 809 915 1016
8 1016 915 1023 1130 911 812 917 1018
8 1018 917 1024 1131 910 811 916 1017
8 1037 928 1031 1148 925 821 920 1030
8 928 823 931 1041 1031 921 1032 1149
8 1033 926 829 941 1151 1039 939 1057
8 1034 927 819 922 1152 1040 926 1033
8 1153 1038 929 1035 1034 927 820 923
8 1154 1042 930 1036 1035 929 822 924
8 1037 928 821 925 1155 1041 930 1036
8 1039 935 828 939 1156 1047 938 1055
8 1157 1043 932 1042 1038 933 825 929
8 1038 933 826 927 1158 1045 934 1040
8 1040 934 827 926 1159 1046 935 1039
8 930 824 932 1042 1041 931 1044 1160
8 1051 936 1048 1165 1175 1052 937 1053
8 1156 1047 938 1055 1053 937 1054 1178
8 939 828 940 1058 1055 938 1056 1181
8 941 829 942 1060 1057 939 1058 1183
8 942 830 943 1061 1058 940 1059 1184
8 1060 942 832 944 1185 1061 945 1062
8 1082 964 1063 1188 981 889 947 1064
8 1097 981 1064 1190 979 870 948 1066
8 1064 947 1065 1191 948 837 949 1067
8 1066 948 1067 1193 975 869 950 1069
8 1067 949 1068 1194 950 838 951 1070
8 1069 950 1070 1195 952 839 953 1071
8 956 849 959 1072 1073 958 1076 1197
8 1074 960 1076 1197 1008 906 959 1072
8 1073 958 1076 1197 965 868 980 1085
8 1074 960 906 1008 1198 1077 1014 1122
8 1133 1026 1079 1199 1019 918 962 1075
8 1077 963 913 1014 1200 1080 962 1075
8 960 853 963 1077 1076 961 1078 1201
8 980 883 961 1076 1099 994 1078 1201
8 1210 1083 964 1082 1100 999 889 981
8 966 871 980 1085 1086 984 1099 1215
8 967 872 984 1086 1087 985 1103 1216
8 971 876 985 1087 1090 988 1104 1217
8 1088 986 874 969 1218 1105 987 1089
8 972 879 986 1088 1091 991 1105 1218
8 970 875 988 1090 1089 987 1106 1219
8 973 880 991 1091 1092 992 1109 1220
8 1093 993 881 974 1221 1110 992 1092
8 1222 1108 990 1095 1093 993 882 976
8 1223 1101 982 1094 1096 989 877 977
8 1098 983 870 979 1223 1101 982 1094
8 1095 990 1107 1224 978 878 989 1096
8 1098 983 1100 1225 979 870 981 1097
8 984 884 994 1099 1103 995 1111 1227
8 1102 1001 1115 1228 983 891 999 1100
8 1101 1000 892 989 1229 1116 1002 1107
8 1102 1001 891 983 1229 1116 1000 1101
8 985 885 995 1103 1104 996 1112 1230
8 988 886 996 1104 1106 997 1113 1231
8 1105 998 888 987 1232 1114 997 1106
8 991 896 998 1105 1109 1005 1114 1232
8 1108 1003 1117 1233 990 893 1002 1107
8 1108 1003 894 993 1233 1117 1004 1110
8 992 895 1005 1109 1110 1004 1118 1234
8 1120 1013 1127 1244 1007 907 1015 1121
8 1148 1031 1127 1244 1030 920 1013 1120
8 1121 1015 1129 1245 1011 908 1016 1125
8 1126 1019 1075 1196 1246 1128 1014 1122
8 1246 1128 1014 1122 1123 1017 909 1009
8 1124 1018 1131 1247 1010 910 1017 1123
8 1125 1016 1130 1248 1012 911 1018 1124
8 1127 1020 1137 1254 1015 914 1022 1129
8 1031 921 1032 1149 1127 1020 1137 1254
8 1134 1027 918 1019 1257 1140 1021 1128
8 1257 1140 1021 1128 1131 1024 916 1017
8 1129 1022 1141 1258 1016 915 1023 1130
8 1130 1023 1142 1259 1018 917 1024 1131
8 1261 1144 1025 1132 1133 1026 1079 1199
8 1255 1138 1025 1132 1135 1028 1144 1261
8 1133 1026 918 1019 1262 1145 1027 1134
8 1136 1029 1139 1256 1263 1146 1028 1135
8 1037 928 1041 1155 1148 1031 1149 1275
8 1041 931 1044 1160 1149 1032 1150 1276
8 1151 1039 939 1057 1278 1156 1055 1180
8 1152 1040 926 1033 1279 1159 1039 1151
8 1153 1038 927 1034 1280 1158 1040 1152
8 1281 1157 1042 1154 1153 1038 929 1035
8 1036 930 1042 1154 1155 1041 1160 1282
8 1283 1164 1046 1159 1156 1047 935 1039
8 1165 1048 1164 1283 1053 937 1047 1156
8 1157 1043 933 1038 1284 1161 1045 1158
8 1157 1043 1161 1284 1042 932 1044 1160
8 1040 934 1046 1159 1158 1045 1163 1285
8 1166 1049 1167 1292 1051 936 1048 1165
8 1166 1049 936 1051 1293 1168 1050 1172
8 1051 936 1052 1175 1172 1050 1173 1306
8 1174 1051 1165 1290 1308 1175 1053 1177
8 1053 937 1054 1178 1175 1052 1176 1309
8 1278 1156 1055 1180 1177 1053 1178 1311
8 1055 938 1056 1181 1178 1054 1179 1312
8 1057 939 1058 1183 1180 1055 1181 1314
8 1058 940 1059 1184 1181 1056 1182 1315
8 1060 942 1061 1185 1183 1058 1184 1316
8 1208 1081 1187 1321 1082 964 1063 1188
8 1209 1082 1188 1322 1097 981 1064 1190
8 1188 1063 1189 1323 1064 947 1065 1191
8 1190 1064 1191 1325 1066 948 1067 1193
8 1191 1065 1192 1326 1067 949 1068 1194
8 1067 1193 1069 950 1194 1327 1195 1070
8 1250 1133 1199 1330 1126 1019 1075 1196
8 1198 1077 1014 1122 1331 1200 1075 1196
8 1074 960 1077 1198 1197 1076 1201 1332
8 1085 980 1076 1197 1215 1099 1201 1332
8 1199 1079 1203 1333 1075 962 1080 1200
8 1132 1025 1119 1243 1199 1079 1203 1333
8 1201 1078 963 1077 1334 1202 1080 1200
8 1099 994 1078 1201 1227 1111 1202 1334
8 1343 1207 1081 1208 1210 1083 964 1082
8 1214 1084 1186 1319 1343 1207 1081 1208
8 1345 1210 1082 1209 1225 1100 981 1097
8 1346 1211 1083 1210 1228 1115 999 1100
8 1086 984 1099 1215 1216 1103 1227 1352
8 1087 985 1103 1216 1217 1104 1230 1353
8 1090 988 1104 1217 1219 1106 1231 1354
8 1218 1105 987 1089 1355 1232 1106 1219
8 1091 991 1105 1218 1220 1109 1232 1355
8 1092 992 1109 1220 1221 1110 1234 1356
8 1222 1108 1233 1357 1095 990 1107 1224
8 1222 1108 993 1093 1357 1233 1110 1221
8 1223 1101 989 1096 1358 1229 1107 1224
8 1226 1102 983 1098 1358 1229 1101 1223
8 1226 1102 1228 1359 1098 983 1100 1225
8 1103 995 1111 1227 1230 1112 1235 1360
8 1107 1002 1117 1233 1229 1116 1240 1362
8 1102 1001 1116 1229 1228 1115 1240 1362
8 1104 996 1112 1230 1231 1113 1236 1363
8 1364 1237 1114 1232 1231 1113 997 1106
8 1109 1005 1114 1232 1234 1118 1238 1365
8 1110 1004 1118 1234 1233 1117 1241 1366
8 1242 1374 1255 1138 1119 1243 1132 1025
8 1244 1127 1254 1376 1121 1015 1129 1245
8 1148 1031 1149 1275 1244 1127 1254 1376
8 1245 1129 1258 1377 1125 1016 1130 1248
8 1251 1134 1019 1126 1378 1257 1128 1246
8 1378 1257 1128 1246 1247 1131 1017 1123
8 1248 1130 1259 1379 1124 1018 1131 1247
8 1261 1381 1250 1133 1132 1249 1330 1199
8 1255 1380 1252 1135 1132 1249 1381 1261
8 1250 1133 1019 1126 1382 1262 1134 1251
8 1253 1136 1256 1385 1384 1263 1135 1252
8 1254 1137 1265 1387 1129 1022 1141 1258
8 1149 1032 1150 1276 1254 1137 1265 1387
8 1028 1135 1255 1138 1139 1256 1388 1266
8 1136 1029 1147 1264 1256 1139 1267 1389
8 1390 1268 1140 1257 1259 1142 1024 1131
8 1260 1143 1027 1134 1390 1268 1140 1257
8 1258 1141 1269 1391 1130 1023 1142 1259
8 1262 1145 1027 1134 1393 1271 1143 1260
8 1261 1144 1026 1133 1394 1272 1145 1262
8 1135 1028 1144 1261 1263 1146 1272 1394
8 1136 1029 1146 1263 1264 1147 1273 1395
8 1155 1041 1160 1282 1275 1149 1276 1405
8 1276 1150 1044 1160 1406 1277 1162 1286
8 1408 1283 1159 1279 1278 1156 1039 1151
8 1290 1165 1283 1408 1177 1053 1156 1278
8 1152 1040 1159 1279 1280 1158 1285 1409
8 1281 1157 1038 1153 1410 1284 1158 1280
8 1281 1157 1284 1410 1154 1042 1160 1282
8 1159 1046 1164 1283 1285 1163 1289 1412
8 1292 1167 1289 1412 1165 1048 1164 1283
8 1158 1045 1163 1285 1284 1161 1288 1413
8 1284 1161 1288 1413 1160 1044 1162 1286
8 1291 1166 1292 1418 1174 1051 1165 1290
8 1291 1166 1051 1174 1419 1293 1172 1305
8 1294 1169 1296 1421 1166 1049 1167 1292
8 1293 1168 1050 1172 1422 1295 1171 1303
8 1294 1169 1049 1166 1423 1297 1168 1293
8 1422 1295 1171 1303 1301 1170 1302 1435
8 1172 1050 1173 1306 1303 1171 1304 1438
8 1174 1051 1175 1308 1305 1172 1306 1440
8 1175 1052 1176 1309 1306 1173 1307 1441
8 1177 1053 1178 1311 1308 1175 1309 1443
8 1178 1054 1179 1312 1309 1176 1310 1444
8 1180 1055 1181 1314 1311 1178 1312 1446
8 1056 1181 1312 1179 1182 1315 1447 1313
8 1183 1058 1184 1316 1314 1181 1315 1448
8 1319 1186 1084 1214 1451 1317 1213 1350
8 1319 1186 1318 1453 1208 1081 1187 1321
8 1321 1187 1320 1456 1188 1063 1189 1323
8 1344 1208 1321 1457 1209 1082 1188 1322
8 1322 1188 1323 1458 1190 1064 1191 1325
8 1323 1189 1324 1459 1191 1065 1192 1326
8 1191 1325 1193 1067 1326 1460 1327 1194
8 1242 1374 1243 1119 1328 1462 1335 1204
8 1330 1199 1333 1465 1196 1075 1200 1331
8 1132 1249 1330 1199 1243 1375 1465 1333
8 1332 1201 1077 1198 1466 1334 1200 1331
8 1215 1099 1201 1332 1352 1227 1334 1466
8 1119 1243 1333 1203 1204 1335 1470 1338
8 1333 1203 1338 1470 1200 1080 1202 1334
8 1227 1111 1202 1334 1360 1235 1338 1470
8 1328 1462 1335 1204 1205 1336 1471 1339
8 1337 1206 1340 1472 1464 1329 1205 1336
8 1346 1211 1342 1479 1210 1083 1207 1343
8 1346 1211 1115 1228 1479 1342 1239 1361
8 1348 1212 1084 1214 1479 1342 1207 1343
8 1480 1343 1208 1344 1345 1210 1082 1209
8 1351 1214 1319 1454 1480 1343 1208 1344
8 1481 1346 1210 1345 1359 1228 1100 1225
8 1348 1212 1347 1483 1214 1084 1213 1350
8 1216 1103 1227 1352 1353 1230 1360 1488
8 1217 1104 1230 1353 1354 1231 1363 1489
8 1490 1364 1232 1355 1354 1231 1106 1219
8 1220 1109 1232 1355 1356 1234 1365 1491
8 1221 1110 1234 1356 1357 1233 1366 1492
8 1224 1107 1233 1357 1358 1229 1362 1493
8 1226 1102 1229 1358 1359 1228 1362 1493
8 1230 1112 1235 1360 1363 1236 1367 1496
8 1361 1239 1115 1228 1497 1371 1240 1362
8 1366 1241 1372 1498 1233 1117 1240 1362
8 1364 1237 1113 1231 1499 1368 1236 1363
8 1364 1237 1368 1499 1232 1114 1238 1365
8 1234 1118 1238 1365 1366 1241 1369 1500
8 1507 1373 1242 1374 1388 1266 1138 1255
8 1508 1374 1243 1375 1380 1255 1132 1249
8 1376 1254 1387 1509 1245 1129 1258 1377
8 1275 1149 1276 1405 1376 1254 1387 1509
8 1377 1258 1391 1510 1248 1130 1259 1379
8 1511 1390 1257 1378 1379 1259 1131 1247
8 1383 1260 1134 1251 1511 1390 1257 1378
8 1252 1135 1256 1385 1380 1255 1388 1512
8 1261 1381 1513 1394 1133 1250 1382 1262
8 1135 1252 1384 1263 1261 1381 1513 1394
8 1382 1262 1134 1251 1514 1393 1260 1383
8 1253 1136 1263 1384 1386 1264 1395 1516
8 1253 1136 1264 1386 1385 1256 1389 1517
8 1387 1265 1397 1519 1258 1141 1269 1391
8 1276 1150 1277 1406 1387 1265 1397 1519
8 1256 1139 1267 1389 1388 1266 1398 1520
8 1264 1147 1274 1396 1389 1267 1399 1521
8 1392 1270 1143 1260 1522 1400 1268 1390
8 1390 1268 1142 1259 1522 1400 1269 1391
8 1392 1270 1401 1523 1260 1143 1271 1393
8 1272 1394 1524 1402 1145 1262 1393 1271
8 1395 1273 1146 1263 1524 1402 1272 1394
8 1273 1395 1264 1147 1403 1526 1396 1274
8 1405 1276 1160 1282 1534 1406 1286 1411
8 1414 1287 1407 1535 1286 1162 1277 1406
8 1279 1159 1283 1408 1409 1285 1412 1537
8 1418 1292 1412 1537 1290 1165 1283 1408
8 1280 1158 1285 1409 1410 1284 1413 1538
8 1410 1284 1413 1538 1282 1160 1286 1411
8 1285 1163 1289 1412 1413 1288 1417 1540
8 1421 1296 1417 1540 1292 1167 1289 1412
8 1414 1287 1162 1286 1541 1416 1288 1413
8 1420 1294 1421 1545 1291 1166 1292 1418
8 1419 1293 1172 1305 1546 1422 1303 1437
8 1420 1294 1166 1291 1547 1423 1293 1419
8 1294 1169 1297 1423 1421 1296 1425 1548
8 1423 1297 1168 1293 1549 1424 1295 1422
8 1301 1170 1298 1427 1422 1295 1424 1549
8 1432 1300 1428 1554 1301 1170 1298 1427
8 1431 1299 1428 1554 1560 1430 1300 1432
8 1563 1433 1300 1432 1435 1302 1170 1301
8 1546 1422 1303 1437 1434 1301 1435 1565
8 1303 1171 1304 1438 1435 1302 1436 1566
8 1305 1172 1306 1440 1437 1303 1438 1568
8 1306 1173 1307 1441 1438 1304 1439 1569
8 1308 1175 1309 1443 1440 1306 1441 1571
8 1309 1176 1310 1444 1441 1307 1442 1572
8 1311 1178 1312 1446 1443 1309 1444 1574
8 1179 1312 1444 1310 1313 1447 1575 1445
8 1314 1181 1315 1448 1446 1312 1447 1576
8 1350 1213 1349 1486 1451 1317 1449 1579
8 1451 1317 1450 1581 1319 1186 1318 1453
8 1454 1319 1214 1351 1582 1451 1350 1487
8 1453 1318 1452 1584 1321 1187 1320 1456
8 1454 1319 1453 1585 1344 1208 1321 1457
8 1456 1320 1455 1586 1323 1189 1324 1459
8 1457 1321 1456 1587 1322 1188 1323 1458
8 1458 1323 1459 1588 1325 1191 1326 1460
8 1205 1336 1464 1329 1328 1462 1590 1461
8 1507 1373 1461 1590 1374 1242 1328 1462
8 1508 1374 1462 1591 1375 1243 1335 1467
8 1337 1206 1329 1464 1473 1341 1463 1594
8 1375 1243 1335 1467 1465 1333 1470 1596
8 1465 1333 1470 1596 1331 1200 1334 1466
8 1352 1227 1334 1466 1488 1360 1470 1596
8 1591 1462 1336 1468 1467 1335 1471 1597
8 1469 1337 1472 1598 1595 1464 1336 1468
8 1471 1339 1474 1600 1335 1204 1338 1470
8 1600 1474 1367 1496 1470 1338 1235 1360
8 1336 1205 1340 1472 1471 1339 1475 1601
8 1337 1206 1341 1473 1472 1340 1476 1602
8 1495 1370 1478 1609 1361 1239 1342 1479
8 1348 1212 1342 1479 1483 1347 1478 1609
8 1481 1346 1479 1610 1345 1210 1343 1480
8 1481 1346 1228 1359 1610 1479 1361 1494
8 1484 1348 1214 1351 1610 1479 1343 1480
8 1483 1347 1482 1612 1350 1213 1349 1486
8 1484 1348 1483 1613 1351 1214 1350 1487
8 1353 1230 1360 1488 1489 1363 1496 1616
8 1490 1364 1231 1354 1617 1499 1363 1489
8 1490 1364 1499 1617 1355 1232 1365 1491
8 1356 1234 1365 1491 1492 1366 1500 1619
8 1492 1366 1498 1620 1357 1233 1362 1493
8 1494 1361 1228 1359 1621 1497 1362 1493
8 1495 1370 1239 1361 1622 1504 1371 1497
8 1363 1236 1367 1496 1499 1368 1501 1623
8 1497 1371 1240 1362 1624 1505 1372 1498
8 1625 1503 1372 1498 1500 1369 1241 1366
8 1365 1238 1368 1499 1500 1369 1502 1626
8 1520 1398 1506 1633 1388 1266 1373 1507
8 1634 1507 1374 1508 1512 1388 1255 1380
8 1509 1387 1519 1635 1377 1258 1391 1510
8 1405 1276 1406 1534 1509 1387 1519 1635
8 1515 1392 1260 1383 1636 1522 1390 1511
8 1511 1390 1259 1379 1636 1522 1391 1510
8 1385 1256 1389 1517 1512 1388 1520 1637
8 1513 1394 1262 1382 1638 1524 1393 1514
8 1395 1516 1638 1524 1263 1384 1513 1394
8 1515 1392 1523 1639 1383 1260 1393 1514
8 1516 1395 1526 1640 1386 1264 1396 1518
8 1386 1264 1396 1518 1517 1389 1521 1641
8 1519 1397 1527 1643 1391 1269 1400 1522
8 1535 1407 1527 1643 1406 1277 1397 1519
8 1389 1267 1399 1521 1520 1398 1528 1644
8 1645 1529 1399 1521 1525 1404 1274 1396
8 1392 1270 1400 1522 1523 1401 1531 1646
8 1524 1402 1271 1393 1648 1532 1401 1523
8 1403 1526 1648 1532 1273 1395 1524 1402
8 1525 1404 1274 1396 1649 1533 1403 1526
8 1539 1414 1535 1657 1411 1286 1406 1534
8 1542 1415 1536 1658 1414 1287 1407 1535
8 1409 1285 1412 1537 1538 1413 1540 1660
8 1545 1421 1540 1660 1418 1292 1412 1537
8 1539 1414 1286 1411 1661 1541 1413 1538
8 1540 1417 1544 1663 1413 1288 1416 1541
8 1421 1296 1425 1548 1540 1417 1544 1663
8 1542 1415 1287 1414 1664 1543 1416 1541
8 1420 1294 1423 1547 1545 1421 1548 1666
8 1547 1423 1293 1419 1667 1549 1422 1546
8 1434 1301 1427 1553 1546 1422 1549 1667
8 1423 1297 1424 1549 1548 1425 1550 1668
8 1551 1426 1550 1668 1427 1298 1424 1549
8 1551 1426 1298 1427 1671 1552 1428 1554
8 1562 1432 1554 1674 1434 1301 1427 1553
8 1431 1299 1429 1558 1554 1428 1555 1675
8 1431 1299 1430 1560 1558 1429 1557 1680
8 1560 1430 1300 1432 1683 1559 1433 1563
8 1561 1431 1554 1674 1684 1560 1432 1562
8 1685 1563 1432 1562 1565 1435 1301 1434
8 1435 1302 1436 1566 1563 1433 1564 1686
8 1437 1303 1438 1568 1565 1435 1566 1688
8 1438 1304 1439 1569 1566 1436 1567 1689
8 1440 1306 1441 1571 1568 1438 1569 1691
8 1441 1307 1442 1572 1569 1439 1570 1692
8 1443 1309 1444 1574 1571 1441 1572 1694
8 1310 1444 1572 1442 1445 1575 1695 1573
8 1446 1312 1447 1576 1574 1444 1575 1696
8 1486 1349 1485 1614 1579 1449 1577 1699
8 1451 1317 1449 1579 1581 1450 1578 1701
8 1487 1350 1486 1615 1582 1451 1579 1702
8 1581 1450 1580 1704 1453 1318 1452 1584
8 1582 1451 1581 1705 1454 1319 1453 1585
8 1584 1452 1583 1706 1456 1320 1455 1586
8 1585 1453 1584 1707 1457 1321 1456 1587
8 1587 1456 1586 1708 1458 1323 1459 1588
8 1633 1506 1589 1710 1507 1373 1461 1590
8 1464 1329 1461 1590 1594 1463 1589 1710
8 1468 1336 1462 1591 1595 1464 1590 1711
8 1634 1507 1590 1711 1508 1374 1462 1591
8 1473 1341 1463 1594 1603 1477 1593 1716
8 1469 1337 1464 1595 1599 1473 1594 1717
8 1471 1597 1467 1335 1600 1718 1596 1470
8 1718 1600 1496 1616 1596 1470 1360 1488
8 1336 1468 1597 1471 1472 1598 1719 1601
8 1469 1337 1473 1599 1598 1472 1602 1720
8 1722 1604 1501 1623 1600 1474 1367 1496
8 1475 1601 1471 1339 1604 1722 1600 1474
8 1602 1476 1605 1723 1472 1340 1475 1601
8 1476 1602 1724 1606 1341 1473 1603 1477
8 1483 1347 1478 1609 1612 1482 1608 1731
8 1495 1370 1504 1622 1609 1478 1608 1731
8 1618 1495 1609 1732 1494 1361 1479 1610
8 1484 1348 1479 1610 1613 1483 1609 1732
8 1486 1349 1482 1612 1614 1485 1611 1733
8 1613 1483 1612 1734 1487 1350 1486 1615
8 1489 1363 1496 1616 1617 1499 1623 1736
8 1491 1365 1499 1617 1619 1500 1626 1737
8 1618 1495 1361 1494 1738 1622 1497 1621
8 1739 1625 1498 1620 1619 1500 1366 1492
8 1621 1497 1362 1493 1740 1624 1498 1620
8 1742 1631 1504 1622 1624 1505 1371 1497
8 1743 1628 1502 1626 1623 1501 1368 1499
8 1744 1630 1505 1624 1625 1503 1372 1498
8 1745 1629 1503 1625 1626 1502 1369 1500
8 1520 1398 1528 1644 1633 1506 1632 1751
8 1637 1520 1633 1752 1512 1388 1507 1634
8 1635 1519 1643 1753 1510 1391 1522 1636
8 1657 1535 1643 1753 1534 1406 1519 1635
8 1515 1392 1522 1636 1639 1523 1646 1754
8 1517 1389 1521 1641 1637 1520 1644 1755
8 1524 1638 1756 1648 1393 1514 1639 1523
8 1640 1526 1395 1516 1756 1648 1524 1638
8 1642 1525 1396 1518 1757 1649 1526 1640
8 1758 1645 1521 1641 1642 1525 1396 1518
8 1646 1531 1400 1522 1760 1650 1527 1643
8 1535 1407 1536 1658 1643 1527 1650 1760
8 1521 1399 1529 1645 1644 1528 1651 1761
8 1647 1530 1652 1762 1525 1404 1529 1645
8 1401 1523 1648 1532 1531 1646 1763 1655
8 1525 1404 1533 1649 1647 1530 1654 1765
8 1533 1649 1766 1656 1403 1526 1648 1532
8 1662 1542 1658 1774 1539 1414 1535 1657
8 1542 1415 1543 1664 1658 1536 1659 1775
8 1660 1540 1663 1777 1538 1413 1541 1661
8 1545 1421 1548 1666 1660 1540 1663 1777
8 1662 1542 1414 1539 1778 1664 1541 1661
8 1664 1543 1416 1541 1779 1665 1544 1663
8 1548 1425 1550 1668 1663 1544 1665 1779
8 1547 1423 1549 1667 1666 1548 1668 1781
8 1670 1551 1668 1781 1553 1427 1549 1667
8 1551 1426 1552 1671 1668 1550 1669 1782
8 1670 1551 1427 1553 1784 1671 1554 1674
8 1675 1555 1672 1785 1554 1428 1552 1671
8 1678 1556 1673 1789 1558 1429 1555 1675
8 1561 1431 1558 1681 1674 1554 1675 1790
8 1794 1677 1556 1678 1680 1557 1429 1558
8 1560 1430 1559 1683 1680 1557 1679 1797
8 1561 1431 1560 1684 1681 1558 1680 1798
8 1563 1433 1564 1686 1683 1559 1682 1800
8 1684 1560 1432 1562 1801 1683 1563 1685
8 1565 1435 1566 1688 1685 1563 1686 1802
8 1566 1436 1567 1689 1686 1564 1687 1803
8 1568 1438 1569 1691 1688 1566 1689 1805
8 1569 1439 1570 1692 1689 1567 1690 1806
8 1571 1441 1572 1694 1691 1569 1692 1808
8 1442 1572 1692 1570 1573 1695 1809 1693
8 1574 1444 1575 1696 1694 1572 1695 1810
8 1614 1485 1592 1712 1699 1577 1697 1813
8 1579 1449 1577 1699 1701 1578 1698 1815
8 1615 1486 1614 1735 1702 1579 1699 1816
8 1701 1578 1700 1818 1581 1450 1580 1704
8 1582 1451 1579 1702 1705 1581 1701 1819
8 1704 1580 1703 1820 1584 1452 1583 1706
8 1705 1581 1704 1821 1585 1453 1584 1707
8 1707 1584 1706 1822 1587 1456 1586 1708
8 1710 1589 1506 1633 1824 1709 1632 1751
8 1594 1463 1589 1710 1716 1593 1709 1824
8 1752 1633 1710 1825 1634 1507 1590 1711
8 1595 1464 1590 1711 1717 1594 1710 1825
8 1830 1714 1592 1712 1733 1611 1485 1614
8 1603 1477 1593 1716 1725 1607 1715 1834
8 1599 1473 1594 1717 1721 1603 1716 1835
8 1837 1722 1623 1736 1718 1600 1496 1616
8 1719 1601 1722 1837 1597 1471 1600 1718
8 1602 1720 1598 1472 1723 1838 1719 1601
8 1720 1602 1473 1599 1839 1724 1603 1721
8 1723 1605 1726 1840 1601 1475 1604 1722
8 1840 1726 1628 1743 1722 1604 1501 1623
8 1724 1606 1727 1841 1602 1476 1605 1723
8 1725 1607 1728 1842 1603 1477 1606 1724
8 1612 1482 1608 1731 1733 1611 1730 1849
8 1741 1627 1730 1849 1622 1504 1608 1731
8 1613 1483 1609 1732 1734 1612 1731 1850
8 1618 1495 1622 1738 1732 1609 1731 1850
8 1615 1486 1612 1734 1735 1614 1733 1851
8 1852 1743 1626 1737 1736 1623 1499 1617
8 1853 1745 1625 1739 1737 1626 1500 1619
8 1855 1742 1622 1738 1740 1624 1497 1621
8 1856 1744 1624 1740 1739 1625 1498 1620
8 1741 1627 1504 1622 1857 1746 1631 1742
8 1742 1631 1505 1624 1858 1749 1630 1744
8 1859 1747 1629 1745 1743 1628 1502 1626
8 1860 1748 1630 1744 1745 1629 1503 1625
8 1644 1528 1651 1761 1751 1632 1750 1865
8 1637 1520 1644 1755 1752 1633 1751 1866
8 1754 1646 1522 1636 1867 1760 1643 1753
8 1657 1535 1658 1774 1753 1643 1760 1867
8 1639 1523 1646 1754 1756 1648 1763 1868
8 1641 1521 1645 1758 1755 1644 1761 1869
8 1757 1649 1526 1640 1870 1766 1648 1756
8 1642 1525 1649 1757 1759 1647 1765 1871
8 1759 1647 1762 1872 1642 1525 1645 1758
8 1760 1650 1767 1874 1646 1531 1655 1763
8 1658 1536 1659 1775 1760 1650 1767 1874
8 1762 1652 1768 1875 1645 1529 1651 1761
8 1764 1653 1769 1876 1647 1530 1652 1762
8 1656 1766 1877 1773 1532 1648 1763 1655
8 1771 1879 1765 1654 1653 1764 1647 1530
8 1533 1649 1765 1654 1656 1766 1880 1772
8 1662 1542 1664 1778 1774 1658 1775 1887
8 1664 1543 1665 1779 1775 1659 1776 1888
8 1778 1664 1541 1661 1890 1779 1663 1777
8 1666 1548 1668 1781 1777 1663 1779 1890
8 1782 1669 1780 1891 1668 1550 1665 1779
8 1670 1551 1671 1784 1781 1668 1782 1893
8 1671 1552 1672 1785 1782 1669 1783 1894
8 1790 1675 1785 1896 1674 1554 1671 1784
8 1675 1555 1673 1789 1785 1672 1786 1897
8 1792 1676 1788 1903 1678 1556 1673 1789
8 1795 1678 1789 1904 1681 1558 1675 1790
8 1792 1676 1556 1678 1906 1791 1677 1794
8 1680 1557 1679 1797 1794 1677 1793 1909
8 1910 1794 1678 1795 1798 1680 1558 1681
8 1683 1559 1682 1800 1797 1679 1796 1912
8 1684 1560 1683 1801 1798 1680 1797 1913
8 1686 1564 1687 1803 1800 1682 1799 1915
8 1685 1563 1686 1802 1801 1683 1800 1916
8 1688 1566 1689 1805 1802 1686 1803 1917
8 1689 1567 1690 1806 1803 1687 1804 1918
8 1691 1569 1692 1808 1805 1689 1806 1920
8 1692 1570 1693 1809 1806 1690 1807 1921
8 1694 1572 1695 1810 1808 1692 1809 1922
8 1829 1713 1811 1926 1712 1592 1697 1813
8 1813 1697 1812 1928 1699 1577 1698 1815
8 1735 1614 1712 1828 1816 1699 1813 1929
8 1815 1698 1814 1931 1701 1578 1700 1818
8 1702 1579 1699 1816 1819 1701 1815 1932
8 1818 1700 1817 1933 1704 1580 1703 1820
8 1819 1701 1818 1934 1705 1581 1704 1821
8 1821 1704 1820 1935 1707 1584 1706 1822
8 1824 1709 1632 1751 1937 1823 1750 1865
8 1716 1593 1709 1824 1834 1715 1823 1937
8 1825 1710 1633 1752 1938 1824 1751 1866
8 1717 1594 1710 1825 1835 1716 1824 1938
8 1945 1830 1712 1828 1851 1733 1614 1735
8 1830 1714 1831 1946 1712 1592 1713 1829
8 1947 1832 1714 1830 1849 1730 1611 1733
8 1843 1729 1607 1725 1950 1833 1715 1834
8 1721 1603 1716 1835 1836 1725 1834 1951
8 1836 1725 1842 1953 1721 1603 1724 1839
8 1723 1838 1719 1601 1840 1954 1837 1722
8 1954 1840 1743 1852 1837 1722 1623 1736
8 1724 1839 1720 1602 1841 1955 1838 1723
8 1841 1727 1844 1956 1723 1605 1726 1840
8 1956 1844 1747 1859 1840 1726 1628 1743
8 1728 1842 1724 1606 1845 1957 1841 1727
8 1725 1607 1729 1843 1842 1728 1846 1958
8 1741 1627 1746 1857 1849 1730 1848 1965
8 1734 1612 1731 1850 1851 1733 1849 1966
8 1854 1741 1849 1966 1738 1622 1731 1850
8 1967 1859 1745 1853 1852 1743 1626 1737
8 1968 1860 1744 1856 1853 1745 1625 1739
8 1854 1741 1622 1738 1969 1857 1742 1855
8 1855 1742 1624 1740 1970 1858 1744 1856
8 1857 1746 1631 1742 1971 1861 1749 1858
8 1858 1749 1630 1744 1972 1863 1748 1860
8 1859 1747 1862 1973 1745 1629 1748 1860
8 1875 1768 1864 1977 1761 1651 1750 1865
8 1755 1644 1761 1869 1866 1751 1865 1978
8 1867 1760 1874 1979 1754 1646 1763 1868
8 1774 1658 1775 1887 1867 1760 1874 1979
8 1870 1766 1648 1756 1980 1877 1763 1868
8 1872 1762 1875 1981 1758 1645 1761 1869
8 1757 1649 1766 1870 1871 1765 1880 1982
8 1983 1879 1764 1873 1871 1765 1647 1759
8 1873 1764 1876 1984 1759 1647 1762 1872
8 1877 1773 1655 1763 1986 1881 1767 1874
8 1775 1659 1776 1888 1874 1767 1881 1986
8 1876 1769 1882 1987 1762 1652 1768 1875
8 1878 1770 1883 1988 1764 1653 1769 1876
8 1880 1772 1656 1766 1989 1886 1773 1877
8 1878 1770 1653 1764 1990 1884 1771 1879
8 1765 1654 1772 1880 1879 1771 1885 1991
8 1778 1664 1779 1890 1887 1775 1888 1997
8 1998 1889 1776 1888 1891 1780 1665 1779
8 1893 1782 1891 2000 1781 1668 1779 1890
8 1894 1783 1892 2001 1782 1669 1780 1891
8 1784 1671 1785 1896 1893 1782 1894 2003
8 1897 1786 1895 2004 1785 1672 1783 1894
8 1790 1675 1789 1904 1896 1785 1897 2006
8 1901 1787 1898 2007 1789 1673 1786 1897
8 1903 1788 1900 2013 1789 1673 1787 1901
8 1792 1676 1791 1906 1903 1788 1902 2016
8 1907 1792 1903 2017 1795 1678 1789 1904
8 1906 1791 1677 1794 2019 1905 1793 1909
8 1907 1792 1678 1795 2020 1906 1794 1910
8 1797 1679 1796 1912 1909 1793 1908 2022
8 1798 1680 1797 1913 1910 1794 1909 2023
8 1800 1682 1799 1915 1912 1796 1911 2025
8 1801 1683 1800 1916 1913 1797 1912 2026
8 1803 1687 1804 1918 1915 1799 1914 2028
8 1802 1686 1803 1917 1916 1800 1915 2029
8 1805 1689 1806 1920 1917 1803 1918 2030
8 1806 1690 1807 1921 1918 1804 1919 2031
8 1808 1692 1809 1922 1920 1806 1921 2032
8 1939 1826 1924 2037 1829 1713 1811 1926
8 1926 1811 1925 2039 1813 1697 1812 1928
8 1944 1829 1926 2040 1828 1712 1813 1929
8 1928 1812 1927 2042 1815 1698 1814 1931
8 1929 1813 1928 2043 1816 1699 1815 1932
8 1931 1814 1930 2044 1818 1700 1817 1933
8 1932 1815 1931 2045 1819 1701 1818 1934
8 1934 1818 1933 2046 1821 1704 1820 1935
8 2048 1936 1823 1937 1977 1864 1750 1865
8 1950 1833 1715 1834 2048 1936 1823 1937
8 1938 1824 1751 1866 2049 1937 1865 1978
8 1835 1716 1824 1938 1951 1834 1937 2049
8 1939 1826 1713 1829 2053 1942 1831 1946
8 1940 1827 1923 2035 2053 1942 1826 1939
8 1945 1830 1946 2058 1828 1712 1829 1944
8 2059 1947 1830 1945 1966 1849 1733 1851
8 1947 1832 1730 1849 2060 1948 1848 1965
8 1947 1832 1948 2060 1830 1714 1831 1946
8 1959 1847 1729 1843 2063 1949 1833 1950
8 1952 1843 1725 1836 2064 1950 1834 1951
8 1836 1725 1843 1952 1953 1842 1958 2066
8 1953 1842 1957 2067 1839 1724 1841 1955
8 1841 1955 1838 1723 1956 2068 1954 1840
8 2068 1956 1859 1967 1954 1840 1743 1852
8 1956 1844 1960 2069 1859 1747 1862 1973
8 1845 1957 1841 1727 1960 2069 1956 1844
8 1728 1842 1957 1845 1846 1958 2071 1961
8 1962 2072 1959 1847 1846 1958 1843 1729
8 1971 1861 1964 2077 1857 1746 1848 1965
8 1854 1741 1857 1969 1966 1849 1965 2078
8 1967 1859 1973 2079 1853 1745 1860 1968
8 1970 1858 1744 1856 2080 1972 1860 1968
8 1969 1857 1742 1855 2081 1971 1858 1970
8 1971 1861 1749 1858 2082 1974 1863 1972
8 1973 1862 1975 2083 1860 1748 1863 1972
8 1987 1882 1976 2086 1875 1768 1864 1977
8 1981 1875 1977 2087 1869 1761 1865 1978
8 1980 1877 1763 1868 2088 1986 1874 1979
8 1887 1775 1888 1997 1979 1874 1986 2088
8 1880 1982 2089 1989 1766 1870 1980 1877
8 1984 1876 1987 2090 1872 1762 1875 1981
8 1765 1871 1983 1879 1880 1982 2091 1991
8 1985 1878 1764 1873 2092 1990 1879 1983
8 1985 1878 1988 2093 1873 1764 1876 1984
8 2094 1992 1881 1986 1998 1889 1776 1888
8 1986 1881 1992 2094 1877 1773 1886 1989
8 1988 1883 1993 2095 1876 1769 1882 1987
8 1878 1770 1884 1990 1988 1883 1994 2096
8 1991 1885 1772 1880 2097 1996 1886 1989
8 1879 1771 1885 1991 1990 1884 1995 2098
8 2103 1998 1888 1997 2000 1891 1779 1890
8 2104 1999 1889 1998 2001 1892 1780 1891
8 2003 1894 2001 2106 1893 1782 1891 2000
8 2004 1895 2002 2107 1894 1783 1892 2001
8 2006 1897 2004 2109 1896 1785 1894 2003
8 2007 1898 2005 2110 1897 1786 1895 2004
8 2014 1901 2007 2112 1904 1789 1897 2006
8 2011 1899 2008 2113 1901 1787 1898 2007
8 2119 2010 1899 2011 2013 1900 1787 1901
8 2016 1902 2012 2122 1903 1788 1900 2013
8 2017 1903 2013 2123 1904 1789 1901 2014
8 1906 1791 1905 2019 2016 1902 2015 2125
8 1907 1792 1906 2020 2017 1903 2016 2126
8 1909 1793 1908 2022 2019 1905 2018 2128
8 2020 1906 1794 1910 2129 2019 1909 2023
8 1912 1796 1911 2025 2022 1908 2021 2131
8 1913 1797 1912 2026 2023 1909 2022 2132
8 1915 1799 1914 2028 2025 1911 2024 2134
8 1916 1800 1915 2029 2026 1912 2025 2135
8 1918 1804 1919 2031 2028 1914 2027 2136
8 1917 1803 1918 2030 2029 1915 2028 2137
8 1920 1806 1921 2032 2030 1918 2031 2138
8 1940 1827 1941 2054 2035 1923 2033 2140
8 2035 1923 2034 2143 1939 1826 1924 2037
8 2037 1924 2036 2146 1926 1811 1925 2039
8 2051 1939 2037 2147 1944 1829 1926 2040
8 2039 1925 2038 2149 1928 1812 1927 2042
8 2040 1926 2039 2150 1929 1813 1928 2043
8 2042 1927 2041 2151 1931 1814 1930 2044
8 2043 1928 2042 2152 1932 1815 1931 2045
8 2045 1931 2044 2153 1934 1818 1933 2046
8 2155 2047 1936 2048 2086 1976 1864 1977
8 2063 1949 1833 1950 2155 2047 1936 2048
8 2156 2048 1937 2049 2087 1977 1865 1978
8 2064 1950 1834 1951 2156 2048 1937 2049
8 2051 1939 1829 1944 2160 2053 1946 2058
8 2052 1940 2035 2144 2160 2053 1939 2051
8 2053 1942 1831 1946 2163 2057 1948 2060
8 2055 1943 1827 1940 2163 2057 1942 2053
8 2055 1943 2056 2164 1940 1827 1941 2054
8 2059 1947 1849 1966 2167 2060 1965 2078
8 2059 1947 2060 2167 1945 1830 1946 2058
8 2077 1964 2061 2168 1965 1848 1948 2060
8 2070 1963 1847 1959 2170 2062 1949 2063
8 2065 1959 1843 1952 2171 2063 1950 2064
8 2173 2072 1958 2066 2065 1959 1843 1952
8 1953 1842 1958 2066 2067 1957 2071 2174
8 2068 1956 2069 2175 1967 1859 1973 2079
8 2067 1957 2069 2175 1955 1841 1956 2068
8 1845 1957 2069 1960 1961 2071 2176 2073
8 2069 1960 2073 2176 1973 1862 1975 2083
8 2070 1963 2075 2177 1959 1847 1962 2072
8 1846 1958 2071 1961 1962 2072 2178 2074
8 2077 1964 1861 1971 2182 2076 1974 2082
8 2081 1971 2077 2183 1969 1857 1965 2078
8 2079 1973 2083 2184 1968 1860 1972 2080
8 2081 1971 1858 1970 2185 2082 1972 2080
8 2083 1975 2084 2186 1972 1863 1974 2082
8 2086 1976 1882 1987 2189 2085 1993 2095
8 2090 1987 2086 2190 1981 1875 1977 2087
8 2191 2094 1986 2088 2103 1998 1888 1997
8 2088 1986 2094 2191 1980 1877 1989 2089
8 1991 2091 2192 2097 1880 1982 2089 1989
8 2093 1988 2095 2193 1984 1876 1987 2090
8 1879 1983 2092 1990 1991 2091 2194 2098
8 1985 1878 1990 2092 2093 1988 2096 2195
8 2097 1996 1886 1989 2196 2099 1992 2094
8 2196 2099 1992 2094 2104 1999 1889 1998
8 1994 2096 1988 1883 2100 2197 2095 1993
8 2096 1994 1884 1990 2198 2101 1995 2098
8 1995 2098 2199 2102 1885 1991 2097 1996
8 2203 2104 1998 2103 2106 2001 1891 2000
8 2107 2002 2105 2204 2001 1892 1999 2104
8 2109 2004 2107 2206 2003 1894 2001 2106
8 2110 2005 2108 2207 2004 1895 2002 2107
8 2112 2007 2110 2209 2006 1897 2004 2109
8 2113 2008 2111 2210 2007 1898 2005 2110
8 2120 2011 2113 2212 2014 1901 2007 2112
8 2117 2009 2114 2213 2011 1899 2008 2113
8 2219 2116 2009 2117 2119 2010 1899 2011
8 2222 2118 2010 2119 2122 2012 1900 2013
8 2223 2119 2011 2120 2123 2013 1901 2014
8 2016 1902 2015 2125 2122 2012 2121 2225
8 2126 2016 2122 2226 2017 1903 2013 2123
8 2019 1905 2018 2128 2125 2015 2124 2228
8 2020 1906 2019 2129 2126 2016 2125 2229
8 2022 1908 2021 2131 2128 2018 2127 2231
8 2023 1909 2022 2132 2129 2019 2128 2232
8 2025 1911 2024 2134 2131 2021 2130 2234
8 2026 1912 2025 2135 2132 2022 2131 2235
8 1914 2028 2134 2024 2027 2136 2236 2133
8 2029 1915 2028 2137 2135 2025 2134 2237
8 2030 1918 2031 2138 2137 2028 2136 2238
8 2157 2050 2139 2240 2054 1941 2033 2140
8 2052 1940 2054 2161 2144 2035 2140 2242
8 2140 2033 2141 2243 2035 1923 2034 2143
8 2143 2034 2142 2246 2037 1924 2036 2146
8 2144 2035 2143 2247 2051 1939 2037 2147
8 2146 2036 2145 2249 2039 1925 2038 2149
8 2147 2037 2146 2250 2040 1926 2039 2150
8 2149 2038 2148 2251 2042 1927 2041 2151
8 2150 2039 2149 2252 2043 1928 2042 2152
8 2152 2042 2151 2253 2045 1931 2044 2153
8 2255 2154 2047 2155 2189 2085 1976 2086
8 2170 2062 1949 2063 2255 2154 2047 2155
8 2256 2155 2048 2156 2190 2086 1977 2087
8 2171 2063 1950 2064 2256 2155 2048 2156
8 2258 2159 2050 2157 2164 2056 1941 2054
8 2160 2053 1946 2058 2262 2163 2060 2167
8 2162 2055 1940 2052 2262 2163 2053 2160
8 2162 2055 2164 2263 2052 1940 2054 2161
8 2163 2057 1948 2060 2264 2165 2061 2168
8 2055 1943 2057 2163 2164 2056 2165 2264
8 2182 2076 2166 2268 2077 1964 2061 2168
8 2183 2077 2168 2269 2078 1965 2060 2167
8 2070 1963 2062 2170 2177 2075 2169 2271
8 2172 2070 1959 2065 2272 2170 2063 2171
8 2172 2070 2177 2273 2065 1959 2072 2173
8 2066 1958 2072 2173 2174 2071 2178 2274
8 2067 1957 2071 2174 2175 2069 2176 2275
8 2175 2069 2176 2275 2079 1973 2083 2184
8 2071 1961 2074 2178 2176 2073 2179 2276
8 2176 2073 2179 2276 2083 1975 2084 2186
8 2072 1962 2075 2177 2178 2074 2180 2277
8 2182 2076 1974 2082 2280 2181 2084 2186
8 2183 2077 1971 2081 2281 2182 2082 2185
8 2184 2083 2186 2282 2080 1972 2082 2185
8 2189 2085 1993 2095 2285 2188 2100 2197
8 2190 2086 1987 2090 2286 2189 2095 2193
8 2192 2097 1989 2089 2287 2196 2094 2191
8 2287 2196 2094 2191 2203 2104 1998 2103
8 2194 2098 1991 2091 2288 2199 2097 2192
8 2195 2096 2197 2289 2093 1988 2095 2193
8 2096 2195 2290 2198 1990 2092 2194 2098
8 2097 1996 2099 2196 2199 2102 2200 2291
8 2196 2099 1999 2104 2291 2200 2105 2204
8 2100 2197 2292 2201 1994 2096 2198 2101
8 1995 2098 2198 2101 2102 2199 2293 2202
8 2206 2107 2204 2296 2106 2001 2104 2203
8 2207 2108 2205 2297 2107 2002 2105 2204
8 2209 2110 2207 2299 2109 2004 2107 2206
8 2210 2111 2208 2300 2110 2005 2108 2207
8 2212 2113 2210 2302 2112 2007 2110 2209
8 2213 2114 2211 2303 2113 2008 2111 2210
8 2220 2117 2213 2305 2120 2011 2113 2212
8 2216 2115 2214 2306 2117 2009 2114 2213
8 2216 2115 2009 2117 2311 2217 2116 2219
8 2219 2116 2010 2119 2314 2218 2118 2222
8 2315 2219 2117 2220 2223 2119 2011 2120
8 2122 2012 2121 2225 2222 2118 2221 2317
8 2318 2222 2119 2223 2226 2122 2013 2123
8 2125 2015 2124 2228 2225 2121 2224 2320
8 2126 2016 2125 2229 2226 2122 2225 2321
8 2128 2018 2127 2231 2228 2124 2227 2323
8 2129 2019 2128 2232 2229 2125 2228 2324
8 2131 2021 2130 2234 2231 2127 2230 2326
8 2132 2022 2131 2235 2232 2128 2231 2327
8 2134 2024 2133 2236 2234 2130 2233 2328
8 2135 2025 2134 2237 2235 2131 2234 2329
8 2137 2028 2136 2238 2237 2134 2236 2330
8 2157 2050 2158 2259 2240 2139 2239 2332
8 2257 2157 2240 2334 2161 2054 2140 2242
8 2240 2139 2241 2335 2140 2033 2141 2243
8 2242 2140 2243 2337 2144 2035 2143 2247
8 2243 2141 2244 2338 2143 2034 2142 2246
8 2246 2142 2245 2341 2146 2036 2145 2249
8 2247 2143 2246 2342 2147 2037 2146 2250
8 2249 2145 2248 2343 2149 2038 2148 2251
8 2250 2146 2249 2344 2150 2039 2149 2252
8 2252 2149 2251 2345 2152 2042 2151 2253
8 2169 2271 2347 2254 2062 2170 2255 2154
8 2189 2085 2188 2285 2255 2154 2254 2347
8 2348 2255 2155 2256 2286 2189 2086 2190
8 2272 2170 2063 2171 2348 2255 2155 2256
8 2349 2258 2157 2257 2263 2164 2054 2161
8 2258 2159 2261 2351 2157 2050 2158 2259
8 2258 2159 2056 2164 2351 2261 2165 2264
8 2262 2163 2060 2167 2355 2264 2168 2269
8 2162 2055 2163 2262 2263 2164 2264 2355
8 2357 2266 2165 2264 2268 2166 2061 2168
8 2268 2166 2076 2182 2361 2267 2181 2280
8 2281 2182 2268 2362 2183 2077 2168 2269
8 2271 2169 2270 2364 2177 2075 2180 2277
8 2172 2070 2170 2272 2273 2177 2271 2365
8 2072 2173 2274 2178 2177 2273 2366 2277
8 2071 2174 2275 2176 2178 2274 2367 2276
8 2275 2176 2276 2367 2184 2083 2186 2282
8 2283 2187 2084 2186 2368 2278 2179 2276
8 2178 2074 2180 2277 2276 2179 2278 2368
8 2283 2187 2279 2370 2186 2084 2181 2280
8 2281 2182 2082 2185 2371 2280 2186 2282
8 2188 2285 2374 2284 2100 2197 2292 2201
8 2286 2189 2095 2193 2375 2285 2197 2289
8 2192 2097 2196 2287 2288 2199 2291 2376
8 2287 2196 2104 2203 2376 2291 2204 2296
8 2194 2098 2199 2288 2290 2198 2293 2377
8 2289 2197 2096 2195 2378 2292 2198 2290
8 2291 2200 2105 2204 2379 2294 2205 2297
8 2199 2102 2200 2291 2293 2202 2294 2379
8 2198 2101 2202 2293 2292 2201 2295 2380
8 2299 2207 2297 2383 2206 2107 2204 2296
8 2300 2208 2298 2384 2207 2108 2205 2297
8 2302 2210 2300 2386 2209 2110 2207 2299
8 2303 2211 2301 2387 2210 2111 2208 2300
8 2305 2213 2303 2389 2212 2113 2210 2302
8 2306 2214 2304 2390 2213 2114 2211 2303
8 2310 2216 2306 2392 2220 2117 2213 2305
8 2308 2215 2307 2393 2216 2115 2214 2306
8 2308 2215 2115 2216 2396 2309 2217 2311
8 2310 2216 2117 2220 2398 2311 2219 2315
8 2311 2217 2116 2219 2399 2312 2218 2314
8 2314 2218 2118 2222 2402 2313 2221 2317
8 2315 2219 2119 2223 2403 2314 2222 2318
8 2225 2121 2224 2320 2317 2221 2316 2405
8 2226 2122 2225 2321 2318 2222 2317 2406
8 2228 2124 2227 2323 2320 2224 2319 2408
8 2229 2125 2228 2324 2321 2225 2320 2409
8 2231 2127 2230 2326 2323 2227 2322 2411
8 2232 2128 2231 2327 2324 2228 2323 2412
8 2234 2130 2233 2328 2326 2230 2325 2413
8 2235 2131 2234 2329 2327 2231 2326 2414
8 2237 2134 2236 2330 2329 2234 2328 2415
8 2259 2158 2260 2352 2332 2239 2331 2417
8 2257 2157 2259 2350 2334 2240 2332 2419
8 2240 2139 2239 2332 2335 2241 2333 2420
8 2334 2240 2335 2422 2242 2140 2243 2337
8 2335 2241 2336 2423 2243 2141 2244 2338
8 2337 2243 2338 2425 2247 2143 2246 2342
8 2338 2244 2339 2426 2246 2142 2245 2341
8 2341 2245 2340 2428 2249 2145 2248 2343
8 2342 2246 2341 2429 2250 2146 2249 2344
8 2344 2249 2343 2430 2252 2149 2251 2345
8 2188 2285 2347 2254 2284 2374 2432 2346
8 2347 2254 2346 2432 2271 2169 2270 2364
8 2365 2271 2170 2272 2433 2347 2255 2348
8 2286 2189 2285 2375 2348 2255 2347 2433
8 2349 2258 2351 2435 2257 2157 2259 2350
8 2349 2258 2164 2263 2435 2351 2264 2355
8 2259 2158 2261 2351 2352 2260 2354 2437
8 2356 2265 2354 2437 2264 2165 2261 2351
8 2441 2357 2264 2355 2362 2268 2168 2269
8 2356 2265 2165 2264 2442 2358 2266 2357
8 2443 2359 2266 2357 2361 2267 2166 2268
8 2370 2279 2360 2446 2280 2181 2267 2361
8 2362 2268 2182 2281 2447 2361 2280 2371
8 2180 2277 2368 2278 2270 2364 2449 2363
8 2271 2365 2273 2177 2364 2450 2366 2277
8 2372 2283 2186 2282 2451 2368 2276 2367
8 2178 2274 2367 2276 2277 2366 2451 2368
8 2283 2187 2278 2368 2370 2279 2369 2452
8 2372 2283 2370 2453 2282 2186 2280 2371
8 2284 2374 2455 2373 2201 2292 2380 2295
8 2375 2285 2197 2289 2456 2374 2292 2378
8 2376 2291 2204 2296 2457 2379 2297 2383
8 2288 2199 2291 2376 2377 2293 2379 2457
8 2198 2290 2378 2292 2293 2377 2458 2380
8 2293 2202 2294 2379 2380 2295 2381 2459
8 2384 2298 2381 2459 2297 2205 2294 2379
8 2386 2300 2384 2463 2299 2207 2297 2383
8 2387 2301 2385 2464 2300 2208 2298 2384
8 2389 2303 2387 2466 2302 2210 2300 2386
8 2390 2304 2388 2467 2303 2211 2301 2387
8 2392 2306 2390 2469 2305 2213 2303 2389
8 2393 2307 2391 2470 2306 2214 2304 2390
8 2395 2308 2393 2472 2310 2216 2306 2392
8 2308 2215 2309 2396 2393 2307 2394 2473
8 2395 2308 2216 2310 2475 2396 2311 2398
8 2396 2309 2217 2311 2476 2397 2312 2399
8 2398 2311 2219 2315 2478 2399 2314 2403
8 2399 2312 2218 2314 2479 2400 2313 2402
8 2317 2221 2316 2405 2402 2313 2401 2482
8 2403 2314 2222 2318 2483 2402 2317 2406
8 2320 2224 2319 2408 2405 2316 2404 2485
8 2321 2225 2320 2409 2406 2317 2405 2486
8 2323 2227 2322 2411 2408 2319 2407 2488
8 2324 2228 2323 2412 2409 2320 2408 2489
8 2326 2230 2325 2413 2411 2322 2410 2490
8 2327 2231 2326 2414 2412 2323 2411 2491
8 2329 2234 2328 2415 2414 2326 2413 2492
8 2417 2331 2260 2352 2494 2416 2353 2438
8 2350 2259 2352 2436 2419 2332 2417 2496
8 2332 2239 2331 2417 2420 2333 2418 2497
8 2334 2240 2332 2419 2422 2335 2420 2499
8 2420 2333 2421 2500 2335 2241 2336 2423
8 2422 2335 2423 2502 2337 2243 2338 2425
8 2423 2336 2424 2503 2338 2244 2339 2426
8 2425 2338 2426 2505 2342 2246 2341 2429
8 2426 2339 2427 2506 2341 2245 2340 2428
8 2429 2341 2428 2507 2344 2249 2343 2430
8 2432 2346 2284 2374 2509 2431 2373 2455
8 2432 2346 2431 2509 2364 2270 2363 2449
8 2375 2285 2374 2456 2433 2347 2432 2510
8 2347 2433 2365 2271 2432 2510 2450 2364
8 2350 2259 2351 2435 2436 2352 2437 2514
8 2440 2356 2437 2514 2355 2264 2351 2435
8 2352 2260 2354 2437 2438 2353 2439 2516
8 2356 2265 2358 2442 2437 2354 2439 2516
8 2440 2356 2264 2355 2518 2442 2357 2441
8 2519 2443 2357 2441 2447 2361 2268 2362
8 2443 2359 2444 2520 2357 2266 2358 2442
8 2443 2359 2267 2361 2520 2444 2360 2446
8 2446 2360 2279 2370 2523 2445 2369 2452
8 2453 2370 2446 2524 2371 2280 2361 2447
8 2449 2363 2448 2525 2368 2278 2369 2452
8 2366 2277 2364 2450 2451 2368 2449 2526
8 2372 2283 2368 2451 2453 2370 2452 2527
8 2455 2373 2295 2380 2529 2454 2382 2460
8 2456 2374 2292 2378 2530 2455 2380 2458
8 2377 2293 2379 2457 2458 2380 2459 2531
8 2463 2384 2459 2531 2383 2297 2379 2457
8 2533 2461 2382 2460 2459 2381 2295 2380
8 2464 2385 2461 2533 2384 2298 2381 2459
8 2466 2387 2464 2537 2386 2300 2384 2463
8 2467 2388 2465 2538 2387 2301 2385 2464
8 2469 2390 2467 2540 2389 2303 2387 2466
8 2470 2391 2468 2541 2390 2304 2388 2467
8 2472 2393 2470 2543 2392 2306 2390 2469
8 2393 2307 2394 2473 2470 2391 2471 2544
8 2395 2308 2396 2475 2472 2393 2473 2546
8 2396 2309 2397 2476 2473 2394 2474 2547
8 2475 2396 2311 2398 2549 2476 2399 2478
8 2476 2397 2312 2399 2550 2477 2400 2479
8 2478 2399 2314 2403 2552 2479 2402 2483
8 2479 2400 2313 2402 2553 2480 2401 2482
8 2405 2316 2404 2485 2482 2401 2481 2556
8 2406 2317 2405 2486 2483 2402 2482 2557
8 2408 2319 2407 2488 2485 2404 2484 2559
8 2409 2320 2408 2489 2486 2405 2485 2560
8 2411 2322 2410 2490 2488 2407 2487 2561
8 2412 2323 2411 2491 2489 2408 2488 2562
8 2414 2326 2413 2492 2491 2411 2490 2563
8 2513 2434 2493 2565 2438 2353 2416 2494
8 2496 2417 2352 2436 2567 2494 2438 2515
8 2494 2416 2495 2568 2417 2331 2418 2497
8 2419 2332 2417 2496 2499 2420 2497 2570
8 2497 2418 2498 2571 2420 2333 2421 2500
8 2499 2420 2500 2573 2422 2335 2423 2502
8 2500 2421 2501 2574 2423 2336 2424 2503
8 2502 2423 2503 2576 2425 2338 2426 2505
8 2503 2424 2504 2577 2426 2339 2427 2506
8 2505 2426 2506 2578 2429 2341 2428 2507
8 2509 2431 2373 2455 2580 2508 2454 2529
8 2509 2431 2508 2580 2449 2363 2448 2525
8 2432 2510 2581 2509 2374 2456 2530 2455
8 2432 2510 2450 2364 2509 2581 2526 2449
8 2583 2511 2434 2513 2516 2439 2353 2438
8 2436 2352 2437 2514 2515 2438 2516 2588
8 2440 2356 2442 2518 2514 2437 2516 2588
8 2442 2358 2444 2520 2516 2439 2517 2589
8 2519 2443 2520 2591 2441 2357 2442 2518
8 2519 2443 2361 2447 2591 2520 2446 2524
8 2446 2360 2445 2523 2520 2444 2521 2592
8 2525 2448 2522 2593 2452 2369 2445 2523
8 2524 2446 2370 2453 2594 2523 2452 2527
8 2526 2449 2525 2595 2451 2368 2452 2527
8 2534 2462 2528 2597 2460 2382 2454 2529
8 2530 2455 2380 2458 2598 2529 2460 2532
8 2599 2533 2460 2532 2531 2459 2380 2458
8 2537 2464 2533 2599 2463 2384 2459 2531
8 2534 2462 2382 2460 2601 2535 2461 2533
8 2538 2465 2535 2601 2464 2385 2461 2533
8 2540 2467 2538 2604 2466 2387 2464 2537
8 2541 2468 2539 2605 2467 2388 2465 2538
8 2543 2470 2541 2607 2469 2390 2467 2540
8 2470 2391 2471 2544 2541 2468 2542 2608
8 2472 2393 2473 2546 2543 2470 2544 2610
8 2473 2394 2474 2547 2544 2471 2545 2611
8 2475 2396 2476 2549 2546 2473 2547 2613
8 2476 2397 2477 2550 2547 2474 2548 2614
8 2549 2476 2399 2478 2616 2550 2479 2552
8 2479 2400 2480 2553 2550 2477 2551 2617
8 2552 2479 2402 2483 2619 2553 2482 2557
8 2482 2401 2481 2556 2553 2480 2554 2620
8 2485 2404 2484 2559 2556 2481 2555 2623
8 2486 2405 2485 2560 2557 2482 2556 2624
8 2488 2407 2487 2561 2559 2484 2558 2625
8 2489 2408 2488 2562 2560 2485 2559 2626
8 2491 2411 2490 2563 2562 2488 2561 2627
8 2513 2434 2512 2585 2565 2493 2564 2630
8 2586 2513 2565 2632 2515 2438 2494 2567
8 2565 2493 2566 2633 2494 2416 2495 2568
8 2567 2494 2568 2635 2496 2417 2497 2570
8 2568 2495 2569 2636 2497 2418 2498 2571
8 2570 2497 2571 2638 2499 2420 2500 2573
8 2571 2498 2572 2639 2500 2421 2501 2574
8 2573 2500 2574 2641 2502 2423 2503 2576
8 2574 2501 2575 2642 2503 2424 2504 2577
8 2576 2503 2577 2643 2505 2426 2506 2578
8 2597 2528 2579 2645 2529 2454 2508 2580
8 2580 2508 2579 2645 2525 2448 2522 2593
8 2581 2509 2455 2530 2646 2580 2529 2598
8 2581 2509 2580 2646 2526 2449 2525 2595
8 2583 2511 2582 2648 2513 2434 2512 2585
8 2583 2511 2439 2516 2648 2582 2517 2589
8 2649 2583 2513 2586 2588 2516 2438 2515
8 2589 2517 2444 2520 2653 2587 2521 2592
8 2518 2442 2520 2591 2588 2516 2589 2654
8 2593 2522 2590 2655 2523 2445 2521 2592
8 2524 2446 2523 2594 2591 2520 2592 2656
8 2595 2525 2593 2657 2527 2452 2523 2594
8 2602 2536 2596 2659 2534 2462 2528 2597
8 2600 2534 2597 2660 2532 2460 2529 2598
8 2600 2534 2460 2532 2661 2601 2533 2599
8 2604 2538 2601 2661 2537 2464 2533 2599
8 2602 2536 2462 2534 2663 2603 2535 2601
8 2601 2535 2465 2538 2663 2603 2539 2605
8 2607 2541 2605 2665 2540 2467 2538 2604
8 2608 2542 2606 2666 2541 2468 2539 2605
8 2543 2470 2544 2610 2607 2541 2608 2668
8 2544 2471 2545 2611 2608 2542 2609 2669
8 2546 2473 2547 2613 2610 2544 2611 2671
8 2547 2474 2548 2614 2611 2545 2612 2672
8 2549 2476 2550 2616 2613 2547 2614 2674
8 2550 2477 2551 2617 2614 2548 2615 2675
8 2552 2479 2553 2619 2616 2550 2617 2677
8 2553 2480 2554 2620 2617 2551 2618 2678
8 2557 2482 2556 2624 2619 2553 2620 2680
8 2556 2481 2555 2623 2620 2554 2621 2681
8 2559 2484 2558 2625 2623 2555 2622 2683
8 2560 2485 2559 2626 2624 2556 2623 2684
8 2562 2488 2561 2627 2626 2559 2625 2685
8 2690 2629 2564 2630 2650 2584 2512 2585
8 2586 2513 2585 2651 2632 2565 2630 2691
8 2630 2564 2631 2692 2565 2493 2566 2633
8 2632 2565 2633 2694 2567 2494 2568 2635
8 2633 2566 2634 2695 2568 2495 2569 2636
8 2635 2568 2636 2697 2570 2497 2571 2638
8 2636 2569 2637 2698 2571 2498 2572 2639
8 2638 2571 2639 2700 2573 2500 2574 2641
8 2639 2572 2640 2701 2574 2501 2575 2642
8 2641 2574 2642 2702 2576 2503 2577 2643
8 2597 2528 2596 2659 2645 2579 2644 2704
8 2645 2579 2644 2704 2593 2522 2590 2655
8 2660 2597 2645 2705 2598 2529 2580 2646
8 2646 2580 2645 2705 2595 2525 2593 2657
8 2650 2584 2512 2585 2707 2647 2582 2648
8 2648 2582 2517 2589 2707 2647 2587 2653
8 2649 2583 2648 2708 2586 2513 2585 2651
8 2649 2583 2516 2588 2708 2648 2589 2654
8 2655 2590 2652 2710 2592 2521 2587 2653
8 2654 2589 2520 2591 2711 2653 2592 2656
8 2657 2593 2655 2712 2594 2523 2592 2656
8 2602 2536 2603 2663 2659 2596 2658 2714
8 2662 2602 2659 2715 2600 2534 2597 2660
8 2662 2602 2534 2600 2717 2663 2601 2661
8 2661 2601 2538 2604 2717 2663 2605 2665
8 2666 2606 2664 2718 2605 2539 2603 2663
8 2668 2608 2666 2720 2607 2541 2605 2665
8 2608 2542 2609 2669 2666 2606 2667 2721
8 2610 2544 2611 2671 2668 2608 2669 2723
8 2611 2545 2612 2672 2669 2609 2670 2724
8 2613 2547 2614 2674 2671 2611 2672 2726
8 2614 2548 2615 2675 2672 2612 2673 2727
8 2616 2550 2617 2677 2674 2614 2675 2729
8 2617 2551 2618 2678 2675 2615 2676 2730
8 2619 2553 2620 2680 2677 2617 2678 2732
8 2620 2554 2621 2681 2678 2618 2679 2733
8 2624 2556 2623 2684 2680 2620 2681 2735
8 2681 2621 2555 2623 2736 2682 2622 2683
8 2626 2559 2625 2685 2684 2623 2683 2737
8 2688 2628 2584 2650 2740 2686 2647 2707
8 2688 2628 2687 2742 2650 2584 2629 2690
8 2690 2629 2689 2745 2630 2564 2631 2692
8 2746 2690 2630 2691 2709 2650 2585 2651
8 2691 2630 2692 2747 2632 2565 2633 2694
8 2692 2631 2693 2748 2633 2566 2634 2695
8 2694 2633 2695 2750 2635 2568 2636 2697
8 2695 2634 2696 2751 2636 2569 2637 2698
8 2697 2636 2698 2753 2638 2571 2639 2700
8 2698 2637 2699 2754 2639 2572 2640 2701
8 2700 2639 2701 2755 2641 2574 2642 2702
8 2659 2596 2658 2714 2704 2644 2703 2757
8 2704 2644 2703 2757 2655 2590 2652 2710
8 2660 2597 2659 2715 2705 2645 2704 2758
8 2705 2645 2704 2758 2657 2593 2655 2712
8 2759 2706 2647 2707 2710 2652 2587 2653
8 2709 2650 2585 2651 2760 2707 2648 2708
8 2708 2648 2589 2654 2760 2707 2653 2711
8 2712 2655 2710 2761 2656 2592 2653 2711
8 2763 2713 2658 2714 2718 2664 2603 2663
8 2662 2602 2663 2717 2715 2659 2714 2764
8 2720 2666 2718 2767 2665 2605 2663 2717
8 2768 2719 2664 2718 2721 2667 2606 2666
8 2668 2608 2669 2723 2720 2666 2721 2770
8 2669 2609 2670 2724 2721 2667 2722 2771
8 2671 2611 2672 2726 2723 2669 2724 2773
8 2672 2612 2673 2727 2724 2670 2725 2774
8 2674 2614 2675 2729 2726 2672 2727 2776
8 2675 2615 2676 2730 2727 2673 2728 2777
8 2677 2617 2678 2732 2729 2675 2730 2779
8 2678 2618 2679 2733 2730 2676 2731 2780
8 2680 2620 2681 2735 2732 2678 2733 2782
8 2733 2679 2621 2681 2783 2734 2682 2736
8 2735 2681 2623 2684 2784 2736 2683 2737
8 2740 2686 2647 2707 2787 2738 2706 2759
8 2688 2628 2686 2740 2742 2687 2739 2789
8 2743 2688 2650 2709 2790 2740 2707 2760
8 2742 2687 2741 2792 2690 2629 2689 2745
8 2743 2688 2742 2793 2709 2650 2690 2746
8 2745 2689 2744 2795 2692 2631 2693 2748
8 2746 2690 2745 2796 2691 2630 2692 2747
8 2747 2692 2748 2797 2694 2633 2695 2750
8 2748 2693 2749 2798 2695 2634 2696 2751
8 2750 2695 2751 2800 2697 2636 2698 2753
8 2751 2696 2752 2801 2698 2637 2699 2754
8 2753 2698 2754 2802 2700 2639 2701 2755
8 2763 2713 2756 2804 2714 2658 2703 2757
8 2759 2706 2652 2710 2804 2756 2703 2757
8 2715 2659 2714 2764 2758 2704 2757 2805
8 2758 2704 2757 2805 2712 2655 2710 2761
8 2806 2759 2707 2760 2761 2710 2653 2711
8 2765 2716 2762 2808 2718 2664 2713 2763
8 2809 2763 2714 2764 2767 2718 2663 2717
8 2765 2716 2664 2718 2811 2766 2719 2768
8 2813 2768 2718 2767 2770 2721 2666 2720
8 2814 2769 2719 2768 2771 2722 2667 2721
8 2723 2669 2724 2773 2770 2721 2771 2816
8 2724 2670 2725 2774 2771 2722 2772 2817
8 2726 2672 2727 2776 2773 2724 2774 2819
8 2727 2673 2728 2777 2774 2725 2775 2820
8 2729 2675 2730 2779 2776 2727 2777 2822
8 2730 2676 2731 2780 2777 2728 2778 2823
8 2732 2678 2733 2782 2779 2730 2780 2825
8 2780 2731 2679 2733 2826 2781 2734 2783
8 2782 2733 2681 2735 2827 2783 2736 2784
8 2830 2785 2738 2787 2804 2756 2706 2759
8 2789 2739 2686 2740 2832 2786 2738 2787
8 2790 2740 2707 2760 2833 2787 2759 2806
8 2742 2687 2739 2789 2792 2741 2788 2835
8 2743 2688 2740 2790 2793 2742 2789 2836
8 2792 2741 2791 2838 2745 2689 2744 2795
8 2793 2742 2792 2839 2746 2690 2745 2796
8 2795 2744 2794 2841 2748 2693 2749 2798
8 2796 2745 2795 2842 2747 2692 2748 2797
8 2797 2748 2798 2843 2750 2695 2751 2800
8 2798 2749 2799 2844 2751 2696 2752 2801
8 2800 2751 2801 2845 2753 2698 2754 2802
8 2808 2762 2803 2847 2763 2713 2756 2804
8 2809 2763 2804 2848 2764 2714 2757 2805
8 2806 2759 2710 2761 2848 2804 2757 2805
8 2765 2716 2766 2811 2808 2762 2807 2850
8 2810 2765 2808 2851 2767 2718 2763 2809
8 2810 2765 2718 2767 2852 2811 2768 2813
8 2811 2766 2719 2768 2853 2812 2769 2814
8 2855 2814 2768 2813 2816 2771 2721 2770
8 2856 2815 2769 2814 2817 2772 2722 2771
8 2773 2724 2774 2819 2816 2771 2817 2858
8 2774 2725 2775 2820 2817 2772 2818 2859
8 2776 2727 2777 2822 2819 2774 2820 2861
8 2777 2728 2778 2823 2820 2775 2821 2862
8 2779 2730 2780 2825 2822 2777 2823 2864
8 2823 2778 2731 2780 2865 2824 2781 2826
8 2825 2780 2733 2782 2866 2826 2783 2827
8 2869 2828 2785 2830 2847 2803 2756 2804
8 2871 2829 2786 2832 2830 2785 2738 2787
8 2872 2830 2787 2833 2848 2804 2759 2806
8 2789 2739 2786 2832 2835 2788 2831 2874
8 2836 2789 2740 2790 2875 2832 2787 2833
8 2792 2741 2788 2835 2838 2791 2834 2877
8 2793 2742 2789 2836 2839 2792 2835 2878
8 2838 2791 2837 2880 2795 2744 2794 2841
8 2839 2792 2838 2881 2796 2745 2795 2842
8 2841 2794 2840 2882 2798 2749 2799 2844
8 2842 2795 2841 2883 2797 2748 2798 2843
8 2843 2798 2844 2884 2800 2751 2801 2845
8 2886 2846 2803 2847 2850 2807 2762 2808
8 2851 2808 2847 2887 2809 2763 2804 2848
8 2850 2807 2766 2811 2889 2849 2812 2853
8 2810 2765 2811 2852 2851 2808 2850 2890
8 2852 2811 2768 2813 2891 2853 2814 2855
8 2853 2812 2769 2814 2892 2854 2815 2856
8 2894 2856 2814 2855 2858 2817 2771 2816
8 2817 2772 2818 2859 2856 2815 2857 2895
8 2819 2774 2820 2861 2858 2817 2859 2897
8 2820 2775 2821 2862 2859 2818 2860 2898
8 2822 2777 2823 2864 2861 2820 2862 2900
8 2823 2778 2824 2865 2862 2821 2863 2901
8 2864 2823 2780 2825 2902 2865 2826 2866
8 2904 2867 2828 2869 2886 2846 2803 2847
8 2869 2828 2868 2906 2830 2785 2829 2871
8 2907 2869 2830 2872 2887 2847 2804 2848
8 2871 2829 2870 2909 2832 2786 2831 2874
8 2910 2871 2832 2875 2872 2830 2787 2833
8 2835 2788 2831 2874 2877 2834 2873 2912
8 2836 2789 2832 2875 2878 2835 2874 2913
8 2877 2834 2876 2915 2838 2791 2837 2880
8 2839 2792 2835 2878 2881 2838 2877 2916
8 2880 2837 2879 2917 2841 2794 2840 2882
8 2881 2838 2880 2918 2842 2795 2841 2883
8 2883 2841 2882 2919 2843 2798 2844 2884
8 2921 2885 2846 2886 2889 2849 2807 2850
8 2922 2886 2847 2887 2890 2850 2808 2851
8 2889 2849 2812 2853 2924 2888 2854 2892
8 2890 2850 2811 2852 2925 2889 2853 2891
8 2891 2853 2814 2855 2926 2892 2856 2894
8 2892 2854 2815 2856 2927 2893 2857 2895
8 2858 2817 2859 2897 2894 2856 2895 2929
8 2859 2818 2860 2898 2895 2857 2896 2930
8 2861 2820 2862 2900 2897 2859 2898 2932
8 2862 2821 2863 2901 2898 2860 2899 2933
8 2864 2823 2865 2902 2900 2862 2901 2934
8 2904 2867 2846 2886 2936 2903 2885 2921
8 2904 2867 2903 2936 2869 2828 2868 2906
8 2937 2904 2869 2907 2922 2886 2847 2887
8 2906 2868 2905 2939 2871 2829 2870 2909
8 2907 2869 2906 2940 2872 2830 2871 2910
8 2909 2870 2908 2942 2874 2831 2873 2912
8 2910 2871 2909 2943 2875 2832 2874 2913
8 2912 2873 2911 2945 2877 2834 2876 2915
8 2878 2835 2874 2913 2916 2877 2912 2946
8 2915 2876 2914 2947 2880 2837 2879 2917
8 2916 2877 2915 2948 2881 2838 2880 2918
8 2918 2880 2917 2949 2883 2841 2882 2919
8 2921 2885 2849 2889 2951 2920 2888 2924
8 2952 2921 2886 2922 2925 2889 2850 2890
8 2924 2888 2854 2892 2954 2923 2893 2927
8 2925 2889 2853 2891 2955 2924 2892 2926
8 2926 2892 2856 2894 2956 2927 2895 2929
8 2895 2857 2896 2930 2927 2893 2928 2957
8 2897 2859 2898 2932 2929 2895 2930 2959
8 2898 2860 2899 2933 2930 2896 2931 2960
8 2900 2862 2901 2934 2932 2898 2933 2961
8 2936 2903 2885 2921 2963 2935 2920 2951
8 2936 2903 2935 2963 2906 2868 2905 2939
8 2937 2904 2886 2922 2964 2936 2921 2952
8 2937 2904 2936 2964 2907 2869 2906 2940
8 2939 2905 2938 2966 2909 2870 2908 2942
8 2940 2906 2939 2967 2910 2871 2909 2943
8 2942 2908 2941 2969 2912 2873 2911 2945
8 2943 2909 2942 2970 2913 2874 2912 2946
8 2945 2911 2944 2971 2915 2876 2914 2947
8 2946 2912 2945 2972 2916 2877 2915 2948
8 2948 2915 2947 2973 2918 2880 2917 2949
8 2951 2920 2888 2924 2975 2950 2923 2954
8 2952 2921 2889 2925 2976 2951 2924 2955
8 2927 2893 2928 2957 2954 2923 2953 2978
8 2955 2924 2892 2926 2979 2954 2927 2956
8 2929 2895 2930 2959 2956 2927 2957 2980
8 2930 2896 2931 2960 2957 2928 2958 2981
8 2932 2898 2933 2961 2959 2930 2960 2982
8 2951 2920 2950 2975 2963 2935 2962 2984
8 2963 2935 2962 2984 2939 2905 2938 2966
8 2964 2936 2921 2952 2985 2963 2951 2976
8 2964 2936 2963 2985 2940 2906 2939 2967
8 2966 2938 2965 2987 2942 2908 2941 2969
8 2967 2939 2966 2988 2943 2909 2942 2970
8 2969 2941 2968 2989 2945 2911 2944 2971
8 2970 2942 2969 2990 2946 2912 2945 2972
8 2972 2945 2971 2991 2948 2915 2947 2973
8 2954 2923 2953 2978 2975 2950 2974 2993
8 2976 2951 2924 2955 2994 2975 2954 2979
8 2957 2928 2958 2981 2978 2953 2977 2995
8 2956 2927 2957 2980 2979 2954 2978 2996
8 2959 2930 2960 2982 2980 2957 2981 2997
8 2984 2962 2983 2999 2966 2938 2965 2987
8 2975 2950 2974 2993 2984 2962 2983 2999
8 2976 2951 2975 2994 2985 2963 2984 3000
8 2985 2963 2984 3000 2967 2939 2966 2988
8 2987 2965 2986 3001 2969 2941 2968 2989
8 2988 2966 2987 3002 2970 2942 2969 2990
8 2990 2969 2989 3003 2972 2945 2971 2991
8 2978 2953 2977 2995 2993 2974 2992 3004
8 2979 2954 2978 2996 2994 2975 2993 3005
8 2980 2957 2981 2997 2996 2978 2995 3006
8 2974 2993 2999 2983 2992 3004 3007 2998
8 2983 2999 2987 2965 2998 3007 3001 2986
8 3000 2984 2999 3008 2988 2966 2987 3002
8 2994 2975 2993 3005 3000 2984 2999 3008
8 3002 2987 3001 3009 2990 2969 2989 3003
8 2996 2978 2995 3006 3005 2993 3004 3010
8 3005 2993 3004 3010 3008 2999 3007 3011
8 3008 2999 3007 3011 3002 2987 3001 3009

CELL_TYPES 1910
12
12
12
12
12
12
12
12
12
12
12
12
12
12
12
12
12
12
12
12
12
12
12
12
12
12
12
12
12
12
12
12
12
12
12
12
12
12
12
12
12
12
12
12
12
12
12
12
12
12
12
12
12
12
12
12
12
12
12
12
12
12
12
12
12
12
12
12
12
12
12
12
12
12
12
12
12
12
12
12
12
12
12
12
12
12
12
12
12
12
12
12
12
12
12
12
12
12
12
12
12
12
12
12
12
12
12
12
12
12
12
12
12
12
12
12
12
12
12
12
12
12
12
12
12
12
12
12
12
12
12
12
12
12
12
12
12
12
12
12
12
12
12
12
12
12
12
12
12
12
12
12
12
12
12
12
12
12
12
12
12
12
12
12
12
12
12
12
12
12
12
12
12
12
12
12
12
12
12
12
12
12
12
12
12
12
12
12
12
12
12
12
12
12
12
12
12
12
12
12
12
12
12
12
12
12
12
12
12
12
12
12
12
12
12
12
12
12
12
12
12
12
12
12
12
12
12
12
12
12
12
12
12
12
12
12
12
12
12
12
12
12
12
12
12
12
12
12
12
12
12
12
12
12
12
12
12
12
12
12
12
12
12
12
12
12
12
12
12
12
12
12
12
12
12
12
12
12
12
12
12
12
12
12
12
12
12
12
12
12
12
12
12
12
12
12
12
12
12
12
12
12
12
12
12
12
12
12
12
12
12
12
12
12
12
12
12
12
12
12
12
12
12
12
12
12
12
12
12
12
12
12
12
12
12
12
12
12
12
12
12
12
12
12
12
12
12
12
12
12
12
12
12
12
12
12
12
12
12
12
12
12
12
12
12
12
12
12
12
12
12
12
12
12
12
12
12
12
12
12
12
12
12
12
12
12
12
12
12
12
12
12
12
12
12
12
12
12
12
12
12
12
12
12
12
12
12
12
12
12
12
12
12
12
12
12
12
12
12
12
12
12
12
12
12
12
12
12
12
12
12
12
12
12
12
12
12
12
12
12
12
12
12
12
12
12
12
12
12
12
12
12
12
12
12
12
12
12
12
12
12
12
12
12
12
12
12
12
12
12
12
12
12
12
12
12
12
12
12
12
12
12
12
12
12
12
12
12
12
12
12
12
12
12
12
12
12
12
12
12
12
12
12
12
12
12
12
12
12
12
12
12
12
12
12
12
12
12
12
12
12
12
12
12
12
12
12
12
12
12
12
12
12
12
12
12
12
12
12
12
12
12
12
12
12
12
12
12
12
12
12
12
12
12
12
12
12
12
12
12
12
12
12
12
12
12
12
12
12
12
12
12
12
12
12
12
12
12
12
12
12
12
12
12
12
12
12
12
12
12
12
12
12
12
12
12
12
12
12
12
12
12
12
12
12
12
12
12
12
12
12
12
12
12
12
12
12
12
12
12
12
12
12
12
12
12
12
12
12
12
12
12
12
12
12
12
12
12
12
12
12
12
12
12
12
12
12
12
12
12
12
12
12
12
12
12
12
12
12
12
12
12
12
12
12
12
12
12
12
12
12
12
12
12
12
12
12
12
12
12
12
12
12
12
12
12
12
12
12
12
12
12
12
12
12
12
12
12
12
12
12
12
12
12
12
12
12
12
12
12
12
12
12
12
12
12
12
12
12
12
12
12
12
12
12
12
12
12
12
12
12
12
12
12
12
12
12
12
12
12
12
12
12
12
12
12
12
12
12
12
12
12
12
12
12
12
12
12
12
12
12
12
12
12
12
12
12
12
12
12
12
12
12
12
12
12
12
12
12
12
12
12
12
12
12
12
12
12
12
12
12
12
12
12
12
12
12
12
12
12
12
12
12
12
12
12
12
12
12
12
12
12
12
12
12
12
12
12
12
12
12
12
12
12
12
12
12
12
12
12
12
12
12
12
12
12
12
12
12
12
12
12
12
12
12
12
12
12
12
12
12
12
12
12
12
12
12
12
12
12
12
12
12
12
12
12
12
12
12
12
12
12
12
12
12
12
12
12
12
12
12
12
12
12
12
12
12
12
12
12
12
12
12
12
12
12
12
12
12
12
12
12
12
12
12
12
12
12
12
12
12
12
12
12
12
12
12
12
12
12
12
12
12
12
12
12
12
12
12
12
12
12
12
12
12
12
12
12
12
12
12
12
12
12
12
12
12
12
12
12
12
12
12
12
12
12
12
12
12
12
12
12
12
12
12
12
12
12
12
12
12
12
12
12
12
12
12
12
12
12
12
12
12
12
12
12
12
12
12
12
12
12
12
12
12
12
12
12
12
12
12
12
12
12
12
12
12
12
12
12
12
12
12
12
12
12
12
12
12
12
12
12
12
12
12
12
12
12
12
12
12
12
12
12
12
12
12
12
12
12
12
12
12
12
12
12
12
12
12
12
12
12
12
12
12
12
12
12
12
12
12
12
12
12
12
12
12
12
12
12
12
12
12
12
12
12
12
12
12
12
12
12
12
12
12
12
12
12
12
12
12
12
12
12
12
12
12
12
12
12
12
12
12
12
12
12
12
12
12
12
12
12
12
12
12
12
12
12
12
12
12
12
12
12
12
12
12
12
12
12
12
12
12
12
12
12
12
12
12
12
12
12
12
12
12
12
12
12
12
12
12
12
12
12
12
12
12
12
12
12
12
12
12
12
12
12
12
12
12
12
12
12
12
12
12
12
12
12
12
12
12
12
12
12
12
12
12
12
12
12
12
12
12
12
12
12
12
12
12
12
12
12
12
12
12
12
12
12
12
12
12
12
12
12
12
12
12
12
12
12
12
12
12
12
12
12
12
12
12
12
12
12
12
12
12
12
12
12
12
12
12
12
12
12
12
12
12
12
12
12
12
12
12
12
12
12
12
12
12
12
12
12
12
12
12
12
12
12
12
12
12
12
12
12
12
12
12
12
12
12
12
12
12
12
12
12
12
12
12
12
12
12
12
12
12
12
12
12
12
12
12
12
12
12
12
12
12
12
12
12
12
12
12
12
12
12
12
12
12
12
12
12
12
12
12
12
12
12
12
12
12
12
12
12
12
12
12
12
12
12
12
12
12
12
12
12
12
12
12
12
12
12
12
12
12
12
12
12
12
12
12
12
12
12
12
12
12
12
12
12
12
12
12
12
12
12
12
12
12
12
12
12
12
12
12
12
12
12
12
12
12
12
12
12
12
12
12
12
12
12
12
12
12
12
12
12
12
12
12
12
12
12
12
12
12
12
12
12
12
12
12
12
12
12
12
12
12
12
12
12
12
12
12
12
12
12
12
12
12
12
12
12
12
12
12
12
12
12
12
12
12
12
12
12
12
12
12
12
12
12
12
12
12
12
12
12
12
12
12
12
12
12
12
12
12
12
12
12
12
12
12
12
12
12
12
12
12
12
12
12
12
12
12
12
12
12
12
12
12
12
12
12
12
12
12
12
12
12
12
12
12
12
12
12
12
12
12
12
12
12
12
12
12
12
12
12
12
12
12
12
12
12
12
12
12
12
12
12
12
12
12
12
12
12
12
12
12
12
12
12
12
12
12
12
12
12
12
12
12
12
12
12
12
12
12
12
12
12
12
12
12
12
12
12
12
12
12
12
12
12
12
12
12
12
12
12
12
12
12
12
12
12
12
12
12
12
12
12
12
12
12
12
12
12
12
12
12
12
12
12
12
12
12
12
12
12
12
12
12
12
12
12
12
12
12
12
12
12
12
12
12
12
12
12
12
12
12
12
12
12
12
12
12
12
12
12
12
12
12
12
12
12
12
12
12
12
12
12
12
12
12
12
12
12
12
12
12
12
12
12
12
12
12
12
12
12
12
12
12
12
12
12
12
12
12
12
12
12
12
12
12
12
12
12
12
12
12
12
12
12
12
12
12
12
12
12
12
12
12
12
12
12
12
12
12
12
12
12
12
12
12
12
12
12
12
12
12
12
12
12
12
12
12
12
12
12
12
12
12
12
12
12
12
12
12
12
12
12
12
12
12
12
12
12
12
12
12
12
12
12
12
12
12
12
12
12
12
12
12
12
12
12
12
12
12
12
12
12
12
12
12
12
12
12
12
12
12
12
12
12
12
12
12
12
12
12
12
12
12
12
12
12
12
12
12
12
12
12
12
12
12
12
12
12
12
12
12
12
12
12
12
12
12
12
12
12
12
12
12
12
12
12
12
12
12
12
12
12
12
12
12
12
12
12
12
12
12
12
12
12
12
12
12
12
12
12
12
12
12
12
12
12
12
12
12
12
12
12
12
12
12
12
12
12
12
12
12
12
12
12
12
12
12
12
12
12
12
12
12
12
12
12
12
12
12
12
12
12
12
12
12
12
12
12
12
12
12
12
12
12

POINT_DATA 3012
SCALARS Jp_lamdaP float 4
LOOKUP_TABLE default
1 1 1 1
1 1 1 1
1 1 1 1
0.999995 1 1 0.999995
1 1 1 1
1 1 1 1
0.999914 1 1 0.999914
1 1 1 1
1 1 1 1
1 1 1 1
1 1 1 1
0.999979 1 1 0.999979
0.999985 1 1 0.999985
0.999996 1 1 0.999996
1 1 1 1
0.999996 1 1 0.999996
1 1 1 1
1 1 1 1
0.999915 1 1 0.999915
1 1 1 1
0.999993 1 1 0.999993
0.999998 1 1 0.999998
0.999849 1 1 0.999849
0.999896 1 1 0.999896
1 1 1 1
0.999934 1 1 0.999934
0.999748 1 1 0.999748
1 1 1 1
1 1 1 1
1 1 1 1
1 1 1 1
0.999982 1 1 0.999982
0.999999 1 1 0.999999
1 1 1 1
0.999935 1 1 0.999935
1 1 1 1
0.999969 1 1 0.999969
0.99999 1 1 0.99999
0.999787 1 1 0.999787
1 1 1 1
1 1 1 1
0.999998 1 1 0.999998
1 1 1 1
0.999993 1 1 0.999993
0.999852 1 1 0.999852
1 1 1 1
0.999901 1 1 0.999901
0.999997 1 1 0.999997
1 1 1 1
1 1 1 1
0.999916 1 1 0.999916
0.999993 1 1 0.999993
0.999994 1 1 0.999994
1 1 1 1
0.999999 1 1 0.999999
0.999851 1 1 0.999851
0.999935 1 1 0.999935
0.999898 1 1 0.999898
0.999742 1 1 0.999742
1 1 1 1
0.99999 1 1 0.99999
0.999869 1 1 0.999869
0.999834 1 1 0.999834
0.999874 1 1 0.999874
0.999591 1 1 0.999591
0.999685 1 1 0.999685
1 1 1 1
0.999957 1 1 0.999957
0.999793 1 1 0.999793
0.999534 1 1 0.999534
1 1 1 1
1 1 1 1
1 1 1 1
0.999985 1 1 0.999985
1 1 1 1
1 1 1 1
0.99994 1 1 0.99994
1 1 1 1
0.999972 1 1 0.999972
0.999993 1 1 0.999993
0.999786 1 1 0.999786
1 1 1 1
1 1 1 1
0.999919 1 1 0.999919
0.999953 1 1 0.999953
0.999658 1 1 0.999658
0.999998 1 1 0.999998
0.999767 1 1 0.999767
0.999808 1 1 0.999808
0.99963 1 1 0.99963
1 1 1 1
1 1 1 1
1 1 1 1
1 1 1 1
1 1 1 1
0.999995 1 1 0.999995
0.999862 1 1 0.999862
0.999999 1 1 0.999999
0.999902 1 1 0.999902
1 1 1 1
0.99983 1 1 0.99983
0.999886 1 1 0.999886
0.999461 1 1 0.999461
0.999911 1 1 0.999911
0.999522 1 1 0.999522
0.999987 1 1 0.999987
0.999995 1 1 0.999995
1 1 1 1
1 1 1 1
0.999852 1 1 0.999852
0.999899 1 1 0.999899
0.999935 1 1 0.999935
0.999736 1 1 0.999736
1 1 1 1
0.999992 1 1 0.999992
0.999835 1 1 0.999835
0.999835 1 1 0.999835
1 1 1 1
0.999972 1 1 0.999972
0.999876 1 1 0.999876
0.999578 1 1 0.999578
0.999787 1 1 0.999787
0.999694 1 1 0.999694
0.999535 1 1 0.999535
0.999839 1 1 0.999839
0.999829 1 1 0.999829
0.999497 1 1 0.999497
0.999539 1 1 0.999539
0.999625 1 1 0.999625
0.99938 1 1 0.99938
1 1 1 1
0.9995 1 1 0.9995
0.999998 1 1 0.999998
0.999804 1 1 0.999804
0.999569 1 1 0.999569
0.999449 1 1 0.999449
1 1 1 1
0.999873 1 1 0.999873
1 1 1 1
1 1 1 1
0.999945 1 1 0.999945
1 1 1 1
0.999996 1 1 0.999996
0.999975 1 1 0.999975
0.999785 1 1 0.999785
1 1 1 1
1 1 1 1
0.999923 1 1 0.999923
0.999958 1 1 0.999958
0.999659 1 1 0.999659
0.999999 1 1 0.999999
0.999767 1 1 0.999767
0.999808 1 1 0.999808
0.999625 1 1 0.999625
1 1 1 1
1 1 1 1
0.999887 1 1 0.999887
0.999599 1 1 0.999599
0.999722 1 1 0.999722
0.999478 1 1 0.999478
0.999837 1 1 0.999837
0.999607 1 1 0.999607
0.999642 1 1 0.999642
0.999563 1 1 0.999563
1 1 1 1
1 1 1 1
1 1 1 1
1 1 1 1
1 1 1 1
1 1 1 1
1 1 1 1
0.999902 1 1 0.999902
0.999861 1 1 0.999861
1 1 1 1
1 1 1 1
0.999832 1 1 0.999832
0.999887 1 1 0.999887
0.999461 1 1 0.999461
0.999912 1 1 0.999912
0.999522 1 1 0.999522
0.999822 1 1 0.999822
0.999424 1 1 0.999424
0.999495 1 1 0.999495
0.999284 1 1 0.999284
0.999555 1 1 0.999555
0.99935 1 1 0.99935
1 1 1 1
0.999993 1 1 0.999993
0.9998 1 1 0.9998
0.999836 1 1 0.999836
1 1 1 1
0.999986 1 1 0.999986
0.999878 1 1 0.999878
0.999564 1 1 0.999564
0.999703 1 1 0.999703
0.99978 1 1 0.99978
0.999536 1 1 0.999536
0.999837 1 1 0.999837
0.99983 1 1 0.99983
0.99947 1 1 0.99947
0.999548 1 1 0.999548
1 1 1 1
0.999996 1 1 0.999996
0.999816 1 1 0.999816
0.999627 1 1 0.999627
0.999364 1 1 0.999364
0.999566 1 1 0.999566
0.999507 1 1 0.999507
0.99945 1 1 0.99945
1 1 1 1
0.999874 1 1 0.999874
0.999431 1 1 0.999431
0.999523 1 1 0.999523
0.999308 1 1 0.999308
0.999312 1 1 0.999312
0.999455 1 1 0.999455
0.999301 1 1 0.999301
1 1 1 1
0.999418 1 1 0.999418
0.999823 1 1 0.999823
0.999615 1 1 0.999615
0.999481 1 1 0.999481
0.999424 1 1 0.999424
0.999846 1 1 0.999846
0.999913 1 1 0.999913
0.999675 1 1 0.999675
0.999927 1 1 0.999927
1 1 1 1
1 1 1 1
0.999963 1 1 0.999963
0.99966 1 1 0.99966
1 1 1 1
0.999808 1 1 0.999808
0.999767 1 1 0.999767
0.99962 1 1 0.99962
1 1 1 1
1 1 1 1
0.999887 1 1 0.999887
0.9996 1 1 0.9996
0.999724 1 1 0.999724
0.999478 1 1 0.999478
0.999837 1 1 0.999837
0.999613 1 1 0.999613
0.999641 1 1 0.999641
0.999555 1 1 0.999555
1 1 1 1
0.999861 1 1 0.999861
0.999917 1 1 0.999917
0.999701 1 1 0.999701
0.99942 1 1 0.99942
0.999556 1 1 0.999556
0.999388 1 1 0.999388
0.999668 1 1 0.999668
0.99954 1 1 0.99954
0.99954 1 1 0.99954
0.999505 1 1 0.999505
0.999979 1 1 0.999979
1 1 1 1
1 1 1 1
1 1 1 1
1 1 1 1
1 1 1 1
1 1 1 1
1 1 1 1
1 1 1 1
0.999914 1 1 0.999914
0.999886 1 1 0.999886
0.999522 1 1 0.999522
0.999461 1 1 0.999461
0.999833 1 1 0.999833
1 1 1 1
0.999822 1 1 0.999822
0.999424 1 1 0.999424
0.999495 1 1 0.999495
0.999284 1 1 0.999284
0.999555 1 1 0.999555
0.999351 1 1 0.999351
0.999414 1 1 0.999414
0.999246 1 1 0.999246
0.999319 1 1 0.999319
0.999232 1 1 0.999232
0.999382 1 1 0.999382
0.999291 1 1 0.999291
0.999834 1 1 0.999834
0.99983 1 1 0.99983
0.999443 1 1 0.999443
0.999557 1 1 0.999557
1 1 1 1
0.999994 1 1 0.999994
0.999827 1 1 0.999827
0.999628 1 1 0.999628
0.999348 1 1 0.999348
0.999513 1 1 0.999513
0.999563 1 1 0.999563
0.999452 1 1 0.999452
1 1 1 1
0.999874 1 1 0.999874
0.999421 1 1 0.999421
0.999523 1 1 0.999523
0.999302 1 1 0.999302
0.999329 1 1 0.999329
0.999999 1 1 0.999999
0.999823 1 1 0.999823
0.999626 1 1 0.999626
0.999455 1 1 0.999455
0.999297 1 1 0.999297
0.999469 1 1 0.999469
0.999419 1 1 0.999419
0.999423 1 1 0.999423
0.999847 1 1 0.999847
0.999671 1 1 0.999671
0.999912 1 1 0.999912
0.999279 1 1 0.999279
0.999317 1 1 0.999317
0.999218 1 1 0.999218
0.99925 1 1 0.99925
0.999371 1 1 0.999371
0.999304 1 1 0.999304
0.999834 1 1 0.999834
0.999404 1 1 0.999404
0.999669 1 1 0.999669
0.999512 1 1 0.999512
0.999407 1 1 0.999407
0.999448 1 1 0.999448
0.999948 1 1 0.999948
0.999676 1 1 0.999676
0.999679 1 1 0.999679
0.999597 1 1 0.999597
0.999601 1 1 0.999601
1 1 1 1
1 1 1 1
0.999887 1 1 0.999887
0.999725 1 1 0.999725
0.999478 1 1 0.999478
0.999837 1 1 0.999837
0.99964 1 1 0.99964
0.999619 1 1 0.999619
0.999548 1 1 0.999548
1 1 1 1
0.999861 1 1 0.999861
0.999918 1 1 0.999918
0.9997 1 1 0.9997
0.999419 1 1 0.999419
0.999558 1 1 0.999558
0.999388 1 1 0.999388
0.999668 1 1 0.999668
0.999547 1 1 0.999547
0.999537 1 1 0.999537
0.999522 1 1 0.999522
1 1 1 1
0.999942 1 1 0.999942
0.999688 1 1 0.999688
0.999725 1 1 0.999725
0.999594 1 1 0.999594
0.99934 1 1 0.99934
0.999473 1 1 0.999473
0.999356 1 1 0.999356
0.999557 1 1 0.999557
0.999496 1 1 0.999496
0.999432 1 1 0.999432
0.99997 1 1 0.99997
0.999832 1 1 0.999832
0.999986 1 1 0.999986
0.999981 1 1 0.999981
1 1 1 1
1 1 1 1
1 1 1 1
1 1 1 1
1 1 1 1
1 1 1 1
1 1 1 1
1 1 1 1
1 1 1 1
1 1 1 1
1 1 1 1
0.999555 1 1 0.999555
0.999495 1 1 0.999495
0.999351 1 1 0.999351
0.999283 1 1 0.999283
0.999425 1 1 0.999425
0.999821 1 1 0.999821
0.999413 1 1 0.999413
0.999247 1 1 0.999247
0.999319 1 1 0.999319
0.999228 1 1 0.999228
0.999382 1 1 0.999382
0.999292 1 1 0.999292
0.999234 1 1 0.999234
0.999197 1 1 0.999197
0.999258 1 1 0.999258
0.99922 1 1 0.99922
0.999318 1 1 0.999318
0.999314 1 1 0.999314
0.999412 1 1 0.999412
0.999522 1 1 0.999522
0.999296 1 1 0.999296
0.999347 1 1 0.999347
0.999999 1 1 0.999999
0.999823 1 1 0.999823
0.999637 1 1 0.999637
0.999454 1 1 0.999454
0.999294 1 1 0.999294
0.999419 1 1 0.999419
0.999457 1 1 0.999457
0.999422 1 1 0.999422
0.999848 1 1 0.999848
0.999668 1 1 0.999668
0.999911 1 1 0.999911
0.999266 1 1 0.999266
0.999317 1 1 0.999317
0.99921 1 1 0.99921
0.999253 1 1 0.999253
0.999834 1 1 0.999834
0.999668 1 1 0.999668
0.999524 1 1 0.999524
0.999376 1 1 0.999376
0.99931 1 1 0.99931
0.999397 1 1 0.999397
0.999404 1 1 0.999404
0.999453 1 1 0.999453
0.999678 1 1 0.999678
0.999588 1 1 0.999588
0.999945 1 1 0.999945
0.999684 1 1 0.999684
0.999186 1 1 0.999186
0.999227 1 1 0.999227
0.999174 1 1 0.999174
0.999241 1 1 0.999241
0.999372 1 1 0.999372
0.999332 1 1 0.999332
0.999681 1 1 0.999681
0.999455 1 1 0.999455
0.999575 1 1 0.999575
0.999428 1 1 0.999428
0.999356 1 1 0.999356
0.999452 1 1 0.999452
0.999965 1 1 0.999965
0.999717 1 1 0.999717
0.999602 1 1 0.999602
0.999581 1 1 0.999581
0.999558 1 1 0.999558
1 1 1 1
0.999418 1 1 0.999418
0.999919 1 1 0.999919
0.999861 1 1 0.999861
0.999699 1 1 0.999699
0.999559 1 1 0.999559
0.999388 1 1 0.999388
0.999669 1 1 0.999669
0.999534 1 1 0.999534
0.999555 1 1 0.999555
0.999538 1 1 0.999538
1 1 1 1
0.999944 1 1 0.999944
0.999688 1 1 0.999688
0.999724 1 1 0.999724
0.999591 1 1 0.999591
0.999339 1 1 0.999339
0.999473 1 1 0.999473
0.999352 1 1 0.999352
0.999559 1 1 0.999559
0.999501 1 1 0.999501
0.99944 1 1 0.99944
0.999959 1 1 0.999959
0.999754 1 1 0.999754
0.99958 1 1 0.99958
0.999608 1 1 0.999608
0.999542 1 1 0.999542
0.999322 1 1 0.999322
0.999432 1 1 0.999432
0.999394 1 1 0.999394
0.999458 1 1 0.999458
0.999379 1 1 0.999379
0.999973 1 1 0.999973
0.999788 1 1 0.999788
0.999821 1 1 0.999821
0.999719 1 1 0.999719
0.999842 1 1 0.999842
0.99999 1 1 0.99999
0.999987 1 1 0.999987
1 1 1 1
0.999983 1 1 0.999983
1 1 1 1
1 1 1 1
1 1 1 1
1 1 1 1
1 1 1 1
1 1 1 1
1 1 1 1
1 1 1 1
1 1 1 1
1 1 1 1
1 1 1 1
0.999381 1 1 0.999381
0.999319 1 1 0.999319
0.999292 1 1 0.999292
0.999225 1 1 0.999225
0.999247 1 1 0.999247
0.999413 1 1 0.999413
0.999234 1 1 0.999234
0.999191 1 1 0.999191
0.999259 1 1 0.999259
0.999218 1 1 0.999218
0.999317 1 1 0.999317
0.999314 1 1 0.999314
0.999172 1 1 0.999172
0.999268 1.00009 1 0.999182
0.999256 1 1 0.999256
0.999211 1 1 0.999211
0.999323 1 1 0.999323
0.999335 1 1 0.999335
0.999252 1 1 0.999252
0.999317 1 1 0.999317
0.999203 1 1 0.999203
0.999257 1 1 0.999257
0.999835 1 1 0.999835
0.999667 1 1 0.999667
0.999536 1 1 0.999536
0.999382 1 1 0.999382
0.999316 1 1 0.999316
0.999405 1 1 0.999405
0.999387 1 1 0.999387
0.999457 1 1 0.999457
0.999679 1 1 0.999679
0.999579 1 1 0.999579
0.999943 1 1 0.999943
0.999689 1 1 0.999689
0.999187 1 1 0.999187
0.999229 1 1 0.999229
0.999174 1 1 0.999174
0.999242 1 1 0.999242
0.999681 1 1 0.999681
0.999584 1 1 0.999584
0.999427 1 1 0.999427
0.999368 1 1 0.999368
0.999356 1 1 0.999356
0.99935 1 1 0.99935
0.999457 1 1 0.999457
0.999467 1 1 0.999467
0.999602 1 1 0.999602
0.999555 1 1 0.999555
0.999579 1 1 0.999579
0.999949 1 1 0.999949
0.999723 1 1 0.999723
0.999153 1 1 0.999153
0.999165 1 1 0.999165
0.999262 1 1 0.999262
0.999409 1 1 0.999409
0.999611 1 1 0.999611
0.999506 1 1 0.999506
0.99951 1 1 0.99951
0.999318 1 1 0.999318
0.999312 1 1 0.999312
0.999949 1 1 0.999949
0.999781 1 1 0.999781
0.999612 1 1 0.999612
0.999575 1 1 0.999575
0.999506 1 1 0.999506
0.999527 1 1 0.999527
1 1 1 1
0.999946 1 1 0.999946
0.999337 1 1 0.999337
0.999724 1 1 0.999724
0.999687 1 1 0.999687
0.999587 1 1 0.999587
0.999474 1 1 0.999474
0.999349 1 1 0.999349
0.99956 1 1 0.99956
0.999449 1 1 0.999449
0.999506 1 1 0.999506
0.999961 1 1 0.999961
0.999754 1 1 0.999754
0.999586 1 1 0.999586
0.999607 1 1 0.999607
0.999535 1 1 0.999535
0.99932 1 1 0.99932
0.999429 1 1 0.999429
0.999399 1 1 0.999399
0.999452 1 1 0.999452
0.999365 1 1 0.999365
0.999782 1 1 0.999782
0.999612 1 1 0.999612
0.999507 1 1 0.999507
0.999523 1 1 0.999523
0.999492 1 1 0.999492
0.999431 1 1 0.999431
0.999355 1 1 0.999355
0.999384 1 1 0.999384
0.999388 1 1 0.999384
0.999246 1 1 0.999246
0.999975 1 1 0.999975
0.999797 1 1 0.999797
0.999662 1 1 0.999662
0.99981 1 1 0.99981
0.999842 1 1 0.999842
0.999703 1 1 0.999703
0.999618 1 1 0.999618
0.999699 1 1 0.999699
0.999852 1 1 0.999852
0.999992 1 1 0.999992
0.999991 1 1 0.999991
1 1 1 1
0.999988 1 1 0.999988
1 1 1 1
1 1 1 1
1 1 1 1
1 1 1 1
1 1 1 1
1 1 1 1
1 1 1 1
1 1 1 1
1 1 1 1
1 1 1 1
1 1 1 1
0.999315 1 1 0.999315
0.999259 1 1 0.999259
0.999313 1 1 0.999313
0.999217 1 1 0.999217
0.999186 1 1 0.999186
0.999234 1 1 0.999234
0.99917 1 1 0.99917
0.999239 1.00006 1 0.999184
0.99925 1 1 0.99925
0.999205 1 1 0.999205
0.999323 1 1 0.999323
0.999349 1 1 0.999349
0.999343 1.00018 1 0.999159
0.999344 1.00015 1 0.999191
0.999253 1 1 0.999253
0.999398 1 1 0.999398
0.999188 1 1 0.999188
0.999231 1 1 0.999231
0.999173 1 1 0.999173
0.999244 1 1 0.999244
0.999681 1 1 0.999681
0.999594 1 1 0.999594
0.999426 1 1 0.999426
0.999363 1 1 0.999363
0.999381 1 1 0.999381
0.999458 1 1 0.999458
0.999345 1 1 0.999345
0.999483 1 1 0.999483
0.999603 1 1 0.999603
0.999552 1 1 0.999552
0.999577 1 1 0.999577
0.999933 1 1 0.999933
0.999728 1 1 0.999728
0.999154 1 1 0.999154
0.99917 1 1 0.99917
0.999271 1 1 0.999271
0.99961 1 1 0.99961
0.999522 1 1 0.999522
0.999316 1 1 0.999316
0.999399 1 1 0.999399
0.999335 1 1 0.999335
0.999503 1 1 0.999503
0.99995 1 1 0.99995
0.999574 1 1 0.999574
0.999534 1 1 0.999534
0.999505 1 1 0.999505
0.999617 1 1 0.999617
0.99977 1 1 0.99977
0.999149 1 1 0.999148
0.999155 1 1 0.999155
0.999318 1.00001 1 0.999312
0.999522 1.00005 1 0.999475
0.999569 1 1 0.999569
0.999379 1 1 0.999379
0.999392 1 1 0.999392
0.999259 1 1.00003 0.999232
0.999963 1 1 0.999963
0.999815 1 1 0.999815
0.999655 1 1 0.999655
0.999496 1 1 0.999496
0.999536 1 1 0.999536
0.999477 1 1 0.999477
0.999964 1 1 0.999964
0.999754 1 1 0.999754
0.999318 1 1 0.999318
0.999606 1 1 0.999606
0.999592 1 1 0.999592
0.999528 1 1 0.999528
0.999426 1 1 0.999426
0.999404 1 1 0.999404
0.999446 1 1 0.999446
0.999351 1 1 0.999351
0.999782 1 1 0.999782
0.999617 1 1 0.999617
0.999517 1 1 0.999517
0.999528 1 1 0.999528
0.999496 1 1 0.999496
0.999431 1 1 0.999431
0.99936 1 1 0.99936
0.99942 1 1 0.99942
0.999375 1 1 0.999375
0.99923 1 1 0.99923
0.99964 1 1 0.99964
0.999512 1 1 0.999512
0.999438 1 1 0.999438
0.999451 1 1 0.999451
0.999584 1.00018 1 0.999405
0.999712 1.00038 0.999872 0.999458
0.999234 1 1 0.999234
1.00052 1 1.0013 0.999214
0.999805 1 1 0.999805
0.99967 1 1 0.99967
0.999585 1 1 0.999585
0.999842 1 1 0.999842
0.999687 1 1 0.999687
0.999852 1 1 0.999852
0.999606 1 1 0.999606
0.999705 1 1 0.999705
0.99954 1 1 0.99954
0.999605 1 1 0.999605
0.999708 1 1 0.999708
0.999857 1 1 0.999857
0.999992 1 1 0.999992
0.999992 1 1 0.999992
1 1 1 1
0.999991 1 1 0.999991
1 1 1 1
1 1 1 1
1 1 1 1
1 1 1 1
1 1 1 1
1 1 1 1
1 1 1 1
1 1 1 1
1 1 1 1
1 1 1 1
1 1 1 1
0.999323 1 1 0.999323
0.999244 1 1 0.999244
0.999364 1 1 0.999364
0.9992 1 1 0.9992
0.999186 1 1 0.999186
0.999168 1 1 0.999168
0.999292 1.00013 1 0.999162
0.999314 1.00012 1 0.999191
0.99926 1 1 0.99926
0.999393 1 1 0.999393
0.999438 1.00026 1 0.999173
0.999444 1.00022 1 0.999227
0.99932 1 1 0.99932
0.999156 1 1 0.999156
0.999175 1 1 0.999175
0.99928 1 1 0.99928
0.999609 1 1 0.999609
0.999535 1 1 0.999535
0.999313 1 1 0.999313
0.999389 1 1 0.999389
0.999499 1 1 0.999499
0.999359 1 1 0.999359
0.999573 1 1 0.999573
0.999541 1 1 0.999541
0.999505 1 1 0.999505
0.99995 1 1 0.99995
0.999622 1 1 0.999622
0.999758 1 1 0.999758
0.999202 1.00005 1 0.999151
0.999153 1 1 0.999153
0.999302 1 1 0.9993
0.999567 1 1 0.999567
0.999411 1 1 0.999411
0.9993 1 1.00006 0.999238
0.999742 1.00026 1 0.999483
0.999377 1 1 0.999377
0.999974 1 1 0.999974
0.999815 1 1 0.999815
0.999536 1 1 0.999536
0.999482 1 1 0.999482
0.999502 1 1 0.999502
0.999646 1 1 0.999646
0.999276 1.0001 1 0.999171
0.999317 1.00015 1 0.99917
0.999979 1.00064 0.999905 0.999429
1.00022 1.00073 1 0.99949
0.999505 1 1 0.999505
1.00045 1 1.00127 0.999185
0.999363 1 1.00006 0.999305
0.999995 1 1 0.999995
0.999881 1 1 0.999881
0.999819 1 1 0.999819
0.999667 1 1 0.999667
0.999535 1 1 0.999535
0.999422 1 1 0.999422
0.999517 1 1 0.999517
0.999454 1 1 0.999454
0.999782 1 1 0.999782
0.999622 1 1 0.999622
0.999431 1 1 0.999431
0.999533 1 1 0.999533
0.999527 1 1 0.999527
0.9995 1 1 0.9995
0.999364 1 1 0.999364
0.999457 1 1 0.999457
0.999367 1 1 0.999367
0.999213 1 1 0.999213
0.999636 1 1 0.999636
0.99952 1 1 0.99952
0.999449 1 1 0.999447
0.999458 1 1 0.999458
0.999484 1.00009 1 0.999399
0.999591 1.00019 0.999949 0.999455
0.999252 1 1 0.999252
1.00017 1 1.00096 0.999206
0.999557 1 1 0.999557
0.999338 1.00002 1 0.99932
0.999451 1 1 0.999451
0.999483 1 1.00013 0.999358
1.00076 1.0016 0.999722 0.999441
0.999537 1.00032 1 0.999216
1.00127 1 1.00213 0.999137
0.999677 1 1 0.999677
0.999585 1 1 0.999585
0.999514 1 1 0.999514
0.999852 1 1 0.999852
0.999711 1 1 0.999711
0.999594 1 1 0.999594
0.999857 1 1 0.999857
0.999707 1 1 0.999707
0.99953 1 1 0.99953
0.999617 1 1 0.999617
0.999482 1 1 0.999482
0.999527 1 1 0.999527
0.999628 1 1 0.999628
0.999726 1 1 0.999726
0.999857 1 1 0.999857
0.999992 1 1 0.999992
0.999992 1 1 0.999992
1 1 1 1
0.999992 1 1 0.999992
1 1 1 1
1 1 1 1
1 1 1 1
1 1 1 1
1 1 1 1
0.999999 1 1 0.999999
1 1 1 1
1 1 1 1
1 1 1 1
1 1 1 1
1 1 1 1
1 1 1 1
0.999388 1 1 0.999388
0.999266 1 1 0.999266
0.999296 1.00011 1 0.999191
0.999266 1.0001 1 0.999166
0.999436 1.00026 1 0.999178
0.999448 1.00023 1 0.999219
0.999334 1 1 0.999334
0.999515 1.0003 1 0.999212
0.999372 1.00012 1 0.999253
0.999358 1.00002 1 0.999339
0.999239 1.00009 1 0.999154
0.99915 1 1 0.99915
0.999287 1 1 0.999287
0.999565 1 1 0.999565
0.99943 1 1 0.99943
0.999243 1 1 0.999243
0.999927 1.00044 1 0.999492
0.999375 1 1 0.999375
0.999535 1 1 0.999535
0.999487 1 1 0.999487
0.999507 1 1 0.999507
0.999985 1 1 0.999985
0.999816 1 1 0.999816
0.999637 1 1 0.999637
0.999242 1.00007 1 0.999174
0.999993 1 1 0.999993
0.999872 1 1 0.999872
0.999386 1.00022 1 0.999171
1.00016 1.00075 1 0.999407
0.999515 1 1 0.999515
0.999733 1 1.00045 0.999285
0.999785 1 1.00059 0.999192
0.999934 1.00045 1 0.999489
0.999841 1 1 0.999841
0.999667 1 1 0.999667
0.999513 1 1 0.999513
0.999478 1 1 0.999478
0.999408 1 1 0.999408
0.999537 1 1 0.999537
0.999673 1.00047 1 0.999204
1.00027 1.00102 1 0.999253
1.00104 1.00188 0.999601 0.999557
0.999299 1 1 0.999299
0.999768 1 1.00031 0.999463
1.00202 1 1.00286 0.999158
0.99988 1 1 0.99988
0.999861 1 1 0.999861
0.999767 1 1 0.999767
0.999673 1 1 0.999673
0.99957 1 1 0.99957
0.999439 1 1 0.999439
0.99935 1 1 0.99935
0.999481 1 1 0.999481
0.999632 1 1 0.999632
0.999528 1 1 0.999528
0.999393 1 1 0.999393
0.999453 1 1 0.999453
0.999466 1 1 0.999466
0.999456 1 1 0.999456
0.999269 1 1 0.999269
0.99985 1 1.00065 0.999198
0.999557 1 1 0.999557
0.999342 1.00001 1 0.999335
0.999451 1 1 0.999451
0.999653 1 1.00031 0.999344
1.00017 1.00098 0.999753 0.999434
0.999738 1.00052 1 0.999221
1.00112 1 1.00198 0.999137
0.999475 1 1 0.999475
1.00671 1.00789 0.999451 0.999374
0.999394 1 1 0.999394
1.00078 1 1.00155 0.999233
0.998073 1.00161 0.997225 0.999241
1.00097 1 1.00188 0.999091
1.00603 1.0087 0.998093 0.999259
0.999586 1 1 0.999586
0.999514 1 1 0.999514
0.999464 1 1 0.999464
0.999857 1 1 0.999857
0.999706 1 1 0.999706
0.99963 1 1 0.99963
0.999521 1 1 0.999521
0.999857 1 1 0.999857
0.999718 1 1 0.999718
0.999479 1 1 0.999479
0.999628 1 1 0.999628
0.999537 1 1 0.999537
0.999461 1 1 0.999461
0.999562 1 1 0.999562
0.999636 1 1 0.999636
0.999707 1 1 0.999707
0.999834 1 1 0.999834
0.999744 1 1 0.999744
0.999834 1 1 0.999834
0.999991 1 1 0.999991
0.999991 1 1 0.999991
1 1 1 1
0.999992 1 1 0.999992
1 1 1 1
1 1 1 1
1 1 1 1
1 1 1 1
1 1 1 1
1 1 1 1
0.999998 1 1 0.999998
1 1 1 1
1 1 1 1
1 1 1 1
1 1 1 1
1 1 1 1
1 1 1 1
0.999348 1 1 0.999348
0.999471 1.00026 1 0.999212
0.99944 1.00026 1 0.999183
0.999528 1.00032 1 0.999211
0.999455 1.0002 1 0.999259
0.999359 1.00001 1 0.999347
0.999994 1.00072 1 0.999278
1.00401 1.00929 0.995308 0.999455
1.00577 1.00663 0.999705 0.999442
0.99991 1 1 0.99991
0.999229 1.00005 1 0.999177
0.999458 1.00029 1 0.999171
1.00026 1.00087 1 0.999385
0.999525 1 1 0.999525
1.00031 1 1.00104 0.999265
0.999316 1 1.00012 0.999198
0.999665 1.00018 1 0.999487
0.999509 1 1 0.999509
0.999502 1 1 0.999502
0.999395 1 1 0.999395
0.999992 1 1 0.999992
0.999539 1 1 0.999539
0.999864 1 1 0.999864
0.999666 1 1 0.999666
0.999864 1 1 0.999864
0.999569 1.00037 1 0.999199
0.99989 1 1 0.99989
0.999861 1 1 0.999861
0.999749 1 1 0.999749
1.00049 1.00124 1 0.999256
1.00029 1.00129 0.999469 0.999528
0.999701 1 1.00023 0.999469
1.00222 1 1.00307 0.999149
0.999466 1 1.00016 0.999304
0.999686 1 1 0.999686
0.999565 1 1 0.999565
0.99947 1 1 0.99947
0.999408 1 1.00004 0.999364
0.999448 1 1 0.999448
1.00138 1.00214 1.00004 0.999194
1.00028 1.00352 0.997374 0.9994
0.999948 1.00086 0.999716 0.999377
1.00112 1 1.00194 0.999181
1.00176 1 1.00239 0.999376
0.999751 1 1 0.999751
0.999706 1 1 0.999706
0.999653 1 1 0.999653
0.999578 1 1 0.999578
0.999491 1 1 0.999491
0.999383 1 1 0.999383
1.00095 1 1.00163 0.999325
0.999556 1 1 0.999556
0.999452 1 1 0.999452
0.99935 1 1 0.99935
0.999545 1.00038 0.999738 0.999427
0.999926 1.0007 1 0.999226
0.999818 1 1.00049 0.99933
1.00083 1 1.0017 0.999136
0.999482 1 1 0.999482
1.00646 1.00799 0.9991 0.99938
0.999397 1 1 0.999397
1.0007 1 1.00147 0.999233
0.999151 1.00204 0.997846 0.999269
1.00149 1 1.0024 0.999087
1.00782 1.01097 0.99763 0.999256
0.999427 1 1 0.999427
0.998243 1.00664 0.992377 0.999274
0.999625 1 1.00027 0.999359
1.0042 1 1.00504 0.999168
1.00053 1.00034 1.00109 0.999106
0.959284 0.963823 0.998704 0.996581
1.00343 1.00105 1.00367 0.998709
0.989662 1.00981 0.980717 0.999322
0.931096 0.945494 0.986023 0.998732
0.939727 0.971641 0.967982 0.999144
0.999514 1 1 0.999514
0.999467 1 1 0.999467
0.999436 1 1 0.999436
0.999856 1 1 0.999856
0.99971 1 1 0.99971
0.999627 1 1 0.999627
0.999548 1 1 0.999548
0.999477 1 1 0.999477
0.999625 1 1 0.999625
0.999844 1 1 0.999844
0.999716 1 1 0.999716
0.999467 1 1 0.999467
0.999558 1 1 0.999558
0.99957 1 1 0.99957
0.99949 1 1 0.99949
0.999605 1 1 0.999605
0.999705 1 1 0.999705
0.999833 1 1 0.999833
0.999731 1 1 0.999731
0.999642 1 1 0.999642
0.999716 1 1 0.999716
0.999728 1 1 0.999728
0.999851 1 1 0.999851
0.999834 1 1 0.999834
0.99999 1 1 0.99999
0.999991 1 1 0.999991
1 1 1 1
0.999991 1 1 0.999991
1 1 1 1
1 1 1 1
1 1 1 1
1 1 1 1
1 1 1 1
1 1 1 1
1 1 1 1
1 1 1 1
0.999997 1 1 0.999997
1 1 1 1
1 1 1 1
1 1 1 1
1 1 1 1
1 1 1 1
0.999524 1.00026 1 0.999266
0.999502 1.00029 1 0.999211
0.999355 1 1 0.999355
1.00539 1.00924 0.99672 0.999462
1.00008 1.00081 1 0.999274
1.00577 1.0065 0.999862 0.999408
1.00478 1.00556 1.00004 0.999181
0.978847 0.984914 0.995433 0.9984
1.00553 1.00666 0.999342 0.999545
0.999916 1 1 0.999916
0.99991 1 1 0.99991
0.999786 1 1 0.999786
0.9998 1 1 0.9998
0.999465 1.00027 1 0.999194
1.00073 1.00147 1 0.99926
0.999615 1.00064 0.999481 0.999499
0.999475 1 1 0.999475
1.00196 1 1.00282 0.99914
0.99944 1 1.00013 0.99931
0.999459 1 1 0.999459
0.999489 1 1.00011 0.999377
0.999458 1 1 0.999458
0.99986 1 1 0.99986
0.99956 1 1 0.99956
0.999698 1 1 0.999698
0.9999 1 1 0.9999
0.999731 1 1 0.999731
1.00104 1.0018 1.00003 0.999209
0.999769 1 1 0.999769
0.999717 1 1 0.999717
0.999652 1 1 0.999652
1.00132 1.00362 0.998305 0.999404
0.999418 1.0005 0.999541 0.999377
1.00148 1 1.00211 0.999374
1.00111 1 1.00194 0.999175
0.999582 1 1 0.999582
0.999495 1 1 0.999495
1.00035 1 1.00102 0.999326
0.999428 1 1.00006 0.999372
1.00603 1.00683 0.999954 0.999255
1.00064 1.00358 0.997704 0.999357
1.00006 1.00021 1.00073 0.999123
1.00115 1 1.00186 0.999289
0.999618 1 1 0.999618
0.999603 1 1 0.999603
0.999456 1 1 0.999456
1.00141 1 1.00214 0.999268
0.954995 0.963719 0.994462 0.996466
0.99949 1 1 0.99949
0.999399 1 1 0.999399
1.00621 1.00802 0.998818 0.999387
1.0003 1.00242 0.998585 0.999297
1.00216 1 1.00308 0.999083
1.00085 1 1.00162 0.999234
1.00983 1.01309 0.997526 0.999253
0.999432 1 1 0.999432
0.998418 1.00693 0.992272 0.999266
0.999554 1 1.00019 0.999361
1.00402 1 1.00485 0.999172
0.999911 1.00047 1.00033 0.999118
0.958242 0.964303 0.996899 0.996805
0.997805 0.997453 1.00227 0.998088
0.992946 1.01159 0.982213 0.999347
0.937068 0.948111 0.989923 0.998414
0.933238 0.967093 0.965864 0.999099
0.999432 1 1 0.999432
0.939859 0.948249 0.993072 0.998068
0.954402 0.971694 0.982943 0.999249
0.980221 1.00192 0.979075 0.999253
1.00222 1 1.00287 0.999345
1.00891 1 1.0097 0.99921
0.995374 1.01017 0.98599 0.999355
0.970377 0.970927 1.00311 0.996338
1.00575 1.00401 1.00379 0.997941
0.932013 0.953331 0.978968 0.998642
0.979507 1.00335 0.976777 0.999451
0.999469 1 1 0.999469
0.999437 1 1 0.999437
0.999421 1 1 0.999421
0.999853 1 1 0.999853
0.999725 1 1 0.999725
0.999613 1 1 0.999613
0.999554 1 1 0.999554
0.999473 1 1 0.999473
0.999833 1 1 0.999833
0.99957 1 1 0.99957
0.999618 1 1 0.999618
0.999715 1 1 0.999715
0.999479 1 1 0.999479
0.99953 1 1 0.99953
0.999638 1 1.0002 0.999441
0.999619 1 1 0.999619
0.999725 1 1 0.999725
0.999731 1 1 0.999731
0.999629 1 1 0.999629
0.999631 1 1 0.999631
0.999615 1 1 0.999615
0.999566 1 1 0.999566
0.999558 1 1 0.999558
0.999695 1 1 0.999695
0.999715 1 1 0.999715
0.999844 1 1 0.999844
0.999712 1 1 0.999712
0.999842 1 1 0.999842
0.999989 1 1 0.999989
0.999834 1 1 0.999834
0.99999 1 1 0.99999
1 1 1 1
0.999991 1 1 0.999991
1 1 1 1
1 1 1 1
1 1 1 1
1 1 1 1
1 1 1 1
0.999912 1 1 0.999912
1 1 1 1
1 1 1 1
1 1 1 1
1 1 1 1
1 1 1 1
1 1 1 1
1 1 1 1
1 1 1 1
1 1 1 1
1.00687 1.00955 0.997873 0.99947
1.00018 1.00091 1 0.99927
1.00572 1.00635 0.999998 0.999375
0.980534 0.98446 0.99722 0.998789
1.00579 1.00649 0.99975 0.999554
1.00504 1.00585 1.00003 0.999166
1.00759 1.00672 1.00159 0.999272
0.986536 0.986526 1.00136 0.998648
0.962273 0.967083 0.999192 0.995832
0.924857 0.94565 0.98008 0.99789
0.934928 0.963272 0.971412 0.999139
0.999781 1 1 0.999781
0.999915 1 1 0.999915
0.999909 1 1 0.999909
0.999781 1 1 0.999781
0.999698 1 1 0.999698
0.999718 1 1 0.999718
0.999785 1 1 0.999785
0.999792 1 1 0.999792
1.00069 1.00144 1.00003 0.999225
1.00229 1.00376 0.999126 0.999409
0.998956 1.00026 0.999317 0.999377
1.00152 1 1.00215 0.999373
1.00156 1 1.00239 0.999168
0.999772 1 1.00045 0.999326
0.999451 1 1.00009 0.999362
0.999499 1 1 0.999499
0.999728 1 1 0.999728
0.999587 1 1 0.999587
0.999787 1 1 0.999787
0.999652 1 1 0.999652
1.00617 1.00747 0.999465 0.999237
0.999625 1 1 0.999625
0.999604 1 1 0.999604
0.99974 1.00311 0.997283 0.999354
0.999771 1.00022 1.0004 0.999153
1.0017 1 1.00243 0.999268
0.999451 1 1 0.999451
1.00137 1 1.0021 0.999272
0.999235 1.01045 0.989682 0.999207
1.00153 1.00078 1.00158 0.999172
1.00022 1 1.00103 0.999188
1.00434 1 1.0051 0.999245
0.999547 1 1 0.999547
0.999487 1 1 0.999487
0.999879 1 1.00054 0.999335
0.935797 0.950893 0.985627 0.998475
0.960887 0.965575 0.998509 0.996631
0.999438 1 1 0.999438
0.999363 1 1 0.999363
0.998853 1.00744 0.992213 0.999258
0.999197 1.00063 0.999438 0.99913
1.00357 1 1.00439 0.999176
0.959276 0.964993 0.998259 0.995809
0.998206 0.998045 1.00143 0.998735
0.99648 1.01379 0.98354 0.999372
0.931637 0.947963 0.984726 0.998021
0.926044 0.962117 0.963417 0.999055
0.99943 1 1 0.99943
0.934232 0.950267 0.984551 0.998553
0.956363 0.969915 0.986753 0.999264
0.982543 1.00212 0.981206 0.999243
1.00166 1 1.00231 0.99935
1.00817 1 1.00895 0.999223
0.991378 1.0076 0.984546 0.999341
0.971758 0.972748 1.00294 0.996051
1.00053 0.999392 1.00254 0.998601
0.933875 0.953561 0.981349 0.997968
0.973272 1.00073 0.973142 0.999407
0.999409 1 1 0.999409
0.972177 0.974999 0.997638 0.999467
1.01527 1.01769 0.997914 0.999708
0.993089 1 0.993726 0.999359
1.00706 1 1.0076 0.999465
1.00884 1.00361 1.00558 0.999633
0.995586 0.996441 0.999996 0.999146
0.975871 0.973517 1.00625 0.996195
0.951554 0.97421 0.978766 0.997934
0.997141 1.01837 0.979565 0.999575
0.999438 1 1 0.999438
0.999415 1 1 0.999415
0.999836 1 1.00042 0.999415
0.999833 1 1 0.999833
0.999725 1 1 0.999725
0.999631 1 1 0.999631
0.99957 1 1 0.99957
0.999468 1 1 0.999468
0.999725 1 1 0.999725
0.999539 1 1 0.999539
0.999619 1 1 0.999619
0.999681 1 1.00024 0.999436
0.999969 1 1.00055 0.999415
0.999598 1 1.00009 0.999511
0.999624 1 1 0.999624
0.99973 1 1 0.99973
0.999617 1 1 0.999617
0.999631 1 1 0.999631
0.999615 1 1 0.999615
0.999563 1 1 0.999563
0.999588 1 1 0.999588
0.999558 1 1 0.999558
0.999522 1 1 0.999522
0.999491 1 1 0.999491
0.999498 1 1 0.999498
0.999542 1 1 0.999542
0.999559 1 1 0.999559
0.999669 1 1 0.999669
0.999694 1 1 0.999694
0.999831 1 1 0.999831
0.999715 1 1 0.999715
0.999844 1 1 0.999844
0.999987 1 1 0.999987
0.999833 1 1 0.999833
0.999988 1 1 0.999988
1 1 1 1
0.999989 1 1 0.999989
1 1 1 1
1 1 1 1
1 1 1 1
1 1 1 1
1 1 1 1
0.999919 1 1 0.999919
1 1 1 1
0.999912 1 1 0.999912
1 1 1 1
1 1 1 1
1 1 1 1
1 1 1 1
1 1 1 1
1 1 1 1
1 1 1 1
1 1 1 1
0.934296 0.947826 0.987033 0.998675
0.958598 0.971152 0.987672 0.999393
0.983596 0.98512 0.999357 0.999095
1.0059 1.00635 0.999982 0.999562
1.00533 1.00616 1.00003 0.99915
0.986077 0.985026 1.00172 0.999353
1.00667 1.00659 1.0008 0.999281
0.965431 0.969229 0.999491 0.996589
0.932158 0.946738 0.985919 0.998663
0.930957 0.963481 0.967113 0.999101
1.00034 0.997077 1.00377 0.999506
0.971763 0.972805 1.00245 0.996487
0.930369 0.952473 0.978132 0.998632
0.973671 0.99746 0.976824 0.99931
0.999666 1 1 0.999666
0.999789 1 1 0.999789
0.999915 1 1 0.999915
0.999776 1 1 0.999776
0.999708 1 1 0.999708
0.999682 1 1 0.999682
0.999721 1 1 0.999721
0.999737 1 1 0.999737
0.999774 1 1 0.999774
0.999785 1 1 0.999785
1.00627 1.00804 0.999025 0.999219
0.999019 1.00261 0.997063 0.99935
0.999485 1.00017 1.00013 0.999183
1.002 1 1.00275 0.999248
1.00125 1 1.00198 0.999275
0.999446 1 1 0.999446
0.999606 1 1 0.999606
0.999632 1 1 0.999632
1.00078 1.01009 0.991599 0.999178
0.999542 1 1 0.999542
0.999474 1 1 0.999474
1.00021 1.00051 1.00056 0.999145
1.00055 1 1.00133 0.999219
1.00339 1 1.00416 0.999231
1.00045 1 1.00112 0.999328
1.00072 1.01275 0.989068 0.99905
1.00753 1 1.00826 0.999275
1.004 1 1.00476 0.999242
0.999536 1 1 0.999536
0.999457 1 1 0.999457
0.999364 1 1 0.999364
0.971685 0.976277 0.995909 0.999386
0.937889 0.950016 0.989262 0.997951
0.958102 0.965399 0.995975 0.996453
0.999429 1 1 0.999429
1.00123 1 1.00188 0.999354
0.984655 1.00223 0.983214 0.999234
1.00763 1 1.0084 0.999236
0.931815 0.949471 0.983437 0.997932
0.970038 0.971969 1.00095 0.997071
1.00155 1.00022 1.00335 0.997989
0.988693 1.00518 0.984253 0.999334
0.937468 0.953462 0.984484 0.998721
0.957401 0.970985 0.986784 0.999215
0.965269 0.9948 0.97097 0.999324
0.999407 1 1 0.999407
0.968782 0.974628 0.99459 0.999409
1.01471 1.01723 0.997815 0.99971
0.994258 1 0.994887 0.999368
1.00726 1 1.0078 0.999467
1.00851 1.00315 1.0061 0.999247
0.995969 0.996321 1.00142 0.998224
0.974519 0.974927 1.0035 0.996095
0.957748 0.977241 0.981222 0.998809
0.99051 1.0124 0.978868 0.9995
0.999768 1 1.00021 0.999559
1.02025 1.02067 0.999791 0.999791
1.02356 1.0264 0.997399 0.999832
1.00797 1 1.00825 0.999719
0.997557 0.991866 1.00612 0.999619
0.98172 0.979727 1.00592 0.996133
0.977969 0.992658 0.98631 0.998877
0.991558 1.01421 0.978181 0.999475
0.999408 1 1 0.999408
0.999784 1 1.00036 0.999429
1.00078 1 1.0013 0.999475
0.999725 1 1 0.999725
0.999619 1 1 0.999619
0.999548 1 1 0.999548
0.999712 1 1.00028 0.999431
0.999624 1 1 0.999624
0.999543 1 1.00003 0.999512
1.00035 1 1.00093 0.999416
1.00032 1 1.00086 0.999469
0.999644 1 1.00021 0.999432
0.999546 1 1 0.999546
0.999631 1 1 0.999631
0.999614 1 1 0.999614
0.99956 1 1 0.99956
0.99956 1 1 0.99956
0.999588 1 1 0.999588
0.999526 1 1 0.999526
0.999499 1 1 0.999499
0.999496 1 1 0.999496
0.99946 1 1 0.99946
0.999493 1 1 0.999493
0.999477 1 1 0.999477
0.999445 1 1 0.999445
0.999573 1 1 0.999573
0.999526 1 1 0.999526
0.999552 1 1 0.999552
0.999632 1 1 0.999632
0.99956 1 1 0.99956
0.999669 1 1 0.999669
0.99981 1 1 0.99981
0.999694 1 1 0.999694
0.99983 1 1 0.99983
0.999983 1 1 0.999983
0.999843 1 1 0.999843
0.999986 1 1 0.999986
1 1 1 1
0.999988 1 1 0.999988
1 1 1 1
1 1 1 1
1 1 1 1
1 1 1 1
1 1 1 1
0.999878 1 1 0.999878
1 1 1 1
0.999902 1 1 0.999902
1 1 1 1
1 1 1 1
0.999912 1 1 0.999912
1 1 1 1
1 1 1 1
1 1 1 1
1 1 1 1
1 1 1 1
1 1 1 1
0.97239 0.975215 0.997591 0.999512
0.935494 0.948154 0.988351 0.998277
1.01301 1.01784 0.995556 0.999698
0.955781 0.969001 0.986994 0.999355
0.982387 0.983685 1.00012 0.998557
1.00585 1.00652 1.00004 0.99929
0.966243 0.969125 0.999654 0.997371
0.929657 0.94756 0.983139 0.997932
0.92723 0.963825 0.962934 0.999062
0.99771 0.998295 1.00021 0.999205
0.971132 0.970836 1.004 0.996323
0.932571 0.955834 0.977685 0.99793
0.973919 0.998061 0.976483 0.999313
0.999796 1.00424 0.996242 0.999335
0.97178 0.971026 1.00463 0.996168
0.961127 0.979915 0.982038 0.998767
0.994806 1.01658 0.97905 0.999526
0.999598 1 1 0.999598
0.999677 1 1 0.999677
0.999797 1 1 0.999797
0.999717 1 1 0.999717
0.999618 1 1 0.999618
0.99969 1 1 0.99969
0.999723 1 1 0.999723
0.999723 1 1 0.999723
0.999747 1 1 0.999747
0.999764 1 1 0.999764
1.00248 1.01006 0.993347 0.999149
0.998483 1.00022 0.999148 0.99912
1.00084 1 1.00159 0.999251
1.00271 1 1.00349 0.999217
1.00108 1 1.00176 0.99932
0.99946 1 1 0.99946
0.999537 1 1 0.999537
0.999537 1 1 0.999537
0.99952 1.01038 0.990174 0.999065
0.999464 1 1 0.999464
0.999452 1 1.00009 0.999361
1.00607 1 1.00683 0.999243
1.00386 1 1.00462 0.999242
0.998139 1.01062 0.988456 0.999186
1.01664 1 1.01727 0.999378
1.00009 1 1.00078 0.999308
0.999476 1 1 0.999476
0.999366 1 1 0.999366
1.02121 1.02164 0.999768 0.999815
0.972552 0.975816 0.997192 0.999461
0.93734 0.950715 0.987276 0.998639
0.999405 1 1 0.999405
1.00727 1 1.0078 0.999469
0.994906 1 0.995527 0.999376
0.973177 0.975932 0.997678 0.999498
0.974299 0.97264 1.00568 0.996053
0.997289 0.99613 1.00217 0.998994
1.00676 1.002 1.00592 0.998837
0.953388 0.973748 0.981114 0.997937
1.01439 1.01702 0.997703 0.999713
0.989453 1.01089 0.97928 0.999506
0.999707 1 1.00014 0.999571
1.02042 1.02068 0.999921 0.999821
1.02459 1.02775 0.997088 0.999834
1.00834 0.999985 1.00875 0.999614
0.998717 0.993979 1.00543 0.999337
0.985063 0.98177 1.00734 0.996044
0.994644 1.01798 0.977528 0.99954
0.970414 0.987014 0.984687 0.998471
0.999975 1 1.00026 0.999711
1.02423 1.02599 0.998346 0.999938
1.02716 1.02994 0.997446 0.999851
0.995979 1.01565 0.981091 0.999528
1.00565 0.994033 1.01185 0.999845
0.982948 0.980333 1.00627 0.99642
0.965069 0.98202 0.983962 0.998756
0.99971 1 1.00027 0.999443
1.00053 1 1.00109 0.999439
1.00312 1 1.00355 0.999571
0.999624 1 1 0.999624
0.999513 1 1 0.999513
1.00079 1 1.00138 0.999416
0.999549 1 1 0.999549
0.999756 1 1.00033 0.999431
1.00071 1 1.00126 0.999446
0.999867 1 1.00035 0.999513
0.999462 1 1 0.999462
0.999561 1 1 0.999561
0.999588 1 1 0.999588
0.99953 1 1 0.99953
0.999496 1 1 0.999496
0.999501 1 1 0.999501
0.999469 1 1 0.999469
0.999482 1 1 0.999482
0.999914 1 1.00056 0.999358
0.999496 1 1 0.999496
0.999474 1 1 0.999474
0.999358 1 1 0.999358
0.999458 1 1 0.999458
0.999561 1 1 0.999561
0.999447 1 1 0.999447
0.999634 1 1 0.999634
0.999566 1 1 0.999566
0.999554 1 1 0.999554
0.999562 1 1 0.999562
0.999641 1 1 0.999641
0.999785 1 1 0.999785
0.999669 1 1 0.999669
0.99981 1 1 0.99981
0.999978 1 1 0.999978
0.99983 1 1 0.99983
0.999982 1 1 0.999982
1 1 1 1
0.999985 1 1 0.999985
1 1 1 1
1 1 1 1
1 1 1 1
1 1 1 1
1 1 1 1
0.999825 1 1 0.999825
0.999976 1 1 0.999976
0.999877 1 1 0.999877
1 1 1 1
0.99999 1 1 0.99999
0.999884 1 1 0.999884
1 1 1 1
1 1 1 1
1 1 1 1
1 1 1 1
1 1 1 1
1 1 1 1
1.02014 1.02069 0.999662 0.999803
0.967188 0.974315 0.993315 0.999365
0.938335 0.948259 0.991503 0.998015
0.999681 1 1 0.999681
1.02626 1.02905 0.997425 0.999866
1.0143 1.01822 0.996449 0.9997
0.951849 0.96944 0.982596 0.999245
0.995407 0.999059 0.997472 0.998869
0.972145 0.971501 1.00425 0.996433
0.936232 0.958667 0.977889 0.998679
0.971787 0.995835 0.976581 0.999253
1.00046 1.00759 0.99442 0.998497
0.972616 0.971663 1.00475 0.996251
0.961238 0.979851 0.98257 0.998407
0.991793 1.01489 0.977762 0.999468
0.991151 0.998641 0.994275 0.998215
0.977515 0.974902 1.0073 0.995415
0.970873 0.989542 0.983026 0.998075
0.99232 1.01637 0.976865 0.99946
0.99953 1 1 0.99953
0.999591 1 1 0.999591
0.999689 1 1 0.999689
0.999603 1 1 0.999603
0.999631 1 1 0.999631
0.999698 1 1 0.999698
0.999727 1 1 0.999727
0.999758 1 1 0.999758
0.998011 1.00784 0.991159 0.999079
1.0046 1 1.00539 0.999212
0.999538 1 1 0.999538
1.00362 1 1.00438 0.999243
0.999526 1 1.00017 0.999359
0.999471 1 1 0.999471
0.999477 1 1 0.999477
1.00059 1.00979 0.991691 0.999195
0.999374 1 1 0.999374
1.00091 1 1.0016 0.999303
1.01568 1 1.01633 0.999361
0.999477 1 1 0.999477
1.00131 1.00289 0.998878 0.999548
1.01309 1 1.01363 0.999466
0.999375 1 1 0.999375
0.999415 1 1 0.999415
1.02398 1.02474 0.999312 0.999944
1.02061 1.02108 0.999723 0.999819
0.973374 0.975233 0.998555 0.999538
0.999584 1 1 0.999584
1.00886 0.999979 1.00938 0.99951
1.02054 1.0207 0.999995 0.999851
0.980938 0.976719 1.00823 0.996117
1.00145 0.996166 1.00681 0.998508
0.969504 0.987837 0.983306 0.998105
1.02536 1.02881 0.996807 0.999836
0.998139 1.02222 0.976824 0.999606
1.00015 1 1.00047 0.999679
1.02505 1.02688 0.998278 0.999938
1.02701 1.02957 0.997638 0.999876
1.00686 0.995197 1.01179 0.999931
0.992357 1.01372 0.979449 0.999469
0.981262 0.981384 1.0033 0.99659
0.965876 0.98456 0.982985 0.998004
1.00647 0.998124 1.0086 0.999771
1.02039 1.02233 0.998144 0.999957
1.02714 1.0293 0.998035 0.999863
0.973514 0.997093 0.977015 0.999321
0.969765 0.988083 0.983346 0.998082
1.00325 0.99231 1.01087 1.00015
0.97791 0.975913 1.00575 0.996313
1.00029 1 1.00089 0.999404
1.00223 1 1.00268 0.999557
1.0122 1 1.01262 0.999581
0.999551 1 1 0.999551
0.999795 1 1.00037 0.999429
1.00096 1 1.00154 0.999423
0.999462 1 1 0.999462
0.999944 1 1.00043 0.999511
1.00283 1 1.00337 0.999458
0.999497 1 1 0.999497
0.999503 1 1 0.999503
0.99964 1 1.00018 0.999461
1.00143 1 1.00208 0.999353
0.999504 1 1 0.999504
0.999707 1 1.00033 0.999377
1.00025 1 1.001 0.999259
0.999325 1 1 0.999325
0.999472 1 1 0.999472
0.999341 1 1 0.999341
0.99951 1 1 0.99951
0.999545 1 1 0.999545
0.999472 1 1 0.999472
0.999633 1 1 0.999633
0.999559 1 1 0.999559
0.999449 1 1 0.999449
0.999764 1 1 0.999764
0.99963 1 1 0.99963
0.999559 1 1 0.999559
0.999651 1 1 0.999651
0.999785 1 1 0.999785
0.999969 1 1 0.999969
0.999809 1 1 0.999809
0.999976 1 1 0.999976
1 1 1 1
0.99998 1 1 0.99998
1 1 1 1
1 1 1 1
1 1 1 1
1 1 1 1
1 1 1 1
0.999799 1 1 0.999799
0.999961 1 1 0.999961
0.999835 1 1 0.999835
1 1 1 1
0.999975 1 1 0.999975
0.999876 1 1 0.999876
1 1 1 1
1 1 1 1
0.999981 1 1 0.999981
1 1 1 1
1 1 1 1
1 1 1 1
1.02505 1.02603 0.999119 0.999935
1.02 1.02073 0.999473 0.999805
0.968552 0.974509 0.994515 0.999369
0.999685 1 1 0.999685
0.999655 1 1 0.999655
0.999605 1 1 0.999605
1.02622 1.02913 0.997318 0.999851
1.027 1.02943 0.997777 0.999867
1.01625 1.01862 0.997973 0.999703
1.00682 1.0114 0.996241 0.999225
0.972884 0.971028 1.00572 0.996217
0.957517 0.976462 0.982624 0.997938
0.993199 1.01704 0.977039 0.999506
0.988122 0.996989 0.992114 0.998983
0.978083 0.975106 1.00688 0.996202
0.972901 0.989482 0.984443 0.998781
0.994727 1.01945 0.976204 0.999531
0.981104 0.990103 0.991824 0.999079
0.981454 0.977203 1.00804 0.996339
0.97026 0.986014 0.985309 0.998694
0.995605 1.01693 0.979447 0.999571
0.999512 1 1 0.999512
0.99953 1 1 0.99953
0.999583 1 1 0.999583
0.999602 1 1 0.999602
0.999644 1 1 0.999644
0.99973 1 1 0.99973
1.00376 1.00883 0.99577 0.999203
1.01466 1 1.01533 0.999344
0.999478 1 1 0.999478
1.00161 1 1.00231 0.999297
0.999383 1 1 0.999383
0.999474 1 1 0.999474
0.999412 1 1 0.999412
1.00278 1.0039 0.999344 0.999539
0.999389 1 1 0.999389
1.01289 0.999303 1.01412 0.99949
0.999444 1 1 0.999444
1.01784 0.996888 1.02127 0.999754
0.998462 0.998401 1.00044 0.999626
0.999388 1 1 0.999388
1.01697 1.01798 0.99904 0.99997
1.02308 1.02394 0.99921 0.999949
1.01998 1.02052 0.99965 0.999822
1.00035 1 1.00071 0.999646
1.003 0.9949 1.00815 0.999986
1.02583 1.02772 0.998226 0.999938
0.988145 0.9849 1.00542 0.997888
0.973749 0.989171 0.985552 0.998841
1.02713 1.02928 0.998015 0.999901
0.994252 1.01598 0.979092 0.999507
1.00545 0.9988 1.00687 0.999788
1.01965 1.02123 0.998493 0.99996
1.02805 1.02969 0.998548 0.999864
1.00444 0.991174 1.01414 0.999257
0.97374 0.99789 0.976463 0.99932
0.971176 0.987979 0.98419 0.998783
0.981115 0.978204 1.00651 0.99649
1.02535 0.999731 1.02574 0.999889
1.02505 1.02581 0.999325 0.999933
1.01464 1.01821 0.996799 0.999694
0.933787 0.962008 0.971496 0.999145
0.958848 0.978156 0.981443 0.998795
0.987445 0.981138 1.01007 0.996393
0.984139 0.989472 0.995613 0.998994
1.00121 1 1.00167 0.999543
1.01327 1 1.01369 0.999586
1.0195 1 1.01998 0.999534
0.999462 1 1 0.999462
1.00006 1 1.00055 0.999508
1.00227 1 1.00281 0.999466
1.01021 1 1.01087 0.999345
0.999772 1 1.00032 0.999453
1.00169 1 1.00236 0.999333
1.00493 1 1.00575 0.999186
0.999491 1 1.0001 0.999396
1.00069 1 1.00144 0.999256
1.0013 1 1.00213 0.999173
0.999238 1 1 0.999238
0.999449 1 1 0.999449
0.999386 1 1.00008 0.999311
0.999324 1 1 0.999324
0.999562 1 1 0.999562
0.999525 1 1 0.999525
0.999607 1 1 0.999607
0.999554 1 1 0.999554
0.999486 1 1 0.999486
0.999746 1 1 0.999746
0.999634 1 1 0.999634
0.999557 1 1 0.999557
0.999955 1 1 0.999955
0.999765 1 1 0.999765
0.999626 1 1 0.999626
0.999785 1 1 0.999785
0.999966 1 1 0.999966
1 1 1 1
0.999974 1 1 0.999974
1 1 1 1
1 1 1 1
1 1 1 1
1 1 1 1
1 1 1 1
0.999796 1 1 0.999796
0.999974 1 1 0.999974
0.999808 1 1 0.999808
1 1 1 1
0.999974 1 1 0.999974
0.999845 1 1 0.999845
1 1 1 1
1 1 1 1
0.999974 1 1 0.999974
1 1 1 1
1 1 1 1
1 1 1 1
1.02073 1.02234 0.998468 0.999956
1.02539 1.02644 0.999037 0.999935
1.01974 1.02078 0.999175 0.999807
0.999644 1 1 0.999644
0.999592 1 1 0.999592
0.99969 1 1 0.99969
0.999653 1 1 0.999653
0.999594 1 1 0.999594
0.999586 1 1 0.999586
0.999539 1 1 0.999539
1.02234 1.02479 0.997775 0.999831
1.02631 1.02909 0.997419 0.999876
1.02739 1.02982 0.997777 0.999868
0.997991 1.02316 0.975791 0.999603
0.990656 1.00106 0.991361 0.998234
0.980312 0.976134 1.00736 0.996939
0.972316 0.98609 0.988037 0.99797
0.983702 0.990368 0.994623 0.998639
0.982612 0.979457 1.00699 0.996262
0.970934 0.988638 0.98407 0.997991
0.990869 1.01281 0.978847 0.999477
0.979097 0.983776 0.995865 0.999376
0.975689 0.980759 0.998631 0.996194
0.983802 0.996934 0.988009 0.998804
0.980407 1.00221 0.978794 0.999442
0.999495 1 1 0.999495
0.999511 1 1 0.999511
0.99953 1 1 0.99953
0.9996 1 1 0.9996
1.00332 1.00489 0.998905 0.999531
1.01298 0.998519 1.01497 0.999514
0.999471 1 1 0.999471
0.999409 1 1 0.999409
0.999403 1 1 0.999403
0.999447 1 1 0.999447
0.99938 1 1 0.99938
1.00879 0.994792 1.01431 0.999761
0.999271 0.999167 1.00044 0.999667
0.999399 1 1 0.999399
1.0196 0.990443 1.0295 0.999943
1.00337 1 1.00395 0.999423
1.02449 1.02491 0.999645 0.999942
1.01444 1.0153 0.999185 0.999975
1.02225 1.02312 0.999198 0.999955
1.00434 0.999429 1.00511 0.999805
1.00582 0.991141 1.01471 1.00011
1.01889 1.02016 0.998792 0.999964
0.977914 0.975825 1.00585 0.996316
0.96952 0.984005 0.987269 0.997985
1.02851 1.03007 0.998619 0.999866
0.972092 0.995536 0.977168 0.999266
1.02734 0.998876 1.02863 0.999873
1.02529 1.02619 0.999189 0.999934
1.01581 1.01859 0.997571 0.999696
0.988715 0.992134 0.99659 0.999964
0.929819 0.962216 0.967196 0.999106
0.957701 0.97695 0.981835 0.998433
0.989343 0.981231 1.01165 0.996652
1.01442 0.998622 1.01598 0.999835
1.02061 1.02078 1.00004 0.999798
0.959003 0.970532 0.988717 0.999397
0.928757 0.950667 0.978288 0.998637
0.98058 0.976299 1.00816 0.996257
0.983705 0.991859 0.99317 0.998599
1.01446 1 1.01487 0.99959
1.02018 1 1.02066 0.999531
1.01565 1 1.01622 0.999439
1.00177 1 1.0023 0.999473
1.01064 1 1.01129 0.999364
1.00798 1 1.00881 0.99918
1.00211 1 1.0028 0.999313
1.00494 1 1.00577 0.999168
1.00297 1 1.0039 0.999078
1.00117 1 1.00192 0.999252
1.00119 1 1.00204 0.999155
1.00076 1 1.00163 0.99913
0.999221 1 1 0.999221
0.999352 1 1 0.999352
0.999314 1 1.00009 0.999223
0.99953 1 1 0.99953
0.99946 1 1 0.99946
0.999444 1 1.00015 0.999297
0.99959 1 1 0.99959
0.999558 1 1 0.999558
0.99954 1 1 0.99954
0.999719 1 1 0.999719
0.999614 1 1 0.999614
0.999564 1 1 0.999564
0.999935 1 1 0.999935
0.999747 1 1 0.999747
0.999635 1 1 0.999635
1 1 1 1
0.999954 1 1 0.999954
0.999765 1 1 0.999765
0.999964 1 1 0.999964
1 1 1 1
1 1 1 1
1 1 1 1
1 1 1 1
1 1 1 1
0.999645 1 1 0.999645
0.999774 1 1 0.999774
0.999965 1 1 0.999965
0.999796 1 1 0.999796
1 1 1 1
0.999977 1 1 0.999977
0.999817 1 1 0.999817
1 1 1 1
1 1 1 1
0.999987 1 1 0.999987
1 1 1 1
1 1 1 1
1 1 1 1
1.02475 1.02549 0.999336 0.999937
1.02008 1.0213 0.998852 0.999959
1.02575 1.02687 0.998978 0.999935
0.999649 1 1 0.999649
0.999585 1 1 0.999585
0.99957 1 1 0.99957
0.999579 1 1 0.999579
0.999553 1 1 0.999553
0.999651 1 1 0.999651
0.999583 1 1 0.999583
0.999586 1 1 0.999586
0.999538 1 1 0.999538
0.999538 1 1 0.999538
1.01469 1.01583 0.999178 0.9997
1.02331 1.02606 0.997493 0.999833
1.02609 1.0288 0.997465 0.999901
0.989365 1.011 0.979106 0.999486
0.976902 0.991278 0.986679 0.998803
0.98341 0.989032 0.996058 0.998251
0.978879 0.980345 1.00216 0.996355
0.983023 0.983934 1.00054 0.99853
0.979536 0.979364 1.00388 0.99631
0.975064 0.991166 0.985317 0.998415
0.975131 0.999789 0.975923 0.999399
0.999746 0.982475 1.01887 0.998737
0.979104 0.981673 1.00096 0.996428
0.952845 0.97513 0.979147 0.997958
0.940991 0.972185 0.968742 0.999145
0.999568 1 1 0.999568
0.999496 1 1 0.999496
0.999509 1 1 0.999509
1.00073 0.993181 1.00784 0.999767
1.00012 1 1.00041 0.999709
0.999449 1 1 0.999449
0.999372 1 1 0.999372
0.99944 1 1.00003 0.999406
1.00386 1 1.00444 0.999422
1.01938 0.992053 1.02761 0.999944
1.0038 1 1.00435 0.999443
1.0115 0.997793 1.01406 0.999685
1.02063 1.02082 1 0.999808
1.0235 1.02397 0.999593 0.999948
1.01188 1.01263 0.999277 0.99998
1.02915 0.998054 1.03131 0.999855
0.987417 0.9912 0.997345 0.998836
1.02557 1.02656 0.999098 0.999934
0.981413 0.979462 1.00651 0.995506
0.955415 0.974714 0.982177 0.997987
1.0176 1.01898 0.998948 0.999699
0.926546 0.962766 0.963278 0.999067
1.01475 0.998945 1.01598 0.999838
1.02056 1.02087 0.999899 0.999801
0.95562 0.968106 0.987735 0.999359
0.980456 0.990751 0.990521 0.99908
0.931471 0.95461 0.977765 0.99795
0.980773 0.977424 1.00765 0.995805
0.996521 0.998528 0.998333 0.999657
0.972266 0.97505 0.997628 0.999515
0.925348 0.945044 0.981219 0.997901
0.975083 0.973185 1.00578 0.996189
0.998357 0.997448 1.00184 0.999077
1.02043 1 1.02091 0.999528
1.01816 1 1.01873 0.999437
0.99876 1 0.999469 0.999291
1.01089 1 1.01152 0.999382
1.00749 1 1.0083 0.999194
1.00164 1 1.00253 0.999109
1.00478 1 1.00563 0.999151
1.00259 1 1.00351 0.999081
0.999187 1 1.00003 0.999153
1.00107 1 1.00193 0.999138
1.00037 1 1.00123 0.999137
0.999236 1 1 0.999236
0.999303 1 1 0.999303
0.999299 1 1 0.999299
0.999226 1 1 0.999226
0.999454 1 1 0.999454
0.999333 1 1 0.999333
0.999395 1 1.00019 0.999207
0.999594 1 1 0.999594
0.999542 1 1 0.999542
0.99947 1 1 0.99947
0.999688 1 1 0.999688
0.999592 1 1 0.999592
0.999554 1 1 0.999554
0.999906 1 1 0.999906
0.999719 1 1 0.999719
0.999621 1 1 0.999621
1 1 1 1
0.999935 1 1 0.999935
0.999748 1 1 0.999748
1 1 1 1
1 1 1 1
0.999952 1 1 0.999952
1 1 1 1
1 1 1 1
1 1 1 1
0.999622 1 1 0.999622
0.999752 1 1 0.999752
0.99964 1 1 0.99964
0.999957 1 1 0.999957
0.999774 1 1 0.999774
1 1 1 1
0.999968 1 1 0.999968
0.999796 1 1 0.999796
1 1 1 1
1 1 1 1
0.99998 1 1 0.99998
1 1 1 1
1 1 1 1
1 1 1 1
1.01936 1.01953 1 0.999837
1.0258 1.02658 0.999312 0.999936
1.01942 1.02029 0.999182 0.999963
0.999578 1 1 0.999578
0.999653 1 1 0.999653
0.999578 1 1 0.999578
0.999586 1 1 0.999586
0.999577 1 1 0.999577
0.999552 1 1 0.999552
0.999534 1 1 0.999534
0.999536 1 1 0.999536
0.999587 1 1 0.999587
0.999537 1 1 0.999537
0.999537 1 1 0.999537
0.999526 1 1 0.999526
0.956986 0.972342 0.984957 0.999239
1.01373 1.01497 0.99907 0.999702
1.02462 1.02757 0.997295 0.999835
0.96842 0.995225 0.973747 0.999301
0.976351 0.993291 0.984851 0.998066
0.974531 0.979905 0.998303 0.996206
0.985683 0.980968 1.00535 0.99946
0.998893 0.980984 1.01863 0.999631
0.935302 0.967664 0.967418 0.999109
0.981938 0.980686 1.0054 0.995899
0.954611 0.975308 0.979999 0.998756
0.994092 0.989548 1.005 0.999598
0.977912 0.976072 1.00537 0.996536
0.929838 0.950998 0.979065 0.998657
1.00009 1 1.00041 0.999684
0.999569 1 1 0.999569
0.999497 1 1 0.999497
1.01891 0.993568 1.02556 0.999943
1.00448 1 1.00506 0.999421
0.999465 1 1.00005 0.999414
1.00409 1 1.00465 0.999445
1.01095 0.998768 1.01251 0.999695
1.00907 1 1.00939 0.99969
0.971327 0.975799 0.996083 0.999332
1.02031 1.02049 0.999986 0.999839
1.0226 1.02304 0.999616 0.999954
1.0151 0.999311 1.01596 0.999843
0.981703 0.992682 0.98951 0.999425
1.02042 1.02097 0.999666 0.999803
0.983465 0.978604 1.00798 0.997012
0.935188 0.95736 0.978125 0.998687
0.950923 0.968469 0.982621 0.999249
0.996108 0.999147 0.997285 0.999672
0.966585 0.974015 0.993 0.999367
0.933004 0.945767 0.987814 0.998675
0.998808 0.99605 1.00448 0.998297
0.976568 0.975573 1.00479 0.996251
0.993132 1.00652 0.987227 0.999466
0.934019 0.947897 0.986655 0.998686
0.973539 0.973214 1.00393 0.996417
1.00125 1.00374 0.999326 0.998194
1.02148 1 1.02206 0.999435
0.996558 1 0.997254 0.999302
0.992089 1.00017 0.992632 0.999278
1.0072 1 1.008 0.999208
1.00161 1 1.0025 0.999112
0.999517 1.00024 1 0.99928
1.00225 1 1.00317 0.999083
0.999454 1 1.00029 0.999163
0.999369 1 1 0.999369
0.99997 1 1.00083 0.999144
0.999241 1 1 0.999241
0.999411 1 1 0.999411
0.999435 1 1 0.999435
0.999332 1 1 0.999332
0.999317 1 1 0.999317
0.999391 1 1 0.999391
0.999311 1 1 0.999311
0.999232 1 1 0.999232
0.99956 1 1 0.99956
0.999453 1 1 0.999453
0.999314 1 1 0.999314
0.999673 1 1 0.999673
0.999593 1 1 0.999593
0.999554 1 1 0.999554
0.999869 1 1 0.999869
0.999689 1 1 0.999689
0.999593 1 1 0.999593
1 1 1 1
0.999905 1 1 0.999905
0.999719 1 1 0.999719
1 1 1 1
1 1 1 1
0.999934 1 1 0.999934
1 1 1 1
1 1 1 1
1 1 1 1
0.999629 1 1 0.999629
0.999625 1 1 0.999625
0.99973 1 1 0.99973
0.999945 1 1 0.999945
0.999752 1 1 0.999752
0.999634 1 1 0.999634
1 1 1 1
0.999959 1 1 0.999959
0.999774 1 1 0.999774
1 1 1 1
1 1 1 1
0.99997 1 1 0.99997
1 1 1 1
1 1 1 1
1 1 1 1
0.971643 0.974623 0.997473 0.999468
1.01936 1.01953 1 0.999839
1.02681 1.02759 0.999304 0.999936
0.999572 1 1 0.999572
0.999586 1 1 0.999586
0.999547 1 1 0.999547
0.999594 1 1 0.999594
0.999583 1 1 0.999583
0.999552 1 1 0.999552
0.999538 1 1 0.999538
0.999536 1 1 0.999536
0.999503 1 1 0.999503
0.999531 1 1 0.999531
0.999536 1 1 0.999536
0.999528 1 1 0.999528
0.933046 0.947384 0.986143 0.998703
0.957021 0.970664 0.986671 0.999263
1.01302 1.01426 0.99907 0.999704
0.92968 0.963584 0.965708 0.999074
0.951867 0.972108 0.981174 0.997966
0.989322 0.985563 1.00663 0.997203
1.00508 0.981229 1.02565 0.998696
0.994831 0.989856 1.00633 0.998707
0.932761 0.952889 0.980846 0.997992
0.98218 0.979516 1.0059 0.996834
0.995322 0.991223 1.0054 0.998737
0.977158 0.975817 1.00494 0.996454
1.0077 1 1.00819 0.99952
0.999946 1 1.00027 0.99968
0.99957 1 1 0.99957
1.01002 0.999422 1.0109 0.999705
1.00439 1 1.00494 0.999447
1.00884 1 1.00918 0.999667
1.00161 1.00067 1.00146 0.99948
0.934717 0.951791 0.983531 0.998505
0.972233 0.975385 0.997335 0.999433
1.01988 1.02009 0.999918 0.99987
0.99469 0.999425 0.995573 0.999689
1.00002 0.99536 1.00561 0.999075
0.967993 0.974405 0.994045 0.99937
0.977093 0.973994 1.00698 0.99623
0.929509 0.946433 0.984147 0.997939
0.994548 1.00624 0.988917 0.99946
0.935292 0.948367 0.987922 0.998269
0.973665 0.972148 1.00528 0.996295
1.00201 1.00113 1.00191 0.998962
1.00998 1.01178 0.998965 0.99926
0.962999 0.967187 0.999869 0.9958
0.998129 1.00177 0.997162 0.999198
0.994394 1 0.995077 0.999313
0.993683 1.0002 0.99422 0.999265
0.994728 1.00083 0.994564 0.999335
1.00151 1 1.0024 0.999115
0.999504 1.00032 0.999906 0.999277
1.00022 1.00127 0.999403 0.999544
0.999738 1 1.00057 0.999173
0.999371 1 1 0.999371
0.999772 1.00022 1 0.999556
0.999247 1 1 0.999247
0.999411 1 1 0.999411
0.999528 1 1 0.999528
0.999503 1 1 0.999503
0.999449 1 1 0.999449
0.999423 1 1 0.999423
0.999387 1 1 0.999387
0.999334 1 1 0.999334
0.999331 1 1 0.999331
0.999484 1 1 0.999484
0.999405 1 1 0.999405
0.999323 1 1 0.999323
0.999651 1 1 0.999651
0.999558 1 1 0.999558
0.999452 1 1 0.999452
0.999839 1 1 0.999839
0.999674 1 1 0.999674
0.999592 1 1 0.999592
1 1 1 1
0.999869 1 1 0.999869
0.99969 1 1 0.99969
1 1 1 1
1 1 1 1
0.999904 1 1 0.999904
1 1 1 1
1 1 1 1
1 1 1 1
0.999622 1 1 0.999622
0.99962 1 1 0.99962
0.999711 1 1 0.999711
0.999627 1 1 0.999627
0.99973 1 1 0.99973
0.999925 1 1 0.999925
1 1 1 1
0.999946 1 1 0.999946
0.999752 1 1 0.999752
1 1 1 1
1 1 1 1
0.99996 1 1 0.99996
1 1 1 1
1 1 1 1
1 1 1 1
0.941244 0.950066 0.992606 0.998093
0.969558 0.974691 0.995344 0.999386
1.0194 1.01956 1 0.999841
0.999567 1 1 0.999567
0.999543 1 1 0.999543
0.999591 1 1 0.999591
0.999587 1 1 0.999587
0.99955 1 1 0.99955
0.99954 1 1 0.99954
0.999538 1 1 0.999538
0.999506 1 1 0.999506
0.99953 1 1 0.99953
0.999496 1 1 0.999496
0.999654 1 1.00026 0.999397
0.999527 1 1 0.999527
0.999529 1 1 0.999529
0.972883 0.97684 1.00016 0.995787
0.93803 0.949704 0.989307 0.998384
0.956895 0.970594 0.986667 0.999208
0.934737 0.953663 0.981408 0.998722
0.978752 0.975827 1.00742 0.995614
0.997913 0.990941 1.00742 0.999616
0.997195 0.993498 1.00453 0.999197
0.977584 0.977243 1.00379 0.996567
0.991956 0.998984 0.994196 0.998762
1.00612 1.00132 1.0057 0.999102
1.00617 1 1.00666 0.999509
0.999675 1 1 0.999675
1.00768 1 1.00804 0.999645
1.00064 1.00095 1.00017 0.999525
0.956545 0.965271 0.994446 0.996494
0.937885 0.951042 0.988136 0.998005
0.973544 0.975062 0.998909 0.999534
0.995771 1.00628 0.990101 0.999454
1.00673 1.00512 1.0034 0.998206
0.938694 0.948415 0.991736 0.997998
0.974282 0.971796 1.00618 0.9964
1.00376 1.01073 0.99385 0.999254
0.965486 0.968821 1.00001 0.996547
0.998899 1.004 0.996485 0.998427
1.00145 1.01032 0.992119 0.999094
0.998132 0.994625 1.00406 0.999465
0.99408 1.00018 0.994643 0.999251
0.995084 1.00071 0.995055 0.999322
1.00028 1.00538 0.995512 0.999413
0.999366 1.00035 0.999738 0.999274
0.999461 1.00078 0.999144 0.999539
1.00022 1.00154 0.99908 0.999602
0.999373 1 1 0.999373
0.99967 1.00013 0.999994 0.999547
0.999817 1.00026 0.999987 0.999571
0.999411 1 1 0.999411
0.999521 1 1 0.999521
0.999518 1 1 0.999518
0.999519 1 1 0.999519
0.999464 1 1 0.999464
0.999464 1 1 0.999464
0.99942 1 1 0.99942
0.999416 1 1 0.999416
0.999444 1 1 0.999444
0.999384 1 1 0.999384
0.999337 1 1 0.999337
0.999606 1 1 0.999606
0.999493 1 1 0.999493
0.999419 1 1 0.999419
0.999814 1 1 0.999814
0.99965 1 1 0.99965
0.999556 1 1 0.999556
1 1 1 1
0.999839 1 1 0.999839
0.999674 1 1 0.999674
1 1 1 1
1 1 1 1
0.999869 1 1 0.999869
1 1 1 1
1 1 1 1
1 1 1 1
0.999603 1 1 0.999603
0.999623 1 1 0.999623
0.999682 1 1 0.999682
0.999612 1 1 0.999612
0.999703 1 1 0.999703
0.999895 1 1 0.999895
0.999729 1 1 0.999729
0.999925 1 1 0.999925
1 1 1 1
1 1 1 1
1 1 1 1
0.999947 1 1 0.999947
1 1 1 1
1 1 1 1
1 1 1 1
0.967023 0.970669 0.999699 0.996544
0.937343 0.952512 0.98545 0.998605
0.972383 0.975512 0.997347 0.999444
0.99954 1 1 0.99954
0.999596 1 1 0.999596
0.999553 1 1 0.999553
0.999587 1 1 0.999587
0.999562 1 1 0.999562
0.999566 1 1 0.999566
0.999509 1 1 0.999509
0.99952 1 1 0.99952
0.999494 1 1 0.999494
0.999505 1 1 0.999505
0.999425 1 1 0.999425
0.999222 1 1.00011 0.999107
0.999462 1 1.00006 0.999404
0.999524 1 1 0.999524
0.990099 0.994079 0.996948 0.999045
0.971257 0.973864 1.0009 0.996423
0.932175 0.949311 0.983962 0.997954
0.97573 0.975122 1.00426 0.996375
0.993287 0.992053 1.0016 0.999648
0.992827 0.997044 0.996317 0.999452
0.997211 1.00471 0.993324 0.99921
1.00319 1.00065 1.00337 0.999165
1.00512 1 1.00563 0.999498
0.998569 1.00107 0.997932 0.999567
0.987383 0.986386 1.00243 0.99859
0.962907 0.966874 0.999234 0.99666
0.936311 0.951324 0.985524 0.998675
1.00016 1.00962 0.991371 0.999247
1.00528 1.00754 0.998674 0.999078
0.966725 0.96849 1.00086 0.997322
0.998534 1.00816 0.991332 0.999112
0.994823 0.995211 1.00045 0.999157
0.996606 1.00988 0.987636 0.999206
1.00669 1.00502 1.00249 0.99918
0.996186 1.00053 0.996343 0.999309
1.00019 1.005 0.995803 0.999413
1.00123 1.00452 0.997308 0.999413
0.998994 1.00042 0.999038 0.999534
1.00007 1.00126 0.999214 0.999595
0.999991 1.00074 0.999799 0.999453
0.999538 1 1 0.999538
0.99967 1.00011 1 0.999562
0.999439 1 1 0.999439
0.999515 1 1 0.999515
0.999523 1 1 0.999523
0.999433 1 1 0.999433
0.999535 1 1 0.999535
0.999473 1 1 0.999473
0.999423 1 1 0.999423
0.999417 1 1 0.999417
0.999413 1 1 0.999413
0.999447 1 1 0.999447
0.999545 1 1 0.999545
0.999453 1 1 0.999453
0.999381 1 1 0.999381
0.999779 1 1 0.999779
0.999606 1 1 0.999606
0.999503 1 1 0.999503
0.999996 1 1 0.999996
0.999813 1 1 0.999813
0.999649 1 1 0.999649
1 1 1 1
0.999999 1 1 0.999999
0.999839 1 1 0.999839
1 1 1 1
1 1 1 1
1 1 1 1
0.999584 1 1 0.999584
0.999609 1 1 0.999609
0.999666 1 1 0.999666
0.999623 1 1 0.999623
0.99968 1 1 0.99968
0.999862 1 1 0.999862
0.999695 1 1 0.999695
0.999895 1 1 0.999895
1 1 1 1
0.999926 1 1 0.999926
1 1 1 1
1 1 1 1
1 1 1 1
1 1 1 1
1 1 1 1
0.983743 0.986272 0.998454 0.99898
0.961106 0.967849 0.996521 0.996501
0.935078 0.952082 0.984139 0.99797
0.999514 1 1 0.999514
0.999556 1 1 0.999556
0.999587 1 1 0.999587
0.999565 1 1 0.999565
0.999559 1 1 0.999559
0.999598 1 1 0.999598
0.999509 1 1 0.999509
0.999492 1 1 0.999492
0.999517 1 1 0.999517
0.999451 1 1 0.999451
0.999244 1 1 0.999244
1.0016 1.00272 1 0.998886
0.99924 1 1.00013 0.999111
0.999412 1 1 0.999412
0.999035 1.00371 0.996052 0.999291
0.990906 0.995444 0.996738 0.998698
0.972903 0.974818 1.00092 0.997119
0.995593 0.998492 0.998379 0.998717
1.00155 1.00574 0.996689 0.999143
1.00164 1.0001 1.00231 0.999229
0.999741 1.00025 1.00002 0.999472
0.988474 0.985341 1.00395 0.999229
0.959869 0.966694 0.996396 0.996531
0.994168 1.00592 0.989179 0.999129
0.992213 0.995353 0.998032 0.998812
0.998473 1.00982 0.989567 0.999186
1.005 1.00438 1.00136 0.999263
1.00738 1.00873 0.999492 0.99917
1.00251 1.0034 1 0.999118
0.999991 1.00467 0.995927 0.999414
1.00243 1.00488 0.998138 0.999418
0.999536 1.00024 1 0.999294
0.999911 1.00094 0.999384 0.999588
1.00026 1.00085 0.999957 0.99945
0.999349 1.00005 1 0.999301
0.999554 1 1 0.999554
0.999457 1 1 0.999457
0.999333 1 1 0.999333
0.999528 1 1 0.999528
0.999433 1 1 0.999433
0.999379 1 1 0.999379
0.999481 1 1 0.999481
0.999426 1 1 0.999426
0.999423 1 1 0.999423
0.99941 1 1 0.99941
0.999441 1 1 0.999441
0.99952 1 1 0.99952
0.999735 1 1 0.999735
0.999555 1 1 0.999555
0.999462 1 1 0.999462
0.999986 1 1 0.999986
0.999778 1 1 0.999778
0.999605 1 1 0.999605
1 1 1 1
0.999993 1 1 0.999993
0.999813 1 1 0.999813
1 1 1 1
0.999998 1 1 0.999998
1 1 1 1
0.999541 1 1 0.999541
0.999585 1 1 0.999585
0.999651 1 1 0.999651
0.999615 1 1 0.999615
0.99967 1 1 0.99967
0.999833 1 1 0.999833
0.999678 1 1 0.999678
0.999862 1 1 0.999862
1 1 1 1
0.999895 1 1 0.999895
1 1 1 1
1 1 1 1
1 1 1 1
1 1 1 1
1 1 1 1
1.00034 1.00374 0.997094 0.999514
0.983433 0.987573 0.997477 0.998326
0.964342 0.968098 0.999532 0.996587
0.99954 1 1 0.99954
0.999411 1 1 0.999411
0.999522 1 1 0.999522
0.999564 1 1 0.999564
0.999556 1 1 0.999556
0.999587 1 1 0.999587
0.999314 1 1 0.999314
0.99953 1 1 0.99953
0.999477 1 1 0.999477
0.999253 1 1 0.999253
0.999526 1.00055 1 0.998981
1.00295 1.00433 0.999519 0.999104
1.00102 1.00213 1 0.998899
0.999115 1 1 0.999115
1.00108 1.00553 0.996249 0.999318
0.988978 0.994916 0.995735 0.998289
1.00426 1.0065 0.998692 0.999077
0.999953 1.00047 1 0.99948
1.00073 1.00008 1.00116 0.999498
0.986534 0.98512 1.00298 0.99846
1.00077 1.01006 0.991625 0.999167
1.00331 1.0037 1.00027 0.999348
1.00755 1.0092 0.999187 0.999187
1.00312 1.00397 1 0.999152
1.00109 1.00189 1 0.999197
1.00075 1.00141 1 0.999343
1.00362 1.00526 0.998947 0.999424
0.999679 1.00038 1 0.9993
0.999203 1 1 0.999201
1.00036 1.00092 1 0.999448
0.999404 1.00009 1 0.999311
0.999237 1 1 0.999237
0.999475 1 1 0.999475
0.999331 1 1 0.999331
0.999294 1 1 0.999294
0.999433 1 1 0.999433
0.999379 1 1 0.999379
0.999378 1 1 0.999378
0.999429 1 1 0.999429
0.999424 1 1 0.999424
0.99949 1 1 0.99949
0.999434 1 1 0.999434
0.999517 1 1 0.999517
0.999696 1 1 0.999696
0.999969 1 1 0.999969
0.999735 1 1 0.999735
0.999565 1 1 0.999565
1 1 1 1
0.999981 1 1 0.999981
0.999778 1 1 0.999778
1 1 1 1
0.999991 1 1 0.999991
1 1 1 1
0.999457 1 1 0.999457
0.999532 1 1 0.999532
0.999615 1 1 0.999615
0.999586 1 1 0.999586
0.999652 1 1 0.999652
0.999807 1 1 0.999807
0.999674 1 1 0.999674
0.999832 1 1 0.999832
0.999999 1 1 0.999999
0.999862 1 1 0.999862
1 1 1 1
1 1 1 1
1 1 1 1
1 1 1 1
1 1 1 1
1.00035 1.00158 0.999381 0.999395
0.999243 1.00267 0.997079 0.999505
0.983104 0.986214 0.997925 0.998919
0.999365 1 1 0.999365
0.999585 1 1 0.999585
0.999276 1 1 0.999276
0.999404 1 1 0.999404
0.99953 1 1 0.99953
0.999606 1.00053 1 0.999078
0.999576 1 1 0.999576
0.999308 1 1 0.999308
0.999993 1.00093 1 0.999062
0.999262 1 1 0.999262
0.99962 1.00066 1 0.99896
1.00251 1.00375 0.999671 0.999098
1.00022 1.00131 1 0.998912
1.00273 1.00683 0.996586 0.999344
1.00014 1.00067 1 0.999471
0.999808 1.00033 1 0.999478
1.00177 1 1.00224 0.999525
1.00779 1.0097 0.998911 0.999203
1.00387 1.00469 1 0.999187
1.00143 1.00224 1 0.999191
1.00117 1.00183 1 0.999341
0.999761 1.00047 1 0.999292
0.999835 1.00053 1 0.999306
0.999207 1 1 0.999207
0.9992 1 1 0.9992
0.999462 1.00014 1 0.999322
0.999233 1 1 0.999233
0.999221 1 1 0.999221
0.99933 1 1 0.99933
0.999292 1 1 0.999292
0.999308 1 1 0.999308
0.999379 1 1 0.999379
0.999378 1 1 0.999378
0.99944 1 1 0.99944
0.999424 1 1 0.999424
0.999491 1 1 0.999491
0.999658 1 1 0.999658
0.999513 1 1 0.999513
0.999696 1 1 0.999696
0.999953 1 1 0.999953
1 1 1 1
0.999965 1 1 0.999965
0.999735 1 1 0.999735
1 1 1 1
0.999976 1 1 0.999976
1 1 1 1
0.999302 1 1 0.999302
0.999387 1 1 0.999387
0.999446 1 1 0.999446
0.999572 1 1 0.999572
0.999522 1 1 0.999522
0.999617 1 1 0.999617
0.999784 1 1 0.999784
0.999652 1 1 0.999652
0.999807 1 1 0.999807
0.999993 1 1 0.999993
0.999832 1 1 0.999832
0.999999 1 1 0.999999
1 1 1 1
1 1 1 1
1 1 1 1
1 1 1 1
1.00011 1.0008 1 0.999311
1.00156 1.00258 0.999567 0.999412
0.998871 1.00231 0.997069 0.999496
0.999293 1.00014 1 0.999155
0.999405 1 1 0.999405
0.99963 1 1 0.99963
0.999292 1 1 0.999292
0.999397 1 1 0.999397
1.00015 1.00112 1 0.99903
0.999551 1.00049 1 0.999059
0.999302 1 1 0.999302
1.00009 1.00104 1 0.999055
0.999697 1.00076 1 0.998938
1.00266 1.00378 0.99979 0.999092
1.00015 1.00077 1 0.999386
1.00003 1.00057 1 0.999459
0.999562 1.00009 1 0.999475
1.00166 1.00248 1 0.999186
1.0015 1.00216 1 0.99934
0.999808 1.00051 1 0.999293
0.999381 1.00012 1 0.99926
0.999212 1 1 0.999212
0.999196 1 1 0.999196
0.999212 1 1 0.999212
0.999229 1 1 0.999229
0.99922 1 1 0.99922
0.999251 1 1 0.999251
0.999291 1 1 0.999291
0.999307 1 1 0.999307
0.999378 1 1 0.999378
0.999378 1 1 0.999378
0.99944 1 1 0.99944
0.999609 1 1 0.999609
0.999491 1 1 0.999491
0.999657 1 1 0.999657
0.99994 1 1 0.99994
0.999696 1 1 0.999696
0.999949 1 1 0.999949
1 1 1 1
1 1 1 1
0.99996 1 1 0.99996
1 1 1 1
0.999183 1 1 0.999183
0.999374 1 1 0.999374
0.99936 1 1 0.99936
0.999508 1 1 0.999508
0.999386 1 1 0.999386
0.999436 1 1 0.999436
0.999573 1 1 0.999573
0.999752 1 1 0.999752
0.999618 1 1 0.999618
0.999784 1 1 0.999784
0.999981 1 1 0.999981
0.999807 1 1 0.999807
0.999995 1 1 0.999995
1 1 1 1
1 1 1 1
1 1 1 1
1 1 1 1
1.00048 1.00127 1 0.999214
1.00007 1.00076 1 0.99931
1.00245 1.00323 0.999796 0.999429
0.999675 1.0006 1 0.999075
0.999296 1.00014 1 0.999157
0.999444 1 1 0.999444
0.999309 1 1 0.999309
1.0002 1.00117 1 0.99903
0.999584 1.00055 1 0.999039
1.00018 1.00113 1 0.999049
1.00044 1.00114 1 0.999303
1.00021 1.00085 1 0.999363
0.999851 1.0004 1 0.999448
0.999813 1.00057 1 0.999239
0.999916 1.00062 1 0.999294
0.999421 1.00016 1 0.999259
0.999241 1 1 0.999241
0.999192 1 1 0.999192
0.999213 1 1 0.999213
0.999235 1 1 0.999235
0.999219 1 1 0.999219
0.99925 1 1 0.99925
0.99933 1 1 0.99933
0.999306 1 1 0.999306
0.999378 1 1 0.999378
0.999554 1 1 0.999554
0.99944 1 1 0.99944
0.999608 1 1 0.999608
0.999928 1 1 0.999928
0.999657 1 1 0.999657
0.999937 1 1 0.999937
1 1 1 1
0.999946 1 1 0.999946
1 1 1 1
1 1 1 1
0.999122 1.00001 1 0.999109
0.999256 1 1 0.999256
0.999204 1 1 0.999204
0.999463 1 1 0.999463
0.999373 1 1 0.999373
0.999417 1 1 0.999417
0.999692 1 1 0.999692
0.999507 1 1 0.999507
0.999385 1 1 0.999385
0.999574 1 1 0.999574
0.999753 1 1 0.999753
0.999966 1 1 0.999966
0.999784 1 1 0.999784
0.999985 1 1 0.999985
1 1 1 1
0.999997 1 1 0.999997
1 1 1 1
1 1 1 1
1.00019 1.00101 1 0.999184
1.00075 1.00155 1 0.999196
1.00012 1.00081 1 0.999308
0.999505 1.00044 1 0.99907
0.999294 1.00014 1 0.999159
1.00013 1.0011 1 0.999031
1.00058 1.00135 1 0.999233
1.00051 1.00121 1 0.999303
1.00029 1.00095 1 0.99934
0.9997 1.00046 1 0.99924
0.999457 1.00024 1 0.999219
0.999441 1.00018 1 0.999257
0.999241 1 1 0.999241
0.999247 1 1 0.999247
0.999214 1 1 0.999214
0.999236 1 1 0.999236
0.999308 1 1 0.999308
0.99925 1 1 0.99925
0.99933 1 1 0.99933
0.999515 1 1 0.999515
0.999377 1 1 0.999377
0.999553 1 1 0.999553
0.999915 1 1 0.999915
0.999607 1 1 0.999607
0.999925 1 1 0.999925
0.999999 1 1 0.999999
0.999934 1 1 0.999934
1 1 1 1
1 1 1 1
0.999187 1 1 0.999185
0.999167 1 1 0.999167
0.999119 1.00002 1 0.999102
0.999369 1 1 0.999369
0.999266 1 1 0.999266
0.999225 1 1 0.999225
0.999623 1 1 0.999623
0.999444 1 1 0.999444
0.999371 1 1 0.999371
0.999943 1 1 0.999943
0.999693 1 1 0.999693
0.999507 1 1 0.999507
0.999753 1 1 0.999753
0.999971 1 1 0.999971
1 1 1 1
0.999988 1 1 0.999988
1 1 1 1
1 1 1 1
0.999769 1.00059 1 0.999181
1.00011 1.00093 1 0.99918
1.00099 1.00181 1 0.999177
0.999389 1.00032 1 0.999065
1.00005 1.00086 1 0.999192
1.00062 1.00139 1 0.999239
1.00062 1.00132 1 0.999303
0.999557 1.00032 1 0.999241
0.999556 1.00034 1 0.999219
0.999273 1.00004 1 0.999238
0.999241 1 1 0.999241
0.999251 1 1 0.999251
0.999297 1 1 0.999297
0.999237 1 1 0.999237
0.999308 1 1 0.999308
0.999494 1 1 0.999494
0.999329 1 1 0.999329
0.999514 1 1 0.999514
0.999902 1 1 0.999902
0.999552 1 1 0.999552
0.999911 1 1 0.999911
1 1 1 1
0.999921 1 1 0.999921
0.999999 1 1 0.999999
1 1 1 1
0.99922 1.00002 1 0.999203
0.999202 1 1 0.999202
0.999187 1 1 0.999187
0.99927 1 1 0.99927
0.99918 1 1 0.99918
0.999116 1.00002 1 0.999096
0.999528 1 1 0.999528
0.999368 1 1 0.999368
0.999276 1 1 0.999276
0.999919 1 1 0.999919
0.999607 1 1 0.999607
0.999425 1 1 0.999425
1 1 1 1
0.99995 1 1 0.99995
0.999694 1 1 0.999694
0.999975 1 1 0.999975
1 1 1 1
1 1 1 1
0.999727 1.00054 1 0.99919
0.99995 1.00076 1 0.99919
0.999972 1.0008 1 0.999175
0.999413 1.00022 1 0.999193
1.00002 1.00083 1 0.999188
1.00066 1.00142 1 0.999244
0.999666 1.00045 1 0.999219
0.999272 1.00003 1 0.999238
0.999304 1 1 0.999304
0.999255 1 1 0.999255
0.999312 1 1 0.999312
0.999453 1 1 0.999453
0.999309 1 1 0.999309
0.999494 1 1 0.999494
0.999891 1 1 0.999891
0.999513 1 1 0.999513
0.9999 1 1 0.9999
1 1 1 1
0.999907 1 1 0.999907
0.999999 1 1 0.999999
1 1 1 1
0.999252 1.00004 1 0.999211
0.999234 1 1 0.999234
0.999239 1.00004 1 0.999203
0.999283 1 1 0.999283
0.999207 1 1 0.999207
0.999189 1 1 0.999189
0.999466 1 1 0.999466
0.99929 1 1 0.99929
0.999193 1 1 0.999193
0.9999 1 1 0.9999
0.999519 1 1 0.999519
0.999367 1 1 0.999367
1 1 1 1
0.999925 1 1 0.999925
0.99959 1 1 0.99959
1 1 1 1
0.999957 1 1 0.999957
1 1 1 1
0.999353 1.00015 1 0.999204
0.999655 1.00046 1 0.999191
1.00015 1.00096 1 0.999198
0.999262 1 1 0.999262
0.999357 1.00016 1 0.999195
0.999999 1.00081 1 0.999185
0.999274 1.00004 1 0.999239
0.999305 1 1 0.999305
0.999427 1 1 0.999427
0.999327 1 1 0.999327
0.999467 1 1 0.999467
0.999871 1 1 0.999871
0.999495 1 1 0.999495
0.999889 1 1 0.999889
1 1 1 1
0.999899 1 1 0.999899
1 1 1 1
0.999998 1 1 0.999998
0.99924 1 1 0.99924
0.99923 1.00002 1 0.99921
0.99929 1 1 0.99929
0.999234 1 1 0.999234
0.999259 1.00005 1 0.999204
0.99947 1 1 0.99947
0.999282 1 1 0.999282
0.999212 1 1 0.999212
0.999887 1 1 0.999887
0.999476 1 1 0.999476
0.999311 1 1 0.999311
1 1 1 1
0.999904 1 1 0.999904
0.999511 1 1 0.999511
1 1 1 1
0.999932 1 1 0.999932
1 1 1 1
0.999275 1 1 0.999275
0.999273 1.00007 1 0.999207
0.999555 1.00036 1 0.999192
0.999399 1 1 0.999399
0.999262 1 1 0.999262
0.99928 1.00008 1 0.999197
0.999305 1 1 0.999305
0.999431 1 1 0.999431
0.999844 1 1 0.999844
0.999481 1 1 0.999481
0.999869 1 1 0.999869
1 1 1 1
0.999888 1 1 0.999888
1 1 1 1
1 1 1 1
0.999285 1 1 0.999285
0.999235 1 1 0.999235
0.999208 1 1 0.999208
0.999462 1 1 0.999462
0.99929 1 1 0.99929
0.999234 1 1 0.999234
0.999878 1 1 0.999878
0.999469 1 1 0.999469
0.99928 1 1 0.99928
1 1 1 1
0.99989 1 1 0.99989
0.999486 1 1 0.999486
1 1 1 1
0.999908 1 1 0.999908
1 1 1 1
0.999427 1 1 0.999427
0.999261 1 1 0.999261
0.99921 1 1 0.99921
0.999826 1 1 0.999826
0.999401 1 1 0.999401
0.999262 1 1 0.999262
0.999436 1 1 0.999436
0.999843 1 1 0.999843
1 1 1 1
0.999867 1 1 0.999867
1 1 1 1
1 1 1 1
0.999447 1 1 0.999447
0.99928 1 1 0.99928
0.999231 1 1 0.999231
0.999873 1 1 0.999873
0.999461 1 1 0.999461
0.999289 1 1 0.999289
1 1 1 1
0.999878 1 1 0.999878
0.999468 1 1 0.999468
1 1 1 1
0.999892 1 1 0.999892
1 1 1 1
0.999822 1 1 0.999822
0.999416 1 1 0.999416
0.999247 1 1 0.999247
1 1 1 1
0.999825 1 1 0.999825
0.999404 1 1 0.999404
0.999841 1 1 0.999841
1 1 1 1
1 1 1 1
0.999852 1 1 0.999852
0.999447 1 1 0.999447
0.999274 1 1 0.999274
1 1 1 1
0.999866 1 1 0.999866
0.999461 1 1 0.999461
1 1 1 1
0.999879 1 1 0.999879
1 1 1 1
0.999969 1 1 0.999969
0.999834 1 1 0.999834
0.999405 1 1 0.999405
1 1 1 1
0.999824 1 1 0.999824
1 1 1 1
0.999978 1 1 0.999978
0.99985 1 1 0.99985
0.999447 1 1 0.999447
0.999992 1 1 0.999992
0.999864 1 1 0.999864
1 1 1 1
1 1 1 1
0.999827 1 1 0.999827
1 1 1 1
0.999987 1 1 0.999987
0.999845 1 1 0.999845
1 1 1 1
1 1 1 1
1 1 1 1

VECTORS lamdaE float
0.998957 1.0001 0.99682
0.999152 0.99915 0.998746
0.998886 1.00019 0.996873
0.999307 1.00006 0.99642
0.998966 1.00025 0.99671
0.999065 0.999694 0.996976
0.999637 1.00069 0.9948
0.999184 0.999026 0.998782
0.998863 1.00029 0.998638
0.99891 0.999592 0.998777
0.999331 0.998654 0.997474
0.99964 1.00036 0.994868
0.999597 0.999989 0.996038
0.999235 0.999914 0.996537
0.998808 1.00032 0.996933
0.999215 1.00009 0.996497
0.999007 0.999752 0.997031
0.998887 1.00035 0.996776
0.999693 1.00065 0.994799
0.999492 0.99999 0.998295
0.999415 0.999961 0.996359
0.999111 1.0002 0.996568
1.00046 1.00007 0.994004
0.999865 1.00055 0.994554
0.999246 0.999086 0.997232
0.99948 1.00066 0.995087
1.00088 1.00116 0.99208
0.999214 0.998895 0.998818
0.998914 1.00025 0.997658
0.998976 0.999675 0.997901
0.999315 0.998517 0.998889
0.999583 1.00044 0.99487
0.999139 1.00029 0.996561
0.998965 1.00028 0.996878
1.00006 1.0005 0.994868
0.999385 0.998027 0.999082
0.999696 1.00048 0.995408
0.999592 1.00007 0.995215
1.00025 1.00161 0.992508
0.999507 0.997566 0.999178
0.999572 1 0.998228
0.999308 0.999973 0.997457
0.999708 0.999999 0.99812
0.999304 0.999915 0.996417
1.00088 1.00001 0.992777
0.999151 1.00013 0.998555
1.00063 0.999966 0.994368
0.999123 1.00012 0.996573
0.9988 1.00048 0.996835
0.998948 0.999804 0.997096
0.999751 1.00058 0.994795
0.999469 0.999975 0.99727
0.999327 0.999953 0.996435
0.999207 0.999073 0.997288
0.999019 1.00027 0.996645
1.00049 1.00006 0.993986
0.999529 1.00063 0.995089
0.999919 1.00051 0.994552
1.00095 1.00118 0.992006
0.999583 1 0.998216
0.999444 0.999961 0.996296
1.00074 0.999988 0.994073
1.00059 0.999918 0.993931
1.00016 1.00032 0.994265
1.0024 1.00003 0.990463
1.00136 1.00071 0.991386
0.999463 0.998399 0.997539
0.999385 1.00038 0.995531
1.00039 1.00154 0.992576
1.00159 1.00126 0.990285
0.998938 1.00015 0.998578
0.999346 0.998375 0.998956
0.999037 0.999438 0.998725
0.999523 1.00053 0.99487
0.999149 1.00022 0.998483
0.998927 1.00005 0.998624
0.999944 1.00055 0.994007
0.999406 0.998082 0.998419
0.999613 1.00061 0.994625
0.999563 1.00003 0.995637
1.00025 1.0016 0.992496
0.999466 0.997801 0.999108
0.999675 0.998744 0.996415
1.0003 1.00025 0.993685
0.999808 1.00065 0.994283
1.00148 1.00073 0.99102
0.999572 0.999537 0.996397
1.00052 1.00133 0.992288
1.00007 1.00175 0.992724
1.0007 1.00185 0.99136
0.999561 0.997291 0.999238
0.999504 0.997519 0.999198
0.999329 1.00003 0.998428
0.999508 1 0.998282
0.999679 1 0.998144
0.999384 0.999981 0.99735
1.00086 1.00001 0.993369
0.999192 1.00007 0.997523
1.00058 0.999952 0.993921
0.999706 0.999996 0.998128
1.00103 0.999969 0.9925
1.00074 0.999982 0.994163
1.00289 0.999761 0.989278
1.00048 1.00005 0.994516
1.00252 0.9999 0.989858
0.999544 0.999956 0.996147
0.99924 0.999933 0.99651
0.999163 0.999028 0.997351
0.998928 1.00037 0.996717
1.00052 1.00005 0.993969
0.999977 1.00044 0.994553
0.999579 1.00058 0.995086
1.00102 1.00122 0.991933
0.999637 0.999999 0.998179
0.99936 0.999934 0.996383
1.00079 0.999963 0.993253
1.00062 0.999909 0.9939
0.999405 0.998357 0.998241
0.99946 1.00033 0.995641
1.00021 1.00029 0.994259
1.00239 1.00003 0.990358
1.00046 1.00158 0.9925
1.0014 1.00075 0.991454
1.0016 1.00126 0.990289
1.00093 0.999997 0.992664
1.0006 0.999915 0.993883
1.00277 0.999769 0.989759
1.00256 0.99976 0.990168
1.00196 1.00032 0.990722
1.00337 0.999793 0.988655
0.999489 0.997928 0.999058
1.00211 1.00076 0.989773
0.999559 0.99989 0.995468
1.00001 1.00169 0.99277
1.0011 1.00185 0.990753
1.00205 1.00118 0.989513
0.99969 0.999014 0.996057
1.00008 1.00065 0.99377
0.999079 1.0002 0.998503
0.998908 0.999887 0.998661
0.999905 1.00058 0.99402
0.999424 0.998005 0.999074
0.999522 1.00008 0.99531
0.999538 1.00073 0.994615
1.00025 1.00159 0.992484
0.999464 0.997774 0.999131
0.999681 0.998694 0.996435
1.00027 1.00023 0.99419
0.999729 1.00065 0.994748
1.00147 1.00072 0.991038
0.999581 0.999502 0.995822
1.0005 1.00132 0.992295
1.00005 1.00175 0.992717
1.0007 1.00184 0.991324
0.999616 0.999125 0.996131
0.999751 0.998358 0.996668
1.00002 1.00054 0.993962
1.002 1.00032 0.990423
1.00091 1.0011 0.991756
1.00225 1.0008 0.989503
1.00006 1.00139 0.993073
1.00104 1.00145 0.991104
1.00042 1.00235 0.991511
1.00085 1.00212 0.990884
0.999636 0.99702 0.999282
0.999567 0.99724 0.999253
0.999504 0.997469 0.999218
0.999737 0.99866 0.996345
0.999524 0.997688 0.999131
0.999222 1.00012 0.998463
0.999407 1 0.998372
1.00056 0.999921 0.993441
1.00081 1 0.992876
0.999638 1 0.998175
0.999713 0.999998 0.998116
1.00102 0.999975 0.992514
1.00069 0.999986 0.993719
1.00288 0.999764 0.989282
1.00043 1.00001 0.99359
1.00251 0.999912 0.989857
1.00107 0.999958 0.99242
1.00316 0.9997 0.988809
1.00266 0.999809 0.989666
1.00386 0.999454 0.987775
1.00233 1.00005 0.990062
1.00346 0.999576 0.988422
0.999674 0.999995 0.998144
0.999274 0.999895 0.996473
1.0008 0.999941 0.992479
1.00065 0.999912 0.99387
0.99932 0.998291 0.998977
0.999533 1.00031 0.995749
1.00025 1.00025 0.994256
1.00238 1.00002 0.990254
1.00144 1.0008 0.991522
1.00054 1.00163 0.992423
1.0016 1.00126 0.990293
1.00094 0.999984 0.99265
1.00064 0.999902 0.993853
1.00275 0.999754 0.989554
1.00256 0.999806 0.990255
0.99947 0.997965 0.999032
0.99956 0.999864 0.99579
1.00008 1.00171 0.992867
1.00194 1.00036 0.990731
1.00335 0.999734 0.98852
1.00104 1.00185 0.990739
1.00217 1.00077 0.989818
1.00205 1.00118 0.989522
0.999672 0.999076 0.996044
1.00008 1.00063 0.993766
1.00307 0.999712 0.988963
1.00257 0.999747 0.990142
1.0037 0.999532 0.988248
1.00358 0.999348 0.988285
1.00276 1.00024 0.989191
1.00389 0.999298 0.988031
0.999626 0.999408 0.995753
1.00268 1.00052 0.988962
0.999996 1.00154 0.992957
1.00049 1.00213 0.991332
1.00155 1.00198 0.990008
1.00239 1.00095 0.989193
1.00009 1.00111 0.993298
1.00009 1.00011 0.994282
1.00026 1.00174 0.992354
1.00022 1.00025 0.993751
0.99946 0.99774 0.999153
0.999685 0.998653 0.996456
0.999636 1.00077 0.994357
1.00146 1.00071 0.991056
0.999578 0.999459 0.995795
1.00003 1.00174 0.99271
1.00049 1.00131 0.992301
1.00071 1.00183 0.991288
0.999626 0.999068 0.996146
0.999746 0.998338 0.996683
1.00002 1.00055 0.993967
1.00199 1.00032 0.990431
1.00089 1.00109 0.991778
1.00224 1.0008 0.989506
1.00003 1.00144 0.993072
1.00105 1.00145 0.991148
1.00041 1.00234 0.991507
1.00083 1.00213 0.990838
0.999821 0.99805 0.996844
1.00006 1.00095 0.993472
1.00002 1.00005 0.994464
1.0002 1.00158 0.992646
1.00287 1.00022 0.988888
1.00153 1.00126 0.990434
1.0027 1.00069 0.988735
1.00031 1.0022 0.9919
1.00131 1.00151 0.990632
1.00044 1.00306 0.99074
1.00099 1.00206 0.990459
1.00014 0.999083 0.995219
0.999933 0.997636 0.997038
0.999717 0.996788 0.999312
0.999647 0.99698 0.999292
0.999574 0.997191 0.999268
0.999793 0.998333 0.996579
0.999561 0.997434 0.999194
0.999733 0.998703 0.996325
0.999525 0.997718 0.999109
1.00044 0.999997 0.993591
1.00066 0.999967 0.993215
1.0025 0.999923 0.989857
1.00287 0.99977 0.989287
1.001 0.999982 0.992526
0.999723 1 0.998111
1.00107 0.999964 0.992414
1.00316 0.999698 0.988814
1.00265 0.999822 0.989665
1.00386 0.999462 0.987777
1.00232 1.00007 0.990064
1.00346 0.999572 0.988422
1.00323 0.999665 0.9887
1.00417 0.999379 0.987249
1.00363 0.999467 0.988201
1.00426 0.999082 0.987389
1.00323 0.999819 0.9886
1.00397 0.999063 0.987967
1.00096 0.999974 0.992633
1.00068 0.999903 0.993822
1.00273 0.999733 0.989349
1.00257 0.999844 0.990342
0.999455 0.998014 0.999004
0.999575 0.999861 0.996097
1.00017 1.00171 0.992963
1.00192 1.00039 0.99074
1.00334 0.999675 0.988385
1.00222 1.00078 0.989863
1.00097 1.00184 0.990725
1.00204 1.00117 0.989531
0.999656 0.999138 0.996031
1.00008 1.00062 0.993763
1.00305 0.9997 0.988902
1.00259 0.999743 0.990137
1.00372 0.999504 0.988173
1.00358 0.99942 0.988419
0.999616 0.999469 0.995751
1.00003 1.00156 0.992959
1.00049 1.0021 0.991428
1.0028 1.00028 0.989179
1.00389 0.999214 0.987998
1.00149 1.002 0.989904
1.00268 1.00052 0.98896
1.00234 1.00093 0.989204
1.0001 1.00105 0.993305
1.00026 1.0017 0.992364
1.00008 1.00012 0.994271
1.004 0.999475 0.987722
1.00357 0.999425 0.988484
1.00418 0.999277 0.987489
1.00413 0.998897 0.987834
1.00329 0.99979 0.988366
1.00419 0.998632 0.988007
1.00005 1.0014 0.993068
1.00296 1.00021 0.988711
1.00036 1.00197 0.991943
1.00072 1.00255 0.990483
1.00179 1.00202 0.989338
1.00257 1.0006 0.989391
1.00013 0.999704 0.994612
1.00033 1.00176 0.992212
1.00025 1.00133 0.992712
1.00024 1.0023 0.991883
1.00199 1.00033 0.990439
0.99974 0.998316 0.996698
0.999639 0.999011 0.99616
1.00002 1.00055 0.993971
1.00086 1.00108 0.9918
1.00224 1.00081 0.989508
0.999995 1.00149 0.993072
1.00041 1.00234 0.991502
1.00107 1.00146 0.991192
1.0008 1.00213 0.990793
0.999813 0.998043 0.996852
1.00005 1.00098 0.99347
1.00002 1.00003 0.994474
1.00019 1.00161 0.992636
1.00287 1.00023 0.988879
1.00151 1.00126 0.990448
1.0027 1.00069 0.98874
1.00028 1.00221 0.991909
1.00133 1.00153 0.990679
1.00046 1.00307 0.990708
1.00095 1.00204 0.990635
0.99988 0.997822 0.996958
1.00006 0.999644 0.994803
1.00028 1.00183 0.992288
1.00018 1.00114 0.993101
1.00016 1.00239 0.991936
1.00337 0.999942 0.988195
1.00186 1.00127 0.98978
1.00293 1.00053 0.988469
1.00027 1.00314 0.991053
1.00146 1.00148 0.990343
1.00058 1.00329 0.989853
1.00012 0.999228 0.995121
1.00017 1.00009 0.994168
1.00017 0.998972 0.995291
1.00013 0.999102 0.995216
0.999966 0.997439 0.997551
0.999923 0.997617 0.997266
0.999835 0.996605 0.998455
0.999728 0.996753 0.99932
0.999658 0.996939 0.999302
0.999856 0.99807 0.996726
0.999624 0.997176 0.99924
0.999798 0.998354 0.996563
0.999563 0.997476 0.999175
0.999726 0.998749 0.996304
0.999524 0.997747 0.999087
1.00231 1.00008 0.990067
1.00265 0.99983 0.989664
1.00346 0.999576 0.988421
1.00386 0.999468 0.987779
1.00316 0.999695 0.988819
1.00108 0.999969 0.992409
1.00323 0.999665 0.988696
1.00417 0.999378 0.987254
1.00363 0.99948 0.988204
1.00429 0.999069 0.987325
1.00324 0.999819 0.988592
1.00396 0.99907 0.987969
1.00425 0.999334 0.987129
1.00459 0.999052 0.986749
1.00413 0.998976 0.987731
1.00449 0.998857 0.987258
1.00373 0.999401 0.98807
1.00422 0.998433 0.988112
1.00302 0.999689 0.988841
1.0026 0.999731 0.990131
1.00374 0.999478 0.988098
1.00357 0.999493 0.988553
0.999608 0.999514 0.995747
1.00004 1.00156 0.992962
1.0005 1.00207 0.991524
1.00284 1.00032 0.989167
1.00388 0.999129 0.987966
1.00268 1.00052 0.988959
1.00144 1.00201 0.9898
1.00228 1.00091 0.989215
1.00011 1.00101 0.993312
1.00026 1.00167 0.992373
1.00008 1.00013 0.99426
1.00403 0.99945 0.987584
1.00359 0.999386 0.988484
1.00418 0.999231 0.987447
1.00413 0.998935 0.987864
1.00008 1.00134 0.993077
1.0004 1.00196 0.991926
1.00069 1.00255 0.990605
1.0033 0.999883 0.988426
1.00421 0.99852 0.98803
1.00171 1.00207 0.989272
1.00297 1.00019 0.988711
1.00252 1.00052 0.989416
1.00033 1.00177 0.992226
1.00025 1.00232 0.991827
1.00012 0.999723 0.994605
1.00025 1.00126 0.992785
1.00445 0.99917 0.986955
1.00408 0.999084 0.987805
1.00439 0.998985 0.987297
1.00441 0.998487 0.987671
1.00371 0.999242 0.988206
1.00445 0.998188 0.987936
1.00034 1.00181 0.992149
1.00306 0.999494 0.989159
1.00036 1.00248 0.991269
1.001 1.00297 0.989734
1.00194 1.00205 0.988852
1.00268 1.00052 0.989329
1.00014 0.999517 0.994773
1.00026 1.00081 0.993199
1.00034 1.00218 0.991806
1.00021 1.0021 0.992141
1.00025 1.00248 0.991675
0.999806 0.998035 0.996859
1.00287 1.00024 0.988871
1.00003 1.00002 0.994484
1.00004 1.00104 0.993469
1.00019 1.00163 0.992625
1.00149 1.00127 0.990463
1.0027 1.00069 0.988744
1.00025 1.00222 0.991917
1.00048 1.00308 0.990677
1.00135 1.00155 0.990727
1.00092 1.00201 0.99081
0.999875 0.997814 0.996963
1.00006 0.999637 0.994811
1.00026 1.00184 0.992285
1.00018 1.00115 0.993101
1.00016 1.00242 0.991888
1.00338 0.999955 0.988182
1.00186 1.00126 0.989787
1.00292 1.00055 0.988451
1.00024 1.00314 0.991068
1.00147 1.00151 0.990376
1.00067 1.00328 0.989927
1.00009 0.999405 0.994996
1.00019 1.00068 0.993545
1.00027 1.00263 0.991528
1.00012 1.00209 0.992301
1.0001 1.00303 0.991449
1.00369 0.999536 0.987979
1.00206 1.00111 0.989516
1.00276 1 0.989119
1.00018 1.00407 0.990202
1.00131 1.00269 0.989446
1.00011 0.999236 0.995121
1.00017 1.00021 0.993954
1.00017 1.00011 0.994111
1.00014 1.00087 0.993596
1.00019 1.00006 0.994179
1.00019 0.998894 0.995317
1.00016 0.998976 0.995288
1.00002 0.99727 0.997613
1.00013 0.999119 0.995212
0.999972 0.997429 0.99756
0.99991 0.996406 0.998506
0.999914 0.997604 0.997492
0.999814 0.996576 0.9989
0.99974 0.99672 0.999328
0.999907 0.997871 0.996827
0.99986 0.99808 0.996719
0.999701 0.996951 0.999271
0.999619 0.997219 0.999227
0.999803 0.998372 0.996548
0.999564 0.997517 0.999155
1.00325 0.999819 0.988585
1.00362 0.999485 0.988206
1.00396 0.999075 0.987972
1.00432 0.999057 0.98726
1.00417 0.999377 0.987259
1.00324 0.999666 0.988691
1.00426 0.999337 0.987128
1.00462 0.999059 0.98667
1.00413 0.998983 0.987738
1.00449 0.998806 0.987257
1.00374 0.999407 0.988055
1.00425 0.998402 0.988075
1.00471 0.999035 0.986519
1.00483 0.998851 0.986574
1.00439 0.998536 0.987656
1.00458 0.998674 0.987214
1.00405 0.998722 0.988062
1.00444 0.998191 0.988022
1.00406 0.999423 0.987445
1.0036 0.999355 0.988485
1.00418 0.999188 0.987405
1.00413 0.998971 0.987894
1.0001 1.00129 0.993086
1.00043 1.00196 0.991909
1.00066 1.00256 0.990726
1.0033 0.999979 0.988486
1.00422 0.99841 0.988053
1.00298 1.00018 0.98871
1.00163 1.00213 0.989205
1.00246 1.00043 0.989442
1.00033 1.00176 0.99224
1.00027 1.00233 0.991772
1.00011 0.99974 0.994597
1.00026 1.00119 0.992858
1.00445 0.999172 0.986951
1.00409 0.999068 0.987829
1.00437 0.99896 0.987346
1.00442 0.99848 0.987681
1.00036 1.0018 0.992147
1.00036 1.00243 0.991369
1.00097 1.00303 0.989723
1.00371 0.999338 0.98819
1.00437 0.998063 0.988139
1.00194 1.00211 0.98881
1.00307 0.999513 0.989162
1.00263 1.00028 0.989427
1.00036 1.00217 0.99181
1.00026 1.00248 0.991663
1.0002 1.00212 0.992133
1.00014 0.999511 0.994699
1.00027 1.00076 0.993249
1.00472 0.998785 0.986806
1.00446 0.998688 0.987388
1.00465 0.998206 0.987429
1.00397 0.998495 0.988342
1.00035 1.00218 0.991764
1.00341 0.999074 0.989262
1.00026 1.00294 0.990768
1.00126 1.00349 0.988715
1.0023 1.00203 0.98835
1.00016 0.999371 0.99474
1.00026 1.00051 0.993652
1.00021 1.00158 0.992685
1.00032 1.00226 0.991749
1.00019 1.00264 0.991695
1.00032 1.00244 0.991559
0.99987 0.997806 0.996968
1.00006 0.99963 0.994819
1.00338 0.999967 0.988169
1.00018 1.00117 0.993102
1.00025 1.00183 0.992282
1.00015 1.00244 0.991839
1.00186 1.00126 0.989793
1.00291 1.00055 0.988434
1.00021 1.00312 0.991082
1.00076 1.00326 0.990001
1.00148 1.00153 0.990409
1.00009 0.999406 0.994999
1.00019 1.00067 0.993551
1.00024 1.00263 0.991561
1.00012 1.00208 0.992296
1.00009 1.00306 0.991375
1.00367 0.99958 0.987981
1.00209 1.0011 0.989489
1.00284 0.999881 0.989156
1.00014 1.00405 0.990162
1.0013 1.00286 0.989298
1.00017 1.0004 0.993864
1.00015 1.00162 0.99263
1.00015 1.00352 0.990921
1.00008 1.00287 0.99152
1.00018 1.00334 0.990963
1.00398 0.998218 0.988743
1.00218 1.00154 0.989061
1.00295 0.998989 0.989098
1.00043 1.00449 0.98966
1.00108 1.00343 0.988365
1.00011 0.999245 0.995121
1.00017 1.00021 0.994003
1.00015 1.00099 0.993257
1.00017 1.00013 0.994055
1.00019 1.00006 0.994179
1.00013 1.00086 0.993514
1.00009 1.00143 0.993089
1.00012 1.00081 0.993511
1.00021 1.00001 0.994201
1.0002 0.998885 0.995298
1.00019 0.998892 0.995318
1.00006 0.997164 0.997629
1.00016 0.998982 0.995286
1.00002 0.997266 0.997618
0.999966 0.996246 0.998548
0.999978 0.997414 0.99757
0.999902 0.996385 0.998505
0.999791 0.996538 0.999351
0.999957 0.997685 0.99692
0.999912 0.997878 0.996822
0.999771 0.996753 0.999296
0.999865 0.998091 0.996711
0.999691 0.996983 0.999262
0.999614 0.997258 0.999213
1.00375 0.999413 0.988041
1.00413 0.998992 0.987746
1.00427 0.998374 0.988038
1.00449 0.998752 0.987257
1.00465 0.999068 0.986591
1.00426 0.999341 0.987127
1.00473 0.999063 0.986493
1.00482 0.998865 0.986583
1.0044 0.998541 0.987625
1.0046 0.998594 0.987229
1.00406 0.998726 0.98807
1.00441 0.998138 0.988052
1.00501 0.998774 0.986263
1.00486 0.998498 0.986819
1.0046 0.998199 0.9876
1.0044 0.998153 0.988141
1.00445 0.999173 0.986947
1.0041 0.999044 0.987853
1.00432 0.998928 0.987395
1.00443 0.99847 0.987691
1.00039 1.0018 0.992145
1.00037 1.00238 0.991469
1.00095 1.00309 0.989713
1.00372 0.99943 0.988175
1.0043 0.997939 0.988341
1.00309 0.999533 0.989166
1.00192 1.00216 0.988767
1.00257 1.00007 0.989524
1.00038 1.00216 0.991815
1.00028 1.00248 0.99165
1.00019 1.00214 0.992125
1.00014 0.999508 0.994626
1.00028 1.00071 0.9933
1.00466 0.998782 0.986898
1.00446 0.998736 0.987377
1.00464 0.998226 0.987522
1.00039 1.00217 0.991752
1.00036 1.0029 0.990879
1.00121 1.00358 0.988691
1.00405 0.998519 0.988276
1.00227 1.00185 0.988514
1.00325 0.999044 0.989327
1.00016 0.99935 0.994757
1.00034 1.00226 0.991746
1.00031 1.00242 0.991595
1.00018 1.00269 0.991649
1.00021 1.00156 0.992717
1.00026 1.0005 0.993592
1.0048 0.998524 0.98698
1.00472 0.998301 0.987263
1.00464 0.998153 0.987325
1.00447 0.99781 0.988151
1.00033 1.00243 0.991559
1.003 1.00047 0.98842
1.00047 1.0039 0.989563
1.00149 1.00397 0.987933
1.00017 0.999225 0.994876
1.00025 1.00033 0.993861
1.00022 1.00127 0.993004
1.00016 1.0023 0.992034
1.00034 1.00242 0.991603
1.00029 1.00264 0.991424
1.00008 0.999407 0.995002
1.00019 1.00067 0.993557
1.00365 0.999624 0.987982
1.00013 1.00207 0.992291
1.00021 1.00262 0.991596
1.00009 1.0031 0.991301
1.00212 1.00109 0.989462
1.00293 0.999751 0.989194
1.00011 1.00404 0.990122
1.00129 1.00303 0.989151
1.00018 1.00038 0.993869
1.00015 1.00162 0.992656
1.00011 1.0035 0.991001
1.00008 1.00289 0.991542
1.00014 1.00341 0.990931
1.00407 0.998236 0.988633
1.00225 1.00138 0.989089
1.00291 0.998972 0.989601
1.00035 1.00447 0.989604
1.00122 1.00379 0.988088
1.00016 1.00118 0.99306
1.00012 1.00244 0.991854
1.00009 1.00412 0.990399
1.0001 1.00352 0.990695
1.00473 0.997522 0.988226
1.00417 0.997094 0.989213
1.00234 1.002 0.98806
1.00048 1.0048 0.988432
1.00018 1.00021 0.994051
1.00015 1.00101 0.993296
1.00011 1.00162 0.9928
1.00019 1.00006 0.99418
1.00013 1.00084 0.993432
1.00021 1 0.994202
1.0001 1.00143 0.993021
1.00012 1.0008 0.993535
1.00007 1.00189 0.992626
1.00009 1.00132 0.993066
1.00012 1.00075 0.993549
1.00022 0.999991 0.994194
1.0002 0.998927 0.995252
1.0002 0.998885 0.995298
1.00009 0.997129 0.997609
1.00019 0.998888 0.995319
1.00006 0.997175 0.997627
1.00001 0.996162 0.998546
1.00003 0.997263 0.997623
0.999959 0.996226 0.998548
0.999893 0.996367 0.998502
1 0.9975 0.99702
0.99996 0.997692 0.996916
0.999835 0.996566 0.99932
0.999917 0.997886 0.996818
0.999762 0.996783 0.999288
0.999682 0.997018 0.999253
1.00408 0.998728 0.988078
1.00441 0.998544 0.987595
1.00438 0.998079 0.988083
1.00462 0.998517 0.987243
1.00481 0.998876 0.986592
1.00474 0.99909 0.986467
1.00497 0.998763 0.986378
1.00486 0.998508 0.986819
1.0046 0.998184 0.987595
1.00437 0.998083 0.988131
1.00502 0.998437 0.986613
1.00495 0.997901 0.987301
1.0047 0.997842 0.987772
1.00461 0.998785 0.986991
1.00445 0.998791 0.987366
1.00464 0.998248 0.987614
1.00042 1.00216 0.99174
1.00047 1.00286 0.990991
1.00116 1.0037 0.988668
1.00414 0.99854 0.98821
1.00311 0.999014 0.989392
1.00226 1.00167 0.988678
1.00035 1.00227 0.991744
1.00028 1.00241 0.991631
1.00017 1.00274 0.991604
1.00016 0.999327 0.994775
1.00021 1.00153 0.992749
1.00026 1.00048 0.993533
1.00479 0.998559 0.986911
1.00472 0.998334 0.987234
1.00473 0.998158 0.987281
1.00036 1.00243 0.991529
1.00041 1.00387 0.9898
1.00155 1.00394 0.987932
1.00435 0.997941 0.9883
1.00301 1.0004 0.98839
1.00017 0.999205 0.994964
1.00024 1.00033 0.993862
1.0003 1.00239 0.991597
1.0003 1.00255 0.99152
1.00016 1.00229 0.992007
1.00021 1.0013 0.992955
1.00488 0.998136 0.987126
1.00491 0.997965 0.987221
1.00496 0.997536 0.987453
1.00421 0.997959 0.988528
1.00009 1.00314 0.991146
1.00207 1.00326 0.987394
1.00075 1.00471 0.988812
1.00018 0.999058 0.995165
1.00018 1.00003 0.994217
1.00022 1.00027 0.993814
1.0002 1.00112 0.993135
1.00014 1.00196 0.992393
1.00008 1.00304 0.991363
1.00044 1.00183 0.991812
1.00024 1.00292 0.991747
1.00018 1.00037 0.993873
1.00016 1.00162 0.992683
1.00416 0.998253 0.988523
1.00008 1.00289 0.991564
1.00006 1.00349 0.99108
1.00008 1.00349 0.990899
1.00232 1.0012 0.989116
1.00287 0.998954 0.990102
1.00027 1.00445 0.989547
1.00137 1.00411 0.987811
1.00016 1.00122 0.993017
1.00011 1.00246 0.991879
1.00006 1.00412 0.990448
1.00014 1.00354 0.990748
1.00481 0.997516 0.988015
1.0041 0.997239 0.989288
1.00244 1.00187 0.988267
1.00064 1.00481 0.988306
1.00012 1.0019 0.992499
1.00481 0.997013 0.988253
1.00007 1.00334 0.991255
1.00031 1.00428 0.989781
1.00499 0.996244 0.988786
1.00377 0.999108 0.988171
1.00147 1.00435 0.987721
1.00015 1.00103 0.993334
1.00011 1.00162 0.992796
1.00007 1.00218 0.992318
1.00021 0.999998 0.994203
1.00013 1.0008 0.99356
1.0001 1.00144 0.992953
1.00022 0.999985 0.994194
1.00012 1.00076 0.993547
1.00008 1.00191 0.992566
1.00009 1.00132 0.993128
1.00008 1.00222 0.992256
1.00008 1.00176 0.992637
1.00009 1.00126 0.993211
1.00016 1.00071 0.993605
1.00022 1.00003 0.99415
1.0002 0.998977 0.995212
1.0002 0.998929 0.995252
1.0001 0.997136 0.997574
1.0002 0.998887 0.995298
1.00009 0.997151 0.997604
1.00004 0.996126 0.998529
1.00006 0.997188 0.997625
1.00001 0.996135 0.998549
0.999953 0.996206 0.998547
1.00019 0.998908 0.995291
1.00005 0.997328 0.997111
1.00001 0.997509 0.997015
0.999892 0.996391 0.999346
0.999963 0.997702 0.996912
0.999827 0.996596 0.999312
0.999753 0.996811 0.99928
1.00435 0.998018 0.988121
1.0046 0.99817 0.98759
1.00486 0.998512 0.986819
1.0049 0.998756 0.986494
1.00503 0.998424 0.986596
1.00496 0.997911 0.987242
1.00469 0.99783 0.987771
1.00506 0.997878 0.987083
1.00498 0.997404 0.987738
1.00489 0.996501 0.988571
1.00481 0.998591 0.986843
1.00472 0.998368 0.987204
1.00481 0.998184 0.987236
1.0004 1.00244 0.991499
1.00034 1.00382 0.990036
1.00159 1.00387 0.98793
1.00423 0.998068 0.988449
1.00301 1.0003 0.98836
1.00026 1.00235 0.991591
1.00032 1.00246 0.991615
1.00016 1.00229 0.991979
1.00017 0.999185 0.995052
1.00024 1.00033 0.993863
1.0002 1.00133 0.992907
1.00489 0.998075 0.987199
1.00019 0.999051 0.995163
1.00017 1.00004 0.994174
1.00492 0.998011 0.987186
1.00491 0.997681 0.987372
1.00006 1.0031 0.991292
1.00073 1.0047 0.988674
1.00206 1.00314 0.987416
1.00418 0.997956 0.98857
1.00022 1.00027 0.993941
1.00019 1.00112 0.993134
1.00052 1.00191 0.991653
1.00015 1.00244 0.992078
1.00006 1.00312 0.991281
1.00016 1.00192 0.992399
1.00495 0.997231 0.987892
1.00507 0.997924 0.987112
1.00503 0.996366 0.988317
1.00327 1.00003 0.988068
1.00019 1.00321 0.991131
1.00123 1.00477 0.987812
1.00016 0.999925 0.994253
1.00019 1.00018 0.994047
1.00011 1.00089 0.993628
1.00017 1.0011 0.993106
1.00013 1.0018 0.992662
0.999995 1.00257 0.991901
0.999922 1.00393 0.990967
1.00018 1.00199 0.992204
1.00016 1.00125 0.992974
1.00011 1.00247 0.991904
1.00489 0.997515 0.987805
1.00403 0.997411 0.989364
1.00017 1.00357 0.9908
1.00004 1.0041 0.990496
1.00254 1.00178 0.988475
1.0008 1.00484 0.98818
1.00011 1.00192 0.992488
1.0048 0.997056 0.988299
1.00006 1.00326 0.99127
1.00029 1.00424 0.989746
1.00495 0.996185 0.988725
1.00385 0.999056 0.988246
1.00137 1.00446 0.987804
1.00005 1.00279 0.991785
1.00508 0.996238 0.989284
1.00036 1.00361 0.990678
1.00068 1.00468 0.989121
1.00481 0.996347 0.988783
1.00212 1.0025 0.987776
1.00137 0.999959 0.991602
1.00011 1.00163 0.992792
1.00007 1.00219 0.992314
1.00012 1.00245 0.991952
1.00022 0.999978 0.994194
1.00012 1.00077 0.993544
1.00009 1.00132 0.993189
1.0001 1.00192 0.992506
1.00022 1.00003 0.994146
1.00016 1.0007 0.99357
1.00008 1.00222 0.992237
1.0001 1.00125 0.993205
1.00008 1.00178 0.992692
1.0001 1.00211 0.992303
1.00005 1.00157 0.992959
1.00014 1.00117 0.993226
1.00021 1.00069 0.993468
1.00023 1.00006 0.994004
1.00018 1.00071 0.99364
1.00022 1.00008 0.994012
1.00019 0.999002 0.995196
1.0002 0.998977 0.995213
1.00012 0.99718 0.997113
1.0002 0.998932 0.995252
1.00011 0.997159 0.997356
1.00002 0.996077 0.999371
1.00009 0.997172 0.9976
1.00004 0.996094 0.998532
1 0.996109 0.998552
1.0002 0.998803 0.995396
1.0002 0.998909 0.995288
1.00008 0.997191 0.997183
1.00004 0.997334 0.997322
0.999941 0.996244 0.999366
1.00001 0.997517 0.997011
0.999884 0.996419 0.999338
0.999818 0.996627 0.999305
1.00467 0.997814 0.98777
1.00496 0.997921 0.987184
1.00504 0.998416 0.986578
1.00506 0.99787 0.987073
1.00498 0.997425 0.987683
1.0048 0.996576 0.988766
1.00506 0.996887 0.988021
1.00248 1.00006 0.988747
1.00503 0.995826 0.989169
1.00017 0.999859 0.994421
1.00489 0.998009 0.987271
1.00493 0.99803 0.987152
1.00485 0.997847 0.987292
1.00003 1.00306 0.991438
1.00073 1.00471 0.988536
1.00205 1.00308 0.987438
1.00415 0.997994 0.988612
1.0006 1.00201 0.991495
1.00006 1.00195 0.992412
1.00003 1.00319 0.9912
1.00019 0.999047 0.995161
1.00017 1.00188 0.992405
1.00022 1.00027 0.994067
1.00019 1.00112 0.993134
1.00017 1.00004 0.994132
1.00493 0.997227 0.987941
1.00017 0.999916 0.994309
1.00019 1.00018 0.994043
1.00011 1.00087 0.993532
1.00507 0.99774 0.987126
1.005 0.996692 0.988214
1.00027 1.00285 0.991197
1.00101 1.00484 0.987769
1.00329 1.00007 0.988074
1.00017 1.0011 0.993169
1.00012 1.00178 0.992635
1.00014 1.00224 0.991983
0.999912 1.00379 0.991063
1.00002 1.00258 0.991963
1.00498 0.99696 0.98819
1.00515 0.997953 0.986912
1.00459 0.997332 0.988161
1.0019 1.0028 0.988337
1.00017 1.00353 0.99077
1.00012 1.00074 0.993543
1.00013 1.00102 0.993302
1.00012 1.00142 0.993069
1.00009 1.00169 0.992736
1.00009 1.00222 0.992303
0.999887 1.00314 0.991629
0.999777 1.00412 0.990825
1.0001 1.00195 0.992476
1.00004 1.00319 0.991285
1.00478 0.997092 0.988344
1.0049 0.996128 0.988664
1.00394 0.998981 0.98832
1.00026 1.00419 0.989711
1.00127 1.00456 0.987888
1.00003 1.00274 0.99187
1.00505 0.995983 0.989253
1.00024 1.00359 0.99072
1.00047 1.00469 0.98921
1.00482 0.996037 0.988994
1.00212 1.00271 0.987743
1.0014 0.999972 0.990569
1.00011 1.00307 0.991395
1.00513 0.995058 0.990445
1.00008 1.00388 0.990752
1.00041 1.00482 0.988974
1.00286 0.999292 0.98863
1.0006 0.99514 0.965826
0.996778 1.0013 0.981239
1.00101 1.00012 0.992433
0.997824 0.997483 0.959876
0.994612 0.998194 0.960273
1.00007 1.0022 0.992311
1.0001 1.00245 0.991997
1.00019 1.00225 0.992055
1.00022 1.00002 0.994143
1.00016 1.00068 0.993535
1.0001 1.00124 0.9932
1.00007 1.00179 0.992747
1.00009 1.00221 0.992217
1.00014 1.00117 0.993182
1.00022 1.00007 0.994055
1.00021 1.00068 0.99351
1.00009 1.00212 0.992316
1.00006 1.00156 0.992945
1.00008 1.00147 0.992968
1.00009 1.00175 0.992718
1.0002 1.0011 0.993083
1.00025 1.00072 0.993365
1.00022 1.00007 0.993998
1.00023 1.00069 0.993513
1.00019 1.00109 0.993239
1.00014 1.00077 0.993567
1.00018 1.00071 0.993574
1.00022 1.00006 0.994122
1.00022 1.00009 0.994009
1.00019 0.999009 0.995191
1.00019 0.999 0.995195
1.00012 0.997222 0.997097
1.0002 0.998976 0.995214
1.00012 0.997182 0.997112
1.00003 0.996081 0.999366
1.00012 0.997182 0.997138
1.00004 0.996079 0.998942
1.00004 0.996062 0.998535
1.0002 0.998722 0.995474
1.0002 0.998797 0.995395
1.0001 0.997086 0.997247
1.0002 0.998907 0.995284
1.00008 0.997186 0.997393
0.99998 0.996131 0.999383
1.00005 0.997351 0.997097
0.999933 0.996288 0.999358
0.999877 0.996448 0.99933
1.00498 0.997448 0.987628
1.00506 0.997863 0.987064
1.00472 0.99665 0.988961
1.00231 0.998895 0.988879
1.00504 0.996872 0.988116
1.00508 0.996125 0.989078
1.00514 0.997033 0.987887
0.998614 0.999474 0.979237
1.00368 0.996913 0.989086
1.00017 0.999828 0.994453
1.00017 0.999856 0.99442
1.00011 1.00065 0.993748
1.00008 1.00063 0.993833
1.0049 0.997231 0.987989
1.00508 0.997628 0.98714
1.00501 0.996931 0.98811
1.00034 1.00252 0.991264
1.00079 1.00488 0.987726
1.00331 1.00015 0.98808
1.00011 1.0025 0.99176
0.999915 1.00366 0.991158
1.00004 1.00259 0.992025
1.0002 1.00019 0.994039
1.00011 1.00177 0.992607
1.00017 1.00111 0.993232
1.00017 0.999909 0.994365
1.00011 1.00086 0.993437
1.00486 0.996977 0.988237
1.00012 1.00074 0.99364
1.00012 1.001 0.993345
1.00012 1.00139 0.993021
1.00516 0.997571 0.987015
1.00459 0.997446 0.988114
1.00024 1.00338 0.990757
1.00187 1.00309 0.988167
1.0001 1.00172 0.992742
1.00005 1.00223 0.992319
0.999798 1.00413 0.990813
0.999927 1.00333 0.991482
1.0052 0.997058 0.98768
1.00511 0.997254 0.987167
1.00291 1.00097 0.988151
1.00012 1.00404 0.990385
1.00011 1.0015 0.992876
1.00007 1.00159 0.992883
1.00004 1.00227 0.992269
0.999955 1.00385 0.990814
0.999646 0.995048 0.963469
1.00001 1.00268 0.991955
1.00012 1.00356 0.990762
1.00501 0.9957 0.989222
1.00483 0.995728 0.989206
1.00211 1.00292 0.987711
1.00026 1.00465 0.989299
1.00136 0.999984 0.989532
1.00005 1.0031 0.991441
1.00512 0.994996 0.990363
1.00003 1.00383 0.990773
1.00036 1.0049 0.98898
1.00311 0.999227 0.988622
1.00044 0.99562 0.963918
0.996621 1.00111 0.977925
1.00092 1.0001 0.992695
0.997236 0.997922 0.959783
0.994572 0.998101 0.957308
1.00006 1.00287 0.991732
0.998716 0.995029 0.960089
0.99502 0.999363 0.961038
1.0042 0.995998 0.990811
0.999823 1.00408 0.990981
1.00053 1.00378 0.989847
1.0006 0.999783 0.994667
0.99821 0.998763 0.965376
0.995374 1.00171 0.976891
0.996349 0.999444 0.961326
0.995525 0.997353 0.966921
1.00007 1.00246 0.992043
1.00016 1.00228 0.992054
1.00016 1.00196 0.992506
1.00021 1.00008 0.994107
1.00021 1.00066 0.993553
1.00014 1.00117 0.993137
1.00008 1.00155 0.992931
1.00008 1.00213 0.992329
1.00022 1.00008 0.993998
1.00007 1.00145 0.993003
1.0002 1.00111 0.993129
1.00025 1.0007 0.993431
1.00009 1.00176 0.992685
1.00018 1.00139 0.992824
1.00014 1.00159 0.992823
1.00025 1.00102 0.993141
1.00026 1.0007 0.993459
1.00024 1.00069 0.99351
1.00019 1.00108 0.993194
1.00025 1.001 0.993143
1.00013 1.00118 0.993178
1.00023 1.00128 0.992986
1.00002 1.00181 0.99273
1.00011 1.00087 0.993501
1.00014 1.00077 0.993566
1.0002 1.00009 0.994129
1.00019 1.00071 0.993509
1.00021 1.00007 0.994082
1.00019 0.999021 0.995189
1.00022 1.0001 0.994006
1.0002 0.999005 0.995191
1.00008 0.997249 0.997535
1.00019 0.998998 0.995195
1.00011 0.997216 0.997316
1.00006 0.996104 0.998486
1.00012 0.997186 0.997111
1.00003 0.996085 0.999364
1.00006 0.996082 0.998512
1.00017 0.999834 0.994441
1.00019 0.998688 0.995516
1.0002 0.99872 0.995474
1.00012 0.997011 0.9973
1.0002 0.998793 0.995394
1.00011 0.99708 0.997248
1.00001 0.996041 0.999398
1.00006 0.997197 0.997593
0.99999 0.996171 0.99895
0.999966 0.996317 0.998493
1.00202 0.997782 0.989008
1.00501 0.996865 0.988211
1.00513 0.996409 0.988988
0.998146 0.998773 0.981282
1.00358 0.997533 0.989305
1.00519 0.996542 0.987904
1.00484 0.997533 0.988895
0.999171 0.997232 0.982714
0.999203 0.9955 0.964049
0.997595 0.997635 0.959323
0.994916 0.996614 0.960011
1.00008 1.00063 0.993731
1.00017 0.999829 0.994452
1.00017 0.999853 0.994419
1.00011 1.00066 0.993725
1.00004 1.0012 0.993319
1.00009 1.00108 0.993394
1.00009 1.0007 0.99376
1.00008 1.00063 0.993788
1.00474 0.996985 0.988285
1.00517 0.997148 0.98712
1.00457 0.997602 0.988066
1.0003 1.00319 0.990744
1.00185 1.00327 0.987996
0.999817 1.00412 0.990802
0.999965 1.00352 0.991335
1.00001 1.00223 0.992335
1.00012 1.00098 0.993389
1.0001 1.00174 0.992748
1.00013 1.00074 0.993737
1.00012 1.00136 0.992973
1.0051 0.997223 0.98754
1.00009 1.00149 0.992933
1.00007 1.00159 0.992856
1.00502 0.997449 0.987167
1.00257 1.00079 0.988476
1.0002 1.00405 0.990263
1.00007 1.00228 0.992217
0.999983 1.00386 0.990822
1.00444 1.00045 0.986736
1.00409 0.997772 0.989002
1.00027 1.00317 0.990271
0.999983 1.00333 0.991435
1.00004 1.00183 0.992605
1.0001 1.00213 0.992304
1.0001 1.00278 0.991682
0.998574 0.99482 0.958801
1.00021 0.995099 0.967536
0.999993 1.00313 0.991487
0.999977 1.00383 0.990794
1.00511 0.99495 0.990281
1.00338 0.999221 0.988615
1.00031 1.00501 0.988986
1.0004 0.995224 0.96259
0.996678 1.00121 0.979313
1.00073 1.00008 0.992962
0.997147 0.997509 0.960805
0.994493 0.998168 0.954336
1.00004 1.00287 0.991724
0.998803 0.995068 0.958744
0.99486 0.999614 0.959962
1.00437 0.996298 0.990734
0.999726 1.00414 0.991016
1.00038 1.00357 0.989931
1.00058 0.99858 0.995131
0.998244 0.99874 0.963183
0.995551 1.00304 0.979584
0.996151 0.999684 0.960275
0.99581 0.997396 0.965397
1.00006 1.0025 0.992119
0.995167 0.999301 0.964461
0.997935 0.999233 0.975876
1.00161 0.998599 0.993319
0.999502 1.00397 0.992098
0.999194 1.00174 0.995892
0.996601 1.00165 0.983638
0.995855 1.00122 0.962926
0.995727 0.999602 0.961859
0.998278 0.996775 0.971026
1.00014 1.0023 0.992053
1.00015 1.00199 0.992427
0.9999 1.00159 0.993038
1.00023 1.00009 0.993998
1.00025 1.00068 0.993498
1.0002 1.00114 0.993175
1.00006 1.00142 0.993038
1.0001 1.00177 0.992652
1.00025 1.00069 0.993459
1.00017 1.00143 0.992868
1.00025 1.00101 0.993135
1.0001 1.00157 0.992885
1.00019 1.00109 0.993356
1.00026 1.00114 0.992969
1.00027 1.00102 0.993093
1.00024 1.00068 0.993507
1.00019 1.00107 0.99315
1.00024 1.001 0.993147
1.00013 1.00118 0.993174
1.00023 1.00123 0.992967
1.00007 1.0014 0.99304
1.00025 1.00121 0.992966
1.00019 1.00144 0.992798
1.00006 1.00247 0.991998
0.999873 1.00346 0.991309
0.999986 1.00224 0.992288
1.00001 1.00186 0.992718
1.0001 1.00107 0.993336
1.00011 1.00089 0.993495
1.00018 1.00014 0.994115
1.00014 1.00078 0.993564
1.0002 1.00009 0.994129
1.00017 0.999061 0.995182
1.00021 1.00007 0.994041
1.00019 0.999017 0.99519
1.00006 0.997289 0.997541
1.0002 0.999002 0.995191
1.00009 0.997244 0.997318
1.00004 0.996114 0.998489
1.00012 0.997207 0.997097
1.00002 0.996104 0.99936
1.00003 0.996089 0.999362
1.00017 0.999909 0.994528
1.00019 0.998716 0.995503
1.00017 0.999847 0.99444
1.00012 0.996985 0.997326
1.0002 0.998687 0.995516
1.0002 0.998716 0.995474
1.00012 0.997015 0.997298
1.00002 0.995981 0.999409
1.00009 0.99708 0.997656
1.00002 0.996055 0.998978
1.00001 0.99618 0.998532
0.998551 0.995669 0.959375
0.995121 0.998576 0.963185
0.998361 0.997751 0.982681
1.00348 0.998298 0.989521
1.00525 0.996108 0.98792
0.999051 0.997139 0.985522
1.00483 0.99781 0.988833
0.999884 0.995048 0.966499
0.997316 0.997492 0.959392
0.994701 0.997365 0.956977
1.00038 0.997004 0.989276
0.997923 0.997955 0.967107
0.996117 0.999769 0.961063
0.996108 0.997588 0.96403
1.00007 1.00131 0.99314
1.00009 1.00062 0.993769
1.00017 0.999827 0.994451
1.0001 1.00066 0.993702
1.00003 1.00117 0.993394
1.00007 1.00132 0.99317
1.00009 1.00106 0.99338
1.00011 1.00093 0.993438
1.0001 1.0007 0.993707
1.00008 1.00064 0.993743
1.00501 0.997361 0.987404
1.00488 0.997531 0.987167
1.00223 1.00058 0.988804
1.00027 1.0041 0.990143
1.00002 1.00385 0.99083
1.0001 1.00229 0.992165
1.00008 1.0016 0.992829
1.00006 1.00149 0.992989
1.00456 0.999853 0.986706
1.00006 1.00186 0.992575
1.00012 1.00213 0.99223
1.00376 0.998286 0.988678
1.00013 1.00332 0.990568
1.0001 1.0032 0.991284
1.00016 1.00265 0.991721
1.00229 1.0036 0.988124
1.00121 0.999394 0.99306
0.999991 1.00292 0.991667
1.00004 1.00202 0.992486
1.00016 1.00217 0.992078
1.00026 1.0025 0.991649
0.99661 0.998126 0.96667
0.998613 0.995282 0.959375
0.999918 0.995128 0.962974
1.00002 1.00288 0.991717
0.999643 1.00418 0.991051
1.0046 0.996504 0.990656
1.00023 1.0034 0.99001
0.998968 0.994996 0.95945
0.997952 0.99878 0.965566
0.995826 1.00273 0.97683
1.00067 0.997712 0.99556
0.996265 0.999799 0.960075
0.994706 0.999717 0.959955
0.996246 0.997408 0.964651
0.999994 1.00256 0.992118
0.995296 0.999088 0.964954
0.99789 0.99951 0.975854
1.00174 0.998727 0.993208
0.999283 1.00382 0.992138
0.999858 1.0003 0.99674
0.996803 1.002 0.979573
0.995985 1.00247 0.96511
0.996355 0.999116 0.962618
0.997888 0.996928 0.970736
0.999525 1.00198 0.993897
0.999668 0.999556 0.978394
1.00254 0.999335 0.979238
0.998101 1.00236 0.995896
0.997417 1.00209 0.989214
0.995652 1.00175 0.964591
0.99553 0.999956 0.964579
0.998964 0.998511 0.968219
1.00014 1.00199 0.992349
0.999998 1.00151 0.993124
0.999841 1.00039 0.994305
1.00026 1.00069 0.993459
1.00026 1.001 0.993129
1.00015 1.00146 0.992913
1.00006 1.00153 0.992947
1.00027 1.00103 0.993095
1.00026 1.00117 0.992953
1.00015 1.00091 0.993451
0.999994 1.00055 0.994232
1.00036 1.0007 0.993247
1.00026 1.00111 0.992977
1.00024 1.00101 0.99315
1.00012 1.00119 0.993171
1.00024 1.0012 0.992947
1.00025 1.0012 0.992967
1.00006 1.00145 0.993029
1.0002 1.0014 0.992817
1.00008 1.00185 0.992558
1.00027 1.00131 0.992772
0.999969 1.00272 0.991937
1.00007 1.00245 0.992048
0.99985 1.00334 0.991468
1.00015 1.00378 0.990562
1.00004 1.00266 0.991963
0.999852 1.00334 0.991475
0.999992 1.00223 0.992388
1.0001 1.00139 0.992938
1 1.0019 0.992707
1.0001 1.00109 0.993328
1.00017 1.00023 0.994043
1.00011 1.00091 0.993489
1.00018 1.00014 0.994112
1.00014 0.999141 0.995161
1.0002 1.00009 0.994128
1.00018 0.999055 0.995183
1.00003 0.997357 0.99754
1.00019 0.999012 0.995191
1.00007 0.997289 0.997323
1 0.996177 0.998494
1.0001 0.997233 0.9971
1.00002 0.996125 0.998924
1.00002 0.996109 0.99936
1.00016 1.00005 0.994274
1.00017 0.998801 0.995443
1.00016 0.999914 0.994412
1.00011 0.997016 0.997314
1.00019 0.998715 0.995503
1.00016 0.999862 0.994439
1.00002 0.995965 0.999413
1.00012 0.996983 0.997325
1.0002 0.998685 0.995516
1.00012 0.997019 0.997296
1.00002 0.99599 0.999406
1.00001 0.996051 0.999393
0.99579 0.99849 0.96692
0.998409 0.995199 0.959221
0.997736 1.00057 0.974911
0.995148 0.998476 0.96208
0.999455 0.997119 0.981398
1.00482 0.998037 0.988722
0.99936 0.995272 0.96884
0.997673 0.998003 0.959969
0.994489 0.998145 0.95394
0.999787 0.997924 0.987411
0.998751 0.997504 0.962831
0.99628 0.999521 0.959645
0.995947 0.998144 0.962962
0.997427 0.998444 0.986897
0.99687 0.999987 0.963186
0.995544 0.999576 0.96124
0.998223 0.997927 0.96805
1.00009 1.00177 0.992724
1.00006 1.00131 0.993194
1.0001 1.00062 0.993806
1.00002 1.00113 0.993468
1.00011 1.00159 0.992761
1.00008 1.0013 0.993219
1.00009 1.00105 0.993367
1.00015 1.00102 0.993358
1.00012 1.00092 0.993506
1.0001 1.0007 0.993654
1.00467 0.999371 0.986679
1.00346 0.998989 0.988353
1.00001 1.00345 0.990864
1.00022 1.00305 0.991133
1.0002 1.00255 0.99176
1.00013 1.00213 0.992157
1.00007 1.00189 0.992546
1.00005 1.00204 0.992484
1.00264 1.00234 0.988406
1.00014 1.00223 0.99212
1.00028 1.00247 0.991686
1.00118 0.999785 0.992485
1.00018 1.00264 0.991694
1.00052 1.00144 0.99189
1 1.00054 0.994501
1.00016 1.00208 0.991928
1.00018 1.00207 0.992189
1.0003 1.00247 0.991545
1.00159 0.999134 0.978337
0.996606 0.998676 0.966684
0.998507 0.995714 0.959135
0.999919 1.00265 0.992116
0.999085 1.00372 0.992178
1.00176 0.998856 0.993111
0.995258 0.998886 0.966568
0.996445 1.00135 0.96238
0.996787 1.00176 0.981785
1.00055 0.998076 0.997658
0.995721 0.999424 0.961856
0.997704 0.999799 0.975833
0.997304 0.997065 0.971103
0.999472 1.00199 0.993829
0.999332 0.999083 0.980388
1.00213 0.999697 0.979549
0.99818 1.00216 0.996066
0.997233 1.00125 0.989016
0.995927 1.00199 0.961952
0.999393 0.997974 0.969455
0.995186 0.999653 0.964175
0.998488 1.00135 0.996409
1.00638 0.999841 0.981016
1.00351 1.00117 0.978038
0.998509 0.997614 0.968092
0.995288 1.00307 0.996718
0.995471 0.999257 0.968172
0.994564 1.00007 0.965506
1.00011 1.00141 0.993207
0.999988 1.00056 0.993963
0.999686 0.999248 0.995912
1.00027 1.00103 0.993098
1.00024 1.00121 0.992936
1.00013 1.00072 0.993545
1.00027 1.00114 0.992969
1.00035 1.00066 0.993237
1.00012 1.00034 0.994109
0.99969 1.00006 0.995006
1.00041 1.00085 0.992947
1.00024 1.00119 0.992967
1.00005 1.00149 0.993018
1.00021 1.00136 0.992835
1.00027 1.00132 0.992758
1.00011 1.0018 0.992609
0.999882 1.0022 0.992589
0.999914 1.0027 0.992029
0.999806 1.00401 0.990865
1.00009 1.00244 0.992099
0.999963 1.00333 0.991414
1.00007 1.0042 0.98999
1.00013 1.00394 0.990404
1.00005 1.00301 0.991537
1.0001 1.00381 0.990565
1.00011 1.0018 0.992595
1.00005 1.00269 0.991881
0.99983 1.00323 0.99164
0.999997 1.00223 0.992489
1.0001 1.00136 0.993021
1.00016 1.00042 0.99387
1.0001 1.00111 0.99332
1.00016 1.00024 0.994038
1.00011 0.999248 0.995119
1.00018 1.00015 0.994109
1.00015 0.99913 0.995162
0.999968 0.997468 0.997524
1.00018 0.999048 0.995184
1.00003 0.997365 0.997321
0.999955 0.996268 0.998494
1.00008 0.997281 0.997106
0.999989 0.996184 0.998927
0.999996 0.996148 0.999361
1.00018 1.00024 0.993916
1.00015 0.998965 0.995172
1.00017 1.00006 0.99427
1.00009 0.99711 0.99726
1.00017 0.998811 0.99536
1.00015 0.999921 0.994296
1.00001 0.995994 0.999407
1.00011 0.997009 0.997315
1.00019 0.998714 0.995504
1.00002 0.995965 0.999412
1.00012 0.996983 0.997324
1.00002 0.995998 0.999403
1.00038 0.999658 0.978193
0.995889 0.998042 0.966185
0.998425 0.995137 0.959641
1.00021 1.00104 0.993166
1.0015 0.999788 0.981073
0.99755 1.00016 0.974882
0.995102 0.998365 0.961976
0.999698 0.99901 0.985456
0.998567 0.997911 0.967103
0.996148 0.999639 0.959431
0.995939 0.998292 0.962148
0.99688 0.999517 0.98238
0.996063 1.00092 0.966435
0.99662 0.999884 0.961593
0.998295 0.997811 0.967551
0.996026 1.00235 0.97861
0.995604 1.00063 0.962031
0.995067 0.99982 0.963577
0.998716 0.998412 0.968386
1.00015 1.00191 0.992398
1.00008 1.00178 0.992695
1.00006 1.0013 0.993249
1.00016 1.00155 0.992753
1.00011 1.00158 0.992848
1.00008 1.00126 0.993268
1.00016 1.00103 0.993375
1.00013 1.00091 0.993574
1.00296 1.0013 0.988685
1.00116 1.00017 0.99191
1.00005 1.00204 0.992481
1.00037 1.00248 0.991721
1.00031 1.00239 0.991723
1.00013 1.00228 0.992162
1.00017 1.00211 0.992203
1.00115 1.00119 0.992172
1.00028 1.00243 0.99169
1.00026 1.00225 0.991905
1.0001 1.00002 0.994329
1.00023 1.00191 0.992344
0.998927 0.998774 0.996554
0.998929 1.00273 0.994498
1.00027 1.00158 0.992197
1.00026 1.00208 0.992083
1.00842 0.999538 0.979696
1.00169 0.999532 0.978093
0.996599 0.999218 0.966705
0.999398 1.00199 0.993766
0.99825 1.00202 0.996214
0.999018 0.998618 0.982373
0.995797 1.00048 0.965212
0.997238 1.00183 0.984477
0.994876 0.999867 0.963593
1.00184 1.00003 0.979861
0.999915 0.997623 0.970691
0.998563 1.00157 0.9959
1.00625 0.999936 0.981322
1.00429 1.00106 0.978649
0.995564 1.00382 0.999193
0.998637 0.997435 0.967431
0.995026 0.999453 0.966198
0.995072 0.999925 0.96387
0.997401 1.00087 0.998979
1.0118 0.999155 0.975957
1.00173 0.999329 0.981141
0.996325 0.997188 0.96424
0.994845 0.999596 0.963712
0.995306 0.999455 0.998582
0.995137 1.00017 0.963016
1.00011 1.00078 0.993624
0.999744 0.999451 0.995745
0.998566 0.998594 0.998705
1.00028 1.00117 0.992962
1.00034 1.00064 0.993228
1.00021 1.00023 0.993985
1.00037 1.00098 0.992918
0.999843 0.999738 0.995013
0.999614 1.00148 0.993669
1.00027 1.00134 0.992745
1.00013 1.00174 0.99266
0.999994 1.00215 0.992531
0.999425 1.00408 0.99151
0.999862 1.00269 0.99212
0.999722 1.00393 0.991066
1.00008 1.00489 0.989569
1.00066 1.0042 0.98918
1.00008 1.00332 0.99136
1.00019 1.00433 0.989772
1.00029 1.00353 0.990767
0.999927 1.00346 0.991145
1.00013 1.00381 0.990535
1.0001 1.00216 0.992267
1.00008 1.00299 0.991526
1.00005 1.00383 0.990567
1.00015 1.00074 0.993566
1.00011 1.00179 0.992569
1.00005 1.00271 0.991798
1.0001 1.00133 0.993105
1.00016 1.00043 0.993862
1.00007 0.999403 0.995035
1.00016 1.00026 0.994033
1.00011 0.999242 0.995118
0.999925 0.997615 0.997056
1.00015 0.999122 0.995163
0.999986 0.997474 0.997088
0.999859 0.996382 0.99936
1.00004 0.997359 0.997104
0.999944 0.996269 0.998927
0.999962 0.996211 0.999361
1.00022 1.00032 0.993771
1.00014 0.99917 0.994977
1.00019 1.00024 0.993979
1.00006 0.997256 0.99717
1.00015 0.998979 0.995149
1.00017 1.00007 0.994266
0.99999 0.996075 0.999392
1.00009 0.997099 0.997264
1.00016 0.998821 0.995278
1.00002 0.995987 0.99941
1.00011 0.997004 0.997317
1.00002 0.995965 0.999412
1.00786 0.998785 0.979419
1.00029 0.999762 0.978372
0.99586 0.997764 0.966406
1.0002 1.00106 0.993188
1.00023 1.0011 0.993029
1.00015 1.00156 0.992819
1.00341 1.00161 0.977719
1.00125 0.999594 0.981378
0.997355 0.999641 0.97485
0.996243 1.00023 0.9856
0.996641 0.999923 0.963212
0.995682 0.999867 0.960667
0.998146 0.997629 0.967712
0.995567 1.00112 0.982819
0.995956 1.0016 0.962998
0.995097 1.00001 0.965136
0.999185 0.998311 0.969556
0.995969 1.00227 0.980533
0.99509 1.00074 0.965996
0.994557 1.00011 0.966003
0.998155 0.996948 0.970902
1.00023 1.00183 0.992369
1.00015 1.00193 0.992386
1.00008 1.00181 0.992666
1.00016 1.00156 0.992747
1.0001 1.00157 0.992935
1.00017 1.00102 0.993392
1.00183 1.0006 0.992453
1.00005 0.9995 0.99416
1.00016 1.00218 0.992217
1.00036 1.00224 0.991883
1.00025 1.00245 0.991835
1.00025 1.00186 0.992286
1.00023 1.00209 0.992116
0.999268 0.999952 0.996551
1.00024 1.00165 0.992408
0.998626 1.00214 0.995685
1.0002 1.00161 0.992648
0.997144 0.998885 0.999378
0.998409 1.00042 0.998187
1.00009 1.00186 0.992483
1.01487 0.998513 0.973802
1.00965 0.999354 0.978364
1.0018 0.999967 0.977851
0.998687 1.00174 0.995385
0.995989 1.00153 0.998584
1.00613 1.00001 0.981628
0.995254 1.00041 0.973389
0.995339 0.999995 0.965201
1.00503 1.00087 0.979259
0.998523 0.997314 0.967584
0.997593 1.00093 0.998897
1.01258 0.999325 0.975016
1.00147 0.999216 0.981418
0.995009 1.00077 0.992476
0.996157 0.997722 0.963029
0.995287 0.999944 0.964515
0.995041 1.00012 0.967502
0.996417 1.00104 1.00234
1.00802 0.998652 0.979358
0.998243 1.00016 0.974551
0.995035 0.99638 0.959987
0.995242 0.999352 0.961955
0.995116 1.00008 0.966602
0.995136 0.999631 0.989103
0.999811 0.999703 0.99558
0.99871 0.998327 0.998626
0.998583 1.00022 0.997433
1.00033 1.00108 0.992889
0.999996 0.99939 0.995019
0.999496 1.00162 0.993825
0.999362 1.00291 0.992874
1.00011 1.00212 0.992473
0.999706 1.00405 0.991292
1.00001 1.00507 0.989555
0.999624 1.00385 0.991268
1.00012 1.00488 0.989553
1.0009 1.00487 0.988317
1.00118 1.00447 0.988087
1.0004 1.0034 0.99026
1.00066 1.00422 0.98911
1.00029 1.00446 0.989555
1.00026 1.00309 0.991166
1.00021 1.00337 0.990914
1.00001 1.00279 0.9917
0.999973 1.00341 0.991232
1.00013 1.00368 0.990667
1.00016 1.00117 0.993139
1.00011 1.00215 0.992274
1.00012 1.00298 0.991514
1.00003 0.999653 0.994857
1.00015 1.00074 0.993561
1.00011 1.00177 0.992542
1.00015 1.00045 0.993854
1.00007 0.999403 0.995032
0.999859 0.997797 0.997
1.00011 0.999235 0.995118
0.999929 0.997619 0.997055
0.99981 0.996528 0.999348
0.999991 0.997472 0.997088
0.999882 0.996397 0.998921
0.999917 0.996299 0.999359
1.00023 1.00041 0.993739
1.00014 0.999322 0.994966
1.00021 1.00033 0.993814
1.00002 0.997444 0.997061
1.00014 0.999182 0.995036
1.0002 1.00024 0.994041
0.999954 0.996198 0.99937
1.00006 0.997246 0.997176
1.00015 0.998997 0.995127
0.999993 0.996058 0.999397
1.00009 0.99709 0.997267
1.00002 0.995978 0.999412
1.01176 0.999476 0.975533
1.0075 0.999266 0.979713
1.0002 0.99981 0.978561
1.00023 1.00121 0.992918
1.00016 1.00178 0.99257
1.00019 1.00108 0.993209
1.00023 1.00112 0.993015
1.00016 1.00155 0.992766
1.00016 1.0016 0.992726
1.00015 1.0018 0.99253
1.00242 0.999577 0.979086
1.00415 1.00154 0.978285
1.001 0.999424 0.981682
0.99963 0.998026 0.970727
0.994999 1.00026 0.979387
0.995822 1.00258 0.964201
0.994818 1.00006 0.963578
0.995668 1.00022 0.978823
0.995252 1.00012 0.963243
0.995025 0.999973 0.964589
0.997722 0.997167 0.970571
0.99565 0.998037 0.98627
0.994977 1.00022 0.963381
0.995797 1.00003 0.964472
0.995548 0.997226 0.966842
1.00023 1.00172 0.992531
1.00022 1.00179 0.992362
1.00014 1.00193 0.992374
1.00016 1.00157 0.992741
0.999651 1.0016 0.996528
0.998432 1.00165 0.996861
1.00027 1.00179 0.992228
1.00021 1.00206 0.992149
1.00021 1.00181 0.99262
1.00022 1.00161 0.992593
1.00007 1.00192 0.992411
0.996675 1.00062 0.998725
0.998341 1.00029 0.998565
0.999954 1.00176 0.992824
0.995816 0.997474 1.00138
0.998945 1.00234 0.995567
1.00856 0.999685 0.979424
1.01714 0.997624 0.9712
1.0109 0.999129 0.977031
0.997788 1.00096 0.998826
0.995301 0.999559 0.998878
1.01338 0.999519 0.974073
0.99519 1.00017 0.963361
0.994692 1.00002 0.963496
1.00121 0.999115 0.981695
0.996183 0.998076 0.962406
0.996495 1.00078 1.00246
1.00767 0.999104 0.979666
0.99806 0.999775 0.974527
0.99498 0.999644 0.993864
0.994793 0.997223 0.957068
0.99618 0.999771 0.962415
0.99521 1.00011 0.96513
0.996448 1.00187 1.00008
1.00069 0.999655 0.977811
0.995492 0.998231 0.963241
0.996355 0.999555 0.960944
0.99561 1.00049 0.966617
0.994835 0.999951 0.983787
0.998919 0.998057 0.998541
0.99849 1.00042 0.99742
1.00009 0.998957 0.99671
0.999365 1.00177 0.993981
0.999064 1.00295 0.993089
1.00022 1.00395 0.99022
0.999998 1.00398 0.991075
1.00015 1.00507 0.989386
1.00105 1.00469 0.98788
1.00017 1.00487 0.989538
1.00095 1.00486 0.988189
1.00147 1.00435 0.987391
1.00188 1.00347 0.987601
1.00115 1.0037 0.98904
1.00122 1.0045 0.987898
1.00038 1.0028 0.990863
1.00041 1.00339 0.990333
1.00066 1.00424 0.98904
1.00025 1.00287 0.991323
1.00023 1.00313 0.991141
1.00012 1.00322 0.991061
1.00015 1.00168 0.992599
1.00004 1.00271 0.991791
1.00002 1.00337 0.991319
1.00001 1.00001 0.994523
1.00016 1.00115 0.99314
1.00012 1.00213 0.99228
0.999802 0.998002 0.996919
1.00003 0.999659 0.994851
1.00015 1.00074 0.993556
1.00007 0.999402 0.995029
0.999864 0.997803 0.996996
0.999735 0.996703 0.999335
0.999933 0.997622 0.997053
0.999801 0.996552 0.999345
0.999859 0.996421 0.999352
1.00022 1.00132 0.99288
1.00025 1.00051 0.993609
1.00013 0.999457 0.994851
1.00024 1.00041 0.993739
0.999975 0.997636 0.996955
1.00014 0.999335 0.994965
1.0002 1.00034 0.993858
0.999908 0.996357 0.999343
1.00002 0.997432 0.997067
1.00015 0.99919 0.995096
0.999959 0.996177 0.999377
1.00006 0.997235 0.997181
0.999997 0.996041 0.999402
1.00642 0.999937 0.980851
1.01254 0.999733 0.974627
1.00714 0.999748 0.980008
1.00022 1.00121 0.992944
1.00016 1.00179 0.992527
1.00013 1.00211 0.992228
1.00015 1.00171 0.992571
1.00013 1.00213 0.992302
1.00023 1.00113 0.993001
1.00017 1.00153 0.992714
1.00015 1.00161 0.992731
1.00019 1.00178 0.99248
1.00011 1.0019 0.992566
0.998115 0.999113 0.975568
1.00205 0.99994 0.979394
1.00492 1.00158 0.978851
0.99723 0.997285 0.970966
0.995314 1.00004 0.965823
0.995265 1.00033 0.976896
0.995082 1.00011 0.966036
0.995505 0.996941 0.981153
0.994979 1.00014 0.966352
0.995011 0.999923 0.964308
0.995776 0.997298 0.965318
0.995072 0.99481 0.986143
0.995065 1.00007 0.966992
0.995919 0.999886 0.961535
0.994709 0.998036 0.959767
0.999891 1.00148 0.993294
1.00019 1.00179 0.992503
1.00022 1.00176 0.992355
0.996138 1.00194 0.998087
0.998267 0.99999 0.99897
1.00023 1.00161 0.992537
1.00004 1.00202 0.99234
0.999946 1.00171 0.992875
0.998783 1.00229 0.99529
0.995829 0.997132 1.00144
0.998737 1.00268 0.99426
0.997157 1.00121 0.996994
1.00123 0.9997 0.978108
1.00975 0.999388 0.978166
1.01938 0.996794 0.968598
0.996512 1.00062 1.00256
0.99492 0.999773 0.986967
1.00732 0.999574 0.979974
0.995336 1.00007 0.96245
0.995413 0.99957 0.962287
0.997874 0.999276 0.974505
0.994547 0.99802 0.954149
0.996507 1.00178 1.0003
1.00061 0.999738 0.978004
0.995497 0.998114 0.962107
0.994878 0.999883 0.986043
0.996149 0.999629 0.959882
0.995665 0.99981 0.9636
0.997853 1.00044 0.997135
0.995925 0.998306 0.967097
0.997209 0.997714 0.959564
0.997084 1.00038 0.963204
0.994895 1.00009 0.985752
0.998461 1.0006 0.997401
0.999916 0.998701 0.996723
1.00193 0.998897 0.992376
0.998777 1.00298 0.993303
0.999932 1.004 0.990492
1.00166 1.0026 0.988549
1.00029 1.00508 0.989217
1.0011 1.00457 0.987877
1.00228 1.00301 0.987409
1.00099 1.00485 0.988061
1.00147 1.00434 0.987427
1.00246 1.0023 0.98759
1.00258 1.00157 0.988085
1.00156 1.00319 0.98837
1.00188 1.00335 0.987634
1.00091 1.00308 0.989956
1.00108 1.00378 0.988866
1.00125 1.00454 0.98771
1.00043 1.00249 0.991292
1.00037 1.00278 0.990978
1.00043 1.00338 0.990407
1.00023 1.00206 0.992097
1.00023 1.00285 0.991366
1.00021 1.00318 0.991116
1.00001 1.00053 0.994009
1.00017 1.00168 0.9926
1.00006 1.00265 0.991881
0.999721 0.998284 0.997222
1.00001 1.00002 0.994514
1.00016 1.00114 0.993142
0.999673 0.996938 0.998375
0.999796 0.998032 0.997124
1.00003 0.999664 0.994845
0.999869 0.997809 0.996993
0.999725 0.996735 0.999329
0.999791 0.996577 0.999341
1.00018 1.00164 0.992586
1.00025 1.00068 0.993433
1.00021 1.00136 0.992842
1.0001 0.999601 0.994766
1.00024 1.00052 0.99361
0.999923 0.997815 0.996871
1.00013 0.999474 0.994851
1.00024 1.00041 0.993738
0.999853 0.996529 0.999318
0.999971 0.997629 0.99696
1.00014 0.999352 0.994965
0.999913 0.996329 0.999351
1.00002 0.997421 0.997073
0.999964 0.996151 0.999384
1.00017 0.998946 0.980998
1.00629 1.00001 0.981138
1.01332 1.00004 0.973721
1.00007 1.00238 0.992117
1.00022 1.00124 0.992971
1.00017 1.0018 0.992483
1.00015 1.00172 0.992608
1.00014 1.00208 0.992273
1.00013 1.00211 0.99227
1.00012 1.00239 0.992016
1.00006 1.00213 0.992293
1.00013 1.00162 0.992736
1.00022 1.00176 0.99243
1.0001 1.00191 0.992546
1.00007 1.00224 0.992571
0.995253 0.999141 0.960626
0.998031 0.999451 0.975531
1.00169 1.00022 0.979701
0.996095 0.997334 0.964316
0.995201 0.999922 0.964033
0.994982 1.00022 0.963437
0.99532 0.995705 0.984389
0.994978 0.994833 0.990042
0.99459 0.998013 0.95698
0.994916 1.00013 0.963345
0.996029 0.999802 0.961839
0.995572 0.997406 0.988892
0.995751 0.999536 0.967991
0.996413 0.999838 0.959948
0.999429 1.00127 0.994292
0.999991 1.00145 0.993296
1.00015 1.00187 0.992475
0.995844 0.996809 1.00146
0.998768 1.00213 0.995025
0.999912 1.00167 0.992925
0.999098 1.00259 0.994114
0.996736 1.00138 0.99714
0.998411 1.00117 0.994862
0.996364 0.999002 0.96342
1.00167 0.999578 0.979408
1.01096 0.999072 0.976908
0.996494 1.00168 1.00058
0.994899 0.999852 0.987643
1.00051 0.999842 0.978207
0.995766 0.999112 0.966807
0.996211 0.999758 0.959507
0.995434 0.998027 0.96207
0.997683 1.00029 0.99724
0.996018 0.99797 0.966279
0.997004 0.997772 0.959893
0.994878 1.00021 0.981299
0.996289 1.00033 0.966107
0.999023 0.999762 0.996446
0.998465 0.995653 0.959641
0.997407 1.0001 0.966075
0.995306 1.00077 0.979144
0.999673 0.998513 0.99674
1.00157 0.998746 0.993139
1.0031 0.997214 0.991156
0.999639 1.00403 0.990763
1.00172 1.0025 0.988569
1.00347 0.999252 0.988448
1.00115 1.00444 0.987875
1.00223 1.00279 0.987463
1.00352 0.999629 0.988251
1.00148 1.00432 0.987462
1.00248 1.00217 0.98762
1.00333 0.999564 0.988684
1.00301 0.999815 0.9891
1.00223 1.00187 0.988469
1.00258 1.00147 0.988206
1.00122 1.00274 0.989237
1.00159 1.00315 0.988474
1.00188 1.00323 0.987668
1.00062 1.00256 0.99087
1.00079 1.00309 0.989967
1.00101 1.00387 0.988692
1.00038 1.00206 0.991834
1.00046 1.00249 0.991282
1.00036 1.00276 0.991093
1.00002 1.00115 0.993414
1.00024 1.00205 0.992111
1.00021 1.00283 0.991409
0.999674 0.998622 0.996511
1.00001 1.00053 0.993999
1.00018 1.00167 0.992601
0.999548 0.997192 0.999282
0.999733 0.998325 0.99672
1.00001 1.00003 0.994505
0.99965 0.996933 0.999309
0.999803 0.998047 0.996885
0.999714 0.996768 0.999323
1.00012 1.00197 0.992451
1.00019 1.00163 0.992593
1.00022 1.00098 0.993186
1.00007 0.999755 0.994673
1.00024 1.00068 0.993435
1.00021 1.00138 0.992804
0.99987 0.997979 0.996809
1.0001 0.999601 0.994768
1.00024 1.00052 0.99361
0.999791 0.9967 0.999297
0.999918 0.997812 0.996874
1.00012 0.999486 0.994851
0.999859 0.996502 0.999325
0.999967 0.997621 0.996964
0.999919 0.996302 0.999359
0.995888 0.999062 0.964011
0.999955 0.99896 0.981191
1.00617 1.00008 0.981425
1.00006 1.00243 0.992074
1.00007 1.00268 0.991907
1.00007 1.00262 0.991882
1.00016 1.00173 0.992646
1.00015 1.00204 0.992318
1.00012 1.00209 0.992237
1.00008 1.00214 0.992273
1.00011 1.0024 0.991997
0.999969 1.00292 0.991812
1.00014 1.00191 0.992348
1.00009 1.00192 0.992525
1.00001 1.00212 0.992586
0.997825 0.998005 0.958861
0.995054 0.999508 0.959625
0.997875 0.999674 0.975502
0.994489 0.998148 0.954183
0.995236 0.999865 0.961346
0.995454 1.00015 0.968069
0.995034 0.994826 0.985833
0.995302 0.997492 0.985184
0.996237 0.999133 0.959299
0.99552 0.999956 0.965871
0.996859 0.996559 0.984685
0.996996 1.00079 0.962775
1.00075 1.00125 0.992567
0.999611 1.0011 0.994197
1.00008 1.00141 0.9933
0.996172 1.00164 0.997274
0.999409 1.00251 0.993965
0.999052 1.00145 0.994403
1.00167 0.999452 0.99112
0.998577 0.994839 0.958895
0.996245 0.999157 0.965257
1.00211 0.999424 0.980705
0.997577 1.00005 0.99737
0.994926 1.00005 0.983516
0.995995 0.997681 0.966496
0.996377 1.00063 0.962863
0.997595 0.998924 0.960274
0.998977 0.99981 0.995893
0.998394 0.995534 0.959248
0.998464 0.998668 0.962418
0.995149 1.001 0.982733
1.00004 1.00043 0.994639
0.999145 0.996952 0.96321
0.997087 0.999112 0.984659
1.00124 0.998607 0.9939
1.00294 0.9975 0.99105
1.00455 0.995504 0.989967
1.00176 1.00243 0.988588
1.00351 0.999212 0.988394
1.00457 0.996352 0.989184
1.00218 1.00258 0.987517
1.0035 0.999487 0.988245
1.00443 0.996755 0.989154
1.00249 1.00203 0.98765
1.00332 0.999485 0.988672
1.00371 0.997802 0.989641
1.00332 0.998814 0.989672
1.003 0.999681 0.989226
1.00268 1.00041 0.989083
1.00198 1.00185 0.989016
1.00224 1.00191 0.988491
1.00257 1.00136 0.988326
1.001 1.00246 0.990047
1.00126 1.00275 0.989365
1.00161 1.00312 0.988577
1.00051 1.00207 0.991557
1.00065 1.00256 0.99085
1.00069 1.0031 0.989978
1.00008 1.00143 0.992989
1.00041 1.00204 0.991839
1.00049 1.00249 0.991273
0.99963 0.999024 0.996159
1.00004 1.00108 0.993415
1.00026 1.00203 0.992124
0.99951 0.99742 0.999233
0.999672 0.998661 0.99649
1.00001 1.00052 0.993988
0.999571 0.99721 0.99879
0.999741 0.998335 0.996715
0.999637 0.996997 0.999293
1.00013 1.00228 0.992118
1.00012 1.002 0.992403
1.00015 1.0014 0.992914
1.0002 1.00163 0.992601
1.00022 1.00098 0.993186
1.00001 1.00003 0.994501
0.999816 0.99813 0.996762
1.00007 0.999746 0.994679
1.00024 1.0007 0.993438
0.999722 0.996869 0.999282
0.999865 0.997975 0.996812
1.0001 0.999602 0.99477
0.999798 0.996679 0.999303
0.999913 0.997809 0.996877
0.999865 0.996474 0.999333
0.998494 0.996001 0.959811
0.995608 0.999445 0.963102
0.999745 0.998978 0.981379
1.00006 1.00248 0.99203
1.00005 1.00271 0.991806
1.00002 1.00265 0.991963
1.00016 1.00269 0.991719
0.999988 1.00299 0.991699
1.00009 1.00215 0.992252
1.0001 1.00242 0.991979
0.999943 1.00282 0.991847
0.999845 1.0029 0.991599
1.00011 1.00244 0.991854
1.00149 1.00193 0.990267
0.999968 1.00224 0.992429
0.999993 1.002 0.9926
0.999123 0.999007 0.961705
0.997288 0.998225 0.958921
0.9948 0.999827 0.959585
0.996594 0.999362 0.95899
0.995543 1.00061 0.963232
0.99501 0.997518 0.989732
0.997066 0.996793 0.987022
0.997028 0.998849 0.966679
0.999939 0.997874 0.981792
1.00306 0.999424 0.989548
1.00036 1.00108 0.992542
0.99975 1.00094 0.9941
0.999575 1.00168 0.993956
1.00238 0.999694 0.990441
0.999567 0.995561 0.962947
0.998647 0.995251 0.959684
0.996114 0.999383 0.967099
0.998898 0.999869 0.995321
0.994878 1.00141 0.979443
0.998477 0.995232 0.959423
0.997883 0.999517 0.96622
1.00034 1.00014 0.994665
1.00002 0.99589 0.965421
0.996802 1.00006 0.981001
1.0021 1.00223 0.990324
1.00039 0.996705 0.988293
1.00281 0.997777 0.990939
1.00431 0.996035 0.98974
1.00513 0.996058 0.988528
1.00357 0.999159 0.988343
1.00453 0.996605 0.989107
1.00502 0.995776 0.988966
1.0035 0.999338 0.98824
1.0044 0.996905 0.989076
1.0046 0.996542 0.989116
1.0033 0.999415 0.988659
1.00367 0.997899 0.989591
1.00383 0.997728 0.989584
1.00323 0.998655 0.989827
1.00316 0.999436 0.989329
1.00299 0.999557 0.989352
1.00269 1.00043 0.989053
1.0025 1.00078 0.9891
1.0016 1.00184 0.989549
1.00197 1.00188 0.988992
1.00225 1.00194 0.988512
1.00075 1.0021 0.991061
1.00099 1.00246 0.990136
1.00129 1.00276 0.989493
1.00011 1.00156 0.992733
1.00054 1.00207 0.991541
1.00068 1.00257 0.99083
0.999619 0.99945 0.995727
1.00009 1.00139 0.992998
1.00043 1.00202 0.991844
0.999474 0.997692 0.999164
0.999621 0.999086 0.996139
1.00005 1.00103 0.993416
0.999513 0.997465 0.999214
0.999669 0.998705 0.99647
0.999566 0.997246 0.999253
1.00023 1.00246 0.991763
1.00012 1.00226 0.992123
1.00014 1.0018 0.992486
1.00012 1.00202 0.992355
1.00014 1.00146 0.992848
0.999968 1.00046 0.994137
1.00022 1.00098 0.993186
1.00002 1 0.994507
0.999746 0.998344 0.996685
0.999644 0.99704 0.99927
0.99981 0.998129 0.996766
1.00007 0.999735 0.994684
0.999731 0.996849 0.999286
0.99986 0.997971 0.996815
0.999804 0.996656 0.999309
1.00051 0.996522 0.964637
0.998231 0.996011 0.959337
0.9952 0.999815 0.963191
1.00003 1.00282 0.99173
0.999972 1.00262 0.992019
0.999992 1.00298 0.991733
1.00014 1.00269 0.991721
1.00026 1.00292 0.991305
0.999939 1.00284 0.991725
0.999917 1.00271 0.991883
0.999969 1.00304 0.991434
1.00002 1.0027 0.991761
1.00038 1.00217 0.991232
1.00174 1.00178 0.990554
1.00309 1.0004 0.988293
1.00125 1.00181 0.990464
0.999795 1.00258 0.99251
0.999773 0.99794 0.98056
0.998772 0.998967 0.962905
0.997424 0.998268 0.959359
0.997722 1.00042 0.962809
0.997219 0.996836 0.989324
1.00013 0.997743 0.985976
1.00361 0.997261 0.990533
1.0031 0.999085 0.989929
1.00021 1.00092 0.992513
1.00353 1.0001 0.98975
0.99911 0.998657 0.981851
1.00015 0.99571 0.966924
0.998511 0.995617 0.959522
1.00053 0.99998 0.994682
0.996558 1.00086 0.983227
0.999568 0.995701 0.967693
1.00218 1.00123 0.990551
0.999844 0.997819 0.986452
1.00425 1.00007 0.988132
1.0047 0.997521 0.988686
1.00411 0.996509 0.989514
1.00503 0.99606 0.988496
1.00512 0.996911 0.988048
1.00445 0.99683 0.989027
1.00496 0.995993 0.988955
1.00499 0.997045 0.987973
1.0044 0.997066 0.988997
1.00456 0.996761 0.989057
1.00454 0.997621 0.988342
1.00363 0.998004 0.98954
1.00369 0.997801 0.989686
1.00358 0.99879 0.988928
1.00314 0.998498 0.989982
1.00312 0.99932 0.989403
1.003 1.00006 0.989016
1.0027 1.00044 0.989022
1.00249 1.00081 0.989076
1.00224 1.00104 0.989418
1.00117 1.00173 0.990429
1.00157 1.00186 0.989639
1.00196 1.00191 0.988969
1.00024 1.0017 0.992388
1.00078 1.00209 0.991053
1.00098 1.00246 0.990226
0.999577 0.999992 0.995292
1.00014 1.00158 0.992735
1.00058 1.00206 0.991524
0.999461 0.99797 0.999062
0.999615 0.99951 0.995718
1.00011 1.00135 0.993008
0.999483 0.997735 0.999134
0.999614 0.999143 0.99612
0.999517 0.997507 0.999195
1.00033 1.00266 0.991392
1.00024 1.00245 0.991796
1.00021 1.00208 0.992151
1.00011 1.00225 0.992127
1.00014 1.00185 0.992437
0.999977 1.00094 0.993634
1.00014 1.00151 0.992782
0.999973 1.00046 0.994143
0.999669 0.99866 0.996514
1.00003 0.999984 0.994514
0.999743 0.998328 0.996694
0.999565 0.997251 0.999249
0.999656 0.99702 0.999274
0.999804 0.998125 0.99677
0.999739 0.996831 0.999291
0.99954 0.997902 0.981184
1.00026 0.99639 0.96172
0.998405 0.995899 0.959357
1.00076 1.00258 0.990675
0.999996 1.00299 0.991767
1.00011 1.00268 0.991723
0.999982 1.00292 0.991718
1.0002 1.003 0.991274
1.00024 1.00199 0.991945
1.0001 1.00323 0.991269
0.999991 1.00297 0.991668
1.00053 1.00217 0.99136
1.00147 1.00177 0.990622
1.00272 1.00047 0.988943
1.00478 0.998361 0.986776
1.00303 1.00026 0.988253
1.00108 1.00162 0.990662
1.00318 0.996776 0.992348
0.999654 0.998433 0.97899
0.998892 0.998839 0.964476
0.99996 0.997507 0.983207
1.00368 0.996746 0.991271
1.0028 0.99863 0.990322
1.00347 0.998613 0.988819
0.998943 0.99775 0.984341
0.999921 0.995493 0.962756
1.00235 1.00006 0.990769
0.999837 0.998951 0.984539
1.00426 0.999105 0.988189
1.00466 0.997727 0.989039
1.00516 0.996633 0.987927
1.00519 0.997451 0.987671
1.00487 0.996117 0.988464
1.00508 0.996593 0.988127
1.00492 0.997419 0.98796
1.00496 0.996161 0.988945
1.00501 0.99699 0.987979
1.00483 0.998138 0.987224
1.00449 0.996966 0.988998
1.00441 0.997644 0.988546
1.00415 0.998533 0.988048
1.00355 0.997866 0.989788
1.00358 0.998794 0.988922
1.00343 0.999506 0.988539
1.00308 0.999205 0.989477
1.00297 0.99998 0.989033
1.0027 1.00045 0.989071
1.00249 1.00083 0.989053
1.0022 1.00105 0.989369
1.00178 1.0012 0.990082
1.00058 1.00151 0.991953
1.00116 1.00173 0.99052
1.00155 1.00188 0.989728
0.999538 1.00051 0.99485
1.00025 1.0017 0.992387
1.00081 1.00208 0.991045
0.999386 0.998319 0.998946
0.999611 0.999955 0.995287
1.00015 1.00158 0.992737
0.99945 0.998017 0.999026
0.999611 0.999553 0.995708
0.999489 0.997774 0.999102
1.0006 1.00256 0.990814
1.00032 1.00263 0.991402
1.00035 1.00219 0.991835
1.00024 1.00242 0.991829
1.00019 1.00207 0.992171
1 1.00136 0.993183
1.00014 1.0019 0.992388
0.999963 1.00099 0.993633
0.999594 0.999068 0.996234
0.999976 1.00045 0.994148
0.999671 0.998623 0.996531
0.999499 0.997493 0.999207
0.999742 0.998313 0.996702
0.999576 0.997216 0.999257
0.999667 0.997002 0.999277
1.00323 0.997315 0.991161
0.999531 0.998201 0.97782
0.999922 0.996775 0.965125
1.00085 1.00176 0.991065
1.00187 1.0016 0.989533
1.00057 1.00261 0.990782
1.00003 1.00297 0.991711
1.00015 1.00308 0.99124
1.00043 1.00195 0.991819
1.00274 1.00022 0.989277
1.00063 1.00218 0.991487
1.00105 1.00175 0.99069
1.00269 1.00044 0.989007
1.00444 0.999015 0.986706
1.0051 0.99697 0.987407
1.00479 0.998426 0.986815
1.00304 1.00021 0.988213
1.00344 0.996714 0.992515
0.99951 0.99913 0.97677
1.00399 0.996381 0.991994
1.00506 0.996813 0.988915
1.00321 0.998447 0.989082
0.999333 0.99705 0.98043
1.0043 0.998211 0.988259
1.00463 0.997943 0.989346
1.00507 0.996602 0.988103
1.00521 0.99705 0.987712
1.00494 0.99706 0.988016
1.0051 0.996473 0.987929
1.00505 0.996232 0.988206
1.00487 0.997257 0.987966
1.00474 0.997871 0.987606
1.00502 0.997027 0.987984
1.00478 0.998098 0.987367
1.00451 0.998489 0.987371
1.00426 0.997674 0.988749
1.0042 0.998528 0.988014
1.00401 0.999005 0.987908
1.00359 0.998798 0.988916
1.00344 0.9995 0.988533
1.00315 1.00002 0.988589
1.00294 0.999902 0.98905
1.00265 1.00043 0.989081
1.00218 1.00074 0.98971
1.00215 1.00106 0.989321
1.00173 1.00119 0.990059
1.001 1.0011 0.99155
0.999598 1.00072 0.994483
1.00058 1.00152 0.991949
1.00116 1.00174 0.990612
0.999232 0.998829 0.998827
0.999607 1.00043 0.99484
1.00028 1.00171 0.992385
0.999357 0.998418 0.998909
0.99964 0.999946 0.995282
0.999442 0.998082 0.99899
1.00113 1.00224 0.98988
1.0006 1.00255 0.990722
1.00066 1.0021 0.991334
1.00031 1.00259 0.991412
1.00032 1.00218 0.991844
1.00004 1.00166 0.99285
1.00018 1.00207 0.992191
0.999976 1.00143 0.993177
0.999551 0.999519 0.995854
0.99995 1.00103 0.993631
0.999603 0.999013 0.996253
0.999453 0.997755 0.999136
0.999673 0.998585 0.996549
0.999504 0.997452 0.999222
0.999588 0.997188 0.999264
1.00503 0.996479 0.988027
1.00324 0.997174 0.990687
0.999632 0.997574 0.979427
1.00278 1.00043 0.989263
1.00067 1.00163 0.991568
1.00277 1.00041 0.988421
1.0019 1.00163 0.989466
1.00036 1.00266 0.990891
1.00445 0.999112 0.987037
1.00063 1.00191 0.991695
1.0028 1.00014 0.989165
1.00503 0.99825 0.986586
1.0027 1.00037 0.989071
1.00464 0.999015 0.986521
1.00504 0.997123 0.98741
1.00465 0.998534 0.98685
1.00356 0.996539 0.992685
1.00495 0.997037 0.987953
1.00489 0.996914 0.988881
1.00288 0.998251 0.989337
1.00497 0.996513 0.988281
1.00523 0.996744 0.98775
1.0049 0.996987 0.988075
1.00512 0.996611 0.988014
1.00502 0.99747 0.987543
1.00483 0.997125 0.987972
1.00472 0.997966 0.987596
1.00461 0.998365 0.987355
1.00474 0.998062 0.987511
1.00455 0.998498 0.987363
1.00435 0.998774 0.987508
1.00425 0.998524 0.98798
1.00403 0.999004 0.98789
1.00369 0.999487 0.988069
1.00345 0.999495 0.988527
1.00315 1.00001 0.988586
1.00266 1.00036 0.989163
1.00261 1.0004 0.989091
1.00218 1.00073 0.989714
1.00142 1.00072 0.991136
1.00167 1.00118 0.990037
1.001 1.00111 0.991543
0.999681 1.00069 0.995107
0.999141 0.999523 0.996948
0.999666 1.00062 0.994895
1.00059 1.00153 0.991945
0.999207 0.998965 0.998785
0.999674 1.00035 0.99483
0.999334 0.998506 0.998869
1.00332 0.999455 0.98862
1.00184 1.00154 0.989247
1.00125 1.00223 0.989773
1.00103 1.0019 0.990794
1.0006 1.00253 0.99063
1.00062 1.0021 0.991354
1.00017 1.00174 0.99257
1.0003 1.00217 0.991854
1.00002 1.00168 0.992848
0.999562 0.999963 0.995406
0.999947 1.0015 0.993172
0.999556 0.999469 0.995867
0.999405 0.998059 0.99903
0.999611 0.998958 0.996272
0.999451 0.997714 0.99916
0.99951 0.99741 0.999236
1.00491 0.997689 0.987322
1.00504 0.99668 0.988562
1.00331 0.997241 0.99022
1.00421 0.999048 0.987438
1.00245 1.00048 0.989647
1.00047 1.00147 0.992066
1.00297 1.00034 0.988558
1.00193 1.00165 0.989399
1.0051 0.998515 0.986397
1.00441 0.999203 0.98686
1.00286 1.0001 0.989051
1.00504 0.998273 0.98658
1.00487 0.99901 0.986337
1.00501 0.997247 0.987423
1.00511 0.997632 0.987277
1.00501 0.996966 0.987953
1.00478 0.996946 0.988849
1.00487 0.996918 0.988135
1.00513 0.996717 0.9881
1.005 0.997429 0.987619
1.00484 0.998344 0.986996
1.0047 0.998038 0.987585
1.00458 0.998432 0.987362
1.00444 0.998915 0.987204
1.00458 0.998503 0.987356
1.00436 0.99877 0.987506
1.00401 0.999159 0.987795
1.00405 0.999004 0.987873
1.0037 0.999486 0.988063
1.00315 0.999926 0.988668
1.00315 1.00001 0.988584
1.00266 1.00036 0.989162
1.00182 1.00046 0.990629
1.00217 1.00073 0.989718
1.00142 1.00073 0.991124
0.999859 1.00054 0.994972
1.001 1.00113 0.991535
0.999782 1.00066 0.99506
0.999002 1.00007 0.996771
0.999076 0.999574 0.997801
0.999754 1.00054 0.995275
0.999183 0.999089 0.998737
1.00427 0.998778 0.987607
1.00267 1.00051 0.989104
1.00317 0.999185 0.989198
1.00149 1.00162 0.99014
1.00196 1.00157 0.989216
1.00138 1.0022 0.989666
1.00099 1.00194 0.990802
1.0004 1.00166 0.99219
1.00058 1.0021 0.991373
1.00014 1.00172 0.992572
0.999595 1.00035 0.994972
0.999993 1.00168 0.992847
0.999541 0.999954 0.995413
0.999311 0.998473 0.998902
0.999561 0.999411 0.995879
0.999408 0.998005 0.999065
0.999451 0.997669 0.999184
1.00511 0.997949 0.986847
1.00496 0.997661 0.987306
1.00499 0.996816 0.98909
1.00493 0.998449 0.986664
1.0042 0.999109 0.987479
1.00216 1.00053 0.990033
1.00316 1.00025 0.988698
1.0051 0.998478 0.986392
1.00438 0.999293 0.986684
1.00502 0.998305 0.986573
1.00514 0.997957 0.986828
1.00509 0.997638 0.987223
1.00505 0.996915 0.987954
1.00508 0.998383 0.986665
1.00497 0.997406 0.987695
1.00485 0.998319 0.987019
1.00452 0.999031 0.986894
1.00456 0.998511 0.98737
1.00443 0.998926 0.987213
1.00411 0.999253 0.987501
1.00437 0.998767 0.987504
1.00401 0.99916 0.987792
1.00344 0.999609 0.988426
1.0037 0.999485 0.988057
1.00315 0.999923 0.988668
1.0022 1.00019 0.990171
1.00267 1.00035 0.98916
1.00184 1.00045 0.990614
1.00008 1.00032 0.994832
1.00142 1.00074 0.991112
0.99995 1.00054 0.994923
0.998972 1.00025 0.996697
0.999889 1.00061 0.995011
0.998937 1.00016 0.996821
0.998967 0.999579 0.99873
1.00466 0.998866 0.986954
1.00374 0.999349 0.988124
1.00416 0.998878 0.987792
1.00218 1.00096 0.989704
1.00267 1.00039 0.989122
1.00305 0.998926 0.989768
1.00082 1.00145 0.991579
1.00149 1.00163 0.990133
1.00207 1.00162 0.989184
1.00094 1.00198 0.99081
1.00038 1.00166 0.992197
0.999645 1.00066 0.994588
1.00012 1.0017 0.992574
0.99954 1.00041 0.994976
0.999157 0.999024 0.998779
0.999521 0.999948 0.995419
0.99933 0.998385 0.998944
0.999413 0.997953 0.9991
1.00508 0.998032 0.986851
1.00512 0.997941 0.986808
1.00506 0.99763 0.98729
1.00496 0.998322 0.986747
1.00418 0.999176 0.987519
1.0051 0.998426 0.986387
1.00515 0.998115 0.986644
1.00516 0.997987 0.986773
1.00509 0.997647 0.98717
1.00505 0.998277 0.986735
1.00496 0.998758 0.986467
1.00486 0.998285 0.987041
1.00453 0.99908 0.986887
1.00422 0.999419 0.987046
1.00442 0.998936 0.987223
1.00411 0.999266 0.987501
1.00357 0.999624 0.988175
1.00401 0.999158 0.98779
1.00345 0.999606 0.988424
1.00243 0.999957 0.989959
1.00315 0.999921 0.988667
1.00222 1.00017 0.990164
1.00035 1.00008 0.994653
1.00185 1.00043 0.9906
1.00017 1.00033 0.994772
0.999065 1.00022 0.996609
1.00005 1.0005 0.994877
0.99891 1.00032 0.996757
0.998867 1.00027 0.996878
1.00481 0.99846 0.986881
1.00422 0.999068 0.987463
1.00464 0.99884 0.986911
1.00301 1.00003 0.988926
1.00372 0.999417 0.988179
1.00403 0.998973 0.987983
1.00138 1.00093 0.99095
1.00217 1.00089 0.989559
1.00266 1.00026 0.98914
0.999764 1.0008 0.994211
1.00081 1.00143 0.991591
1.00149 1.00165 0.990126
1.00036 1.00166 0.992203
0.999559 1.00076 0.9946
0.999002 0.999634 0.998671
0.99948 1.0005 0.994981
0.999185 0.998907 0.998822
0.999354 0.9983 0.998985
1.00506 0.998138 0.986805
1.00507 0.998041 0.986844
1.00513 0.997935 0.986768
1.00499 0.998197 0.986831
1.00509 0.998432 0.98649
1.00516 0.998126 0.986646
1.00517 0.998019 0.986718
1.00503 0.998185 0.986804
1.00495 0.998723 0.986497
1.0047 0.999164 0.986546
1.00455 0.999133 0.986881
1.00423 0.999454 0.987105
1.00371 0.999705 0.987672
1.0041 0.999281 0.9875
1.00357 0.99963 0.98817
1.00255 0.999904 0.989781
1.00344 0.999607 0.988421
1.00244 0.99994 0.989957
1.00049 0.999936 0.993549
1.00223 1.00015 0.990157
1.0004 1.00008 0.994117
0.999212 1.00015 0.998473
1.00026 1.00032 0.994713
0.998994 1.00028 0.996677
0.998837 1.00045 0.996811
1.00484 0.998393 0.986935
1.00434 0.998924 0.987266
1.00479 0.998505 0.986919
1.00352 0.999454 0.988205
1.0042 0.999092 0.987498
1.00463 0.998818 0.986869
1.002 1.00025 0.990169
1.00302 1.00003 0.988918
1.00371 0.999489 0.988235
1 1.00065 0.993859
1.0014 1.0009 0.990822
1.00215 1.00083 0.989415
0.998966 1.00011 0.998572
0.999677 1.00088 0.994231
1.0008 1.00143 0.991604
0.999475 1.00086 0.994611
0.99902 0.999497 0.99871
0.999218 0.998777 0.998859
1.00501 0.99837 0.986662
1.00507 0.998134 0.986788
1.00507 0.998056 0.986838
1.00491 0.998878 0.986461
1.00509 0.998402 0.9865
1.00516 0.998127 0.986648
1.00493 0.998676 0.986526
1.00469 0.999186 0.986535
1.00424 0.999482 0.987159
1.00424 0.99949 0.987165
1.00372 0.999735 0.987826
1.00277 0.999914 0.989067
1.00357 0.999632 0.988165
1.00255 0.9999 0.989778
1.00057 0.999957 0.993384
1.00245 0.999925 0.989956
1.00049 0.999942 0.993547
0.999278 1.00006 0.998452
1.00041 1.00009 0.993619
0.999177 1.00015 0.997542
0.998923 1.00036 0.996741
1.00481 0.998522 0.986946
1.00444 0.998814 0.987294
1.00483 0.998384 0.986943
1.00373 0.999338 0.988097
1.00436 0.998902 0.987295
1.00478 0.998546 0.986956
1.00245 0.99982 0.989749
1.00354 0.999522 0.988364
1.00419 0.999113 0.987532
1.00028 1.00029 0.993636
1.00204 1.00025 0.990114
1.00303 1.00002 0.988911
0.999052 1.00032 0.998495
0.999951 1.00068 0.993881
1.00141 1.00086 0.990694
0.998936 0.999997 0.998607
0.999602 1.00094 0.99425
0.999031 0.999352 0.998749
1.00481 0.99878 0.986682
1.00499 0.998392 0.986689
1.00509 0.998131 0.986771
1.00446 0.999219 0.987007
1.00491 0.998841 0.986486
1.00509 0.998381 0.986511
1.00468 0.999213 0.986524
1.00422 0.999515 0.987153
1.00324 0.999745 0.988362
1.00373 0.999764 0.987981
1.00275 0.999931 0.989238
1.00074 1.00002 0.992979
1.00257 0.99989 0.989775
1.00058 0.999957 0.993376
0.999345 1.00001 0.998416
1.00049 0.999954 0.993545
0.9993 1.00005 0.998442
0.999213 1.00012 0.996534
1.00455 0.998842 0.987213
1.00479 0.998441 0.987011
1.0039 0.99925 0.987869
1.00445 0.99881 0.987281
1.00483 0.998375 0.986951
1.00269 0.999727 0.98968
1.00375 0.99933 0.988091
1.00438 0.998879 0.987325
1.00051 0.999978 0.993494
1.00247 0.999867 0.989835
1.00356 0.999594 0.988524
0.999193 1.00026 0.998451
1.00026 1.00029 0.993651
1.00209 1.00024 0.990059
0.999 1.00025 0.998518
0.999894 1.00071 0.993907
0.998907 0.999882 0.998646
1.00433 0.99917 0.987296
1.00481 0.998803 0.986694
1.00497 0.998414 0.986717
1.00341 0.999558 0.988212
1.00446 0.999225 0.987003
1.00491 0.998799 0.986512
1.00421 0.999556 0.987146
1.00319 0.999766 0.988432
1.00101 1.00003 0.992468
1.00272 0.999945 0.989409
1.00076 1.00002 0.992958
0.999449 1.00001 0.998328
1.00058 0.99996 0.993369
0.999377 1 0.998393
0.999327 1.00004 0.998431
1.00408 0.999202 0.987611
1.00455 0.998777 0.987182
1.00477 0.998361 0.987076
1.00288 0.999679 0.989376
1.00392 0.999253 0.987861
1.00447 0.998805 0.987269
1.00068 0.999851 0.993293
1.00269 0.999741 0.989678
1.00377 0.999322 0.988084
0.999339 1.0001 0.99841
1.0005 0.99997 0.993505
1.00248 0.99991 0.989921
0.999145 1.00024 0.998462
1.00024 1.00029 0.993666
0.998939 1.0002 0.998547
1.00332 0.999593 0.988605
1.00435 0.999144 0.987158
1.0048 0.998826 0.986706
1.00117 0.99997 0.992218
1.0034 0.999561 0.988213
1.00446 0.999228 0.986998
1.00313 0.999785 0.988503
1.00102 1.00002 0.992454
0.999632 1.00001 0.998181
1.00078 1.00002 0.992937
0.999511 1 0.998276
0.999411 0.999994 0.998364
1.00311 0.999639 0.98897
1.0041 0.999174 0.987542
1.00455 0.998713 0.987151
1.00089 0.999891 0.994006
1.00287 0.999691 0.989369
1.00393 0.999257 0.987853
0.999468 0.999985 0.99834
1.00067 0.999848 0.993302
1.00268 0.999754 0.989676
0.999295 1.00012 0.998425
1.00049 0.999966 0.993516
0.999095 1.00023 0.998474
1.00119 0.999958 0.992214
1.00333 0.999558 0.988502
1.00437 0.999114 0.987019
0.99977 1 0.99808
1.00117 0.999969 0.992216
1.0034 0.999568 0.988215
1.00104 1.00001 0.992437
0.999691 1.00001 0.998136
0.999581 0.999998 0.998223
1.0011 0.999948 0.99359
1.00311 0.999634 0.98897
1.00412 0.999145 0.987473
0.999407 0.999969 0.998403
1.00082 0.999895 0.993001
1.00288 0.999697 0.989362
0.999423 1.00001 0.998368
1.00066 0.99985 0.993312
0.999254 1.00013 0.998437
0.999773 1.00001 0.995697
1.00118 0.999961 0.992844
1.00333 0.999527 0.9884
0.99978 1 0.998069
1.00117 0.999966 0.992217
0.999738 1 0.998098
0.999513 0.999976 0.996043
1.00103 0.999962 0.993129
1.00311 0.999632 0.988971
0.99947 0.999969 0.997251
1.00082 0.999909 0.992982
0.999387 1.00002 0.998392
0.999776 0.999996 0.998071
1.00113 0.999962 0.992297
0.999789 0.999997 0.998063
0.999607 0.999996 0.997063
1.00099 0.999969 0.992591
0.9995 0.999985 0.998312
0.999738 0.999991 0.998106
0.999625 0.999986 0.998203

TENSORS stress float
0.0011858 3.47616e-06 6.42983e-05
3.47616e-06 0.00028281 -7.50166e-06
6.42983e-05 -7.50166e-06 0.000263035
0.00317763 -8.06573e-05 5.85938e-05
-8.06573e-05 0.00131985 3.33604e-06
5.85938e-05 3.33604e-06 0.00131601
0.00119743 3.48653e-05 3.01085e-05
3.48653e-05 0.000297408 -2.37536e-06
3.01085e-05 -2.37536e-06 0.000273167
0.00156223 -1.00648e-05 8.12831e-05
-1.00648e-05 0.000455563 -5.93973e-06
8.12831e-05 -5.93973e-06 0.000433911
0.00127841 -7.69242e-06 7.04524e-05
-7.69242e-06 0.000331939 -7.55401e-06
7.04524e-05 -7.55401e-06 0.000310843
0.00113371 2.86415e-05 5.38133e-05
2.86415e-05 0.000246424 -6.96909e-06
5.38133e-05 -6.96909e-06 0.000228242
0.00110571 -1.00113e-06 8.72695e-06
-1.00113e-06 0.000196864 -3.88655e-06
8.72695e-06 -3.88655e-06 0.000149278
0.00313977 -9.07785e-05 1.98513e-06
-9.07785e-05 0.00129743 -2.68702e-07
1.98513e-06 -2.68702e-07 0.00129327
0.00385771 -0.000168351 1.54675e-06
-0.000168351 0.00171743 2.11034e-06
1.54675e-06 2.11034e-06 0.0016938
0.00316481 -0.000125608 1.20005e-05
-0.000125608 0.00133777 1.50192e-06
1.20005e-05 1.50192e-06 0.001324
0.00112007 -3.72832e-05 4.45937e-05
-3.72832e-05 0.000212805 4.13603e-06
4.45937e-05 4.13603e-06 0.00020453
0.000749205 1.61893e-05 7.27852e-06
1.61893e-05 6.83955e-07 4.38512e-06
7.27852e-06 4.38512e-06 -3.9766e-05
0.00175119 -8.44926e-06 9.78162e-05
-8.44926e-06 0.000535535 7.12515e-07
9.78162e-05 7.12515e-07 0.000512949
0.00132091 3.78815e-06 1.50008e-05
3.78815e-06 0.000331073 1.20186e-06
1.50008e-05 1.20186e-06 0.000306731
0.00124143 7.35039e-05 -4.09155e-06
7.35039e-05 0.000330679 2.74665e-06
-4.09155e-06 2.74665e-06 0.00030093
0.00146024 9.89454e-06 3.5715e-05
9.89454e-06 0.000408041 -2.10754e-06
3.5715e-05 -2.10754e-06 0.000384257
0.00113185 4.28697e-05 2.49409e-05
4.28697e-05 0.000251069 -2.3634e-06
2.49409e-05 -2.3634e-06 0.000230422
0.00128117 3.05761e-05 3.46161e-05
3.05761e-05 0.000342511 -2.2322e-06
3.46161e-05 -2.2322e-06 0.000316685
0.00121125 -1.02403e-05 -1.27903e-05
-1.02403e-05 0.00024726 3.77307e-07
-1.27903e-05 3.77307e-07 0.000201761
0.00475885 3.10584e-07 9.73621e-05
3.10584e-07 0.00213137 -9.65584e-07
9.73621e-05 -9.65584e-07 0.00212602
0.00164749 -5.34226e-06 8.53222e-05
-5.34226e-06 0.000492057 -4.46896e-06
8.53222e-05 -4.46896e-06 0.000470959
0.00141525 -1.001e-05 7.55908e-05
-1.001e-05 0.000393426 -7.07976e-06
7.55908e-05 -7.07976e-06 0.000371679
0.00143607 -1.86489e-05 1.63914e-05
-1.86489e-05 0.000302689 -3.35659e-06
1.63914e-05 -3.35659e-06 0.000254074
0.00120863 -1.67322e-06 9.0359e-06
-1.67322e-06 0.000234632 -4.4001e-06
9.0359e-06 -4.4001e-06 0.000185117
0.00114614 4.25434e-05 4.34571e-05
4.25434e-05 0.000236072 -6.77478e-06
4.34571e-05 -6.77478e-06 0.000222068
0.00102433 5.68901e-06 8.26039e-06
5.68901e-06 0.000163394 -3.25396e-06
8.26039e-06 -3.25396e-06 0.000119582
0.00148874 -8.13502e-05 3.62497e-06
-8.13502e-05 0.000309562 -1.36128e-06
3.62497e-06 -1.36128e-06 0.00023469
0.00308757 -9.49881e-05 -4.70923e-05
-9.49881e-05 0.00126692 -3.15816e-06
-4.70923e-05 -3.15816e-06 0.00126301
0.00251286 -6.11986e-05 -3.20761e-05
-6.11986e-05 0.000992336 -7.20675e-07
-3.20761e-05 -7.20675e-07 0.000972274
0.00220023 -7.70572e-05 -2.31258e-05
-7.70572e-05 0.000820277 -5.7223e-07
-2.31258e-05 -5.7223e-07 0.000804369
0.00292872 -8.47619e-05 1.12488e-06
-8.47619e-05 0.00117213 -1.48185e-07
1.12488e-06 -1.48185e-07 0.0011721
0.00069534 8.16543e-06 -9.7614e-08
8.16543e-06 -2.26546e-05 -1.46533e-07
-9.7614e-08 -1.46533e-07 -6.36848e-05
0.0016188 2.05963e-05 7.70816e-05
2.05963e-05 0.000498662 4.61546e-06
7.70816e-05 4.61546e-06 0.000477266
0.001571 1.75626e-06 6.61573e-05
1.75626e-06 0.000487109 5.21907e-06
6.61573e-05 5.21907e-06 0.000466757
0.00214863 6.13774e-05 4.15907e-05
6.13774e-05 0.000715345 4.83984e-06
4.15907e-05 4.83984e-06 0.000673695
0.00269905 -8.71275e-05 1.41085e-05
-8.71275e-05 0.00104187 1.38777e-06
1.41085e-05 1.38777e-06 0.00104455
0.00186036 2.24544e-05 3.18921e-05
2.24544e-05 0.000587247 3.7247e-06
3.18921e-05 3.7247e-06 0.000550432
0.000685247 -1.93359e-05 7.33989e-06
-1.93359e-05 -2.96484e-05 6.46005e-06
7.33989e-06 6.46005e-06 -6.64753e-05
0.000910581 5.33474e-05 3.6252e-06
5.33474e-05 5.46675e-05 7.74145e-07
3.6252e-06 7.74145e-07 -1.87216e-05
0.002517 -6.13446e-05 3.6648e-05
-6.13446e-05 0.000932289 3.39206e-06
3.6648e-05 3.39206e-06 0.000942064
0.00491034 -1.37822e-05 1.79719e-06
-1.37822e-05 0.00220628 -4.52088e-07
1.79719e-06 -4.52088e-07 0.00220059
0.0029691 1.62141e-06 -3.84872e-05
1.62141e-06 0.00119712 -8.58307e-07
-3.84872e-05 -8.58307e-07 0.00118202
0.00514355 5.39128e-06 0.000106526
5.39128e-06 0.00232026 3.23325e-07
0.000106526 3.23325e-07 0.00231475
0.00134745 1.0055e-05 1.3641e-05
1.0055e-05 0.000340629 7.95689e-07
1.3641e-05 7.95689e-07 0.000315151
0.000799064 -4.94556e-06 1.41419e-05
-4.94556e-06 -7.0383e-05 1.96034e-06
1.41419e-05 1.96034e-06 -0.000125572
0.00434581 -3.92409e-05 2.34266e-05
-3.92409e-05 0.00193452 1.01816e-06
2.34266e-05 1.01816e-06 0.00192411
0.00232059 6.6285e-06 5.05689e-05
6.6285e-06 0.000754419 2.9156e-06
5.05689e-05 2.9156e-06 0.000715212
0.00135472 8.01997e-06 -1.47257e-05
8.01997e-06 0.000358009 1.95807e-06
-1.47257e-05 1.95807e-06 0.000332655
0.00131498 7.16929e-05 -2.87513e-06
7.16929e-05 0.000370648 2.9119e-06
-2.87513e-06 2.9119e-06 0.000339517
0.00113422 6.65777e-05 -6.59633e-06
6.65777e-05 0.00025883 2.25129e-06
-6.59633e-06 2.25129e-06 0.000234597
0.00127484 -2.27939e-05 -3.42843e-05
-2.27939e-05 0.00027481 4.60208e-06
-3.42843e-05 4.60208e-06 0.000231977
0.00316132 4.13684e-05 -3.9476e-05
4.13684e-05 0.00129123 -1.01112e-06
-3.9476e-05 -1.01112e-06 0.00127313
0.00149398 4.98309e-06 3.56345e-05
4.98309e-06 0.00041655 -1.49902e-06
3.56345e-05 -1.49902e-06 0.000393639
0.00109936 5.02469e-05 1.86579e-05
5.02469e-05 0.000214443 -2.33633e-06
1.86579e-05 -2.33633e-06 0.00019944
0.00137185 2.30236e-05 3.62006e-05
2.30236e-05 0.000378833 -2.26527e-06
3.62006e-05 -2.26527e-06 0.000353539
0.00149059 -2.77268e-05 -1.2928e-05
-2.77268e-05 0.000328743 2.06366e-07
-1.2928e-05 2.06366e-07 0.000281808
0.00111701 2.41027e-06 -9.90141e-06
2.41027e-06 0.000208079 3.51925e-07
-9.90141e-06 3.51925e-07 0.000165729
0.00130526 -1.61111e-05 -1.41934e-05
-1.61111e-05 0.000279687 3.13771e-07
-1.41934e-05 3.13771e-07 0.000232897
0.00161127 -8.64079e-05 -2.10403e-06
-8.64079e-05 0.000369553 7.45538e-07
-2.10403e-06 7.45538e-07 0.000293673
0.00492614 3.3541e-05 9.64976e-05
3.3541e-05 0.00221434 1.36714e-07
9.64976e-05 1.36714e-07 0.00220828
0.00163827 3.33162e-06 8.77382e-05
3.33162e-06 0.000485459 -3.18696e-06
8.77382e-05 -3.18696e-06 0.000464134
0.00224225 3.94468e-05 1.20787e-05
3.94468e-05 0.000706637 -9.89909e-07
1.20787e-05 -9.89909e-07 0.000660128
0.00148481 -1.97216e-05 1.85278e-05
-1.97216e-05 0.000316403 -2.36022e-06
1.85278e-05 -2.36022e-06 0.000268972
0.00132221 -7.24592e-06 1.19027e-05
-7.24592e-06 0.000269213 -4.24376e-06
1.19027e-05 -4.24376e-06 0.000219639
0.00192732 -7.31071e-05 6.01644e-06
-7.31071e-05 0.000414633 -1.90081e-06
6.01644e-06 -1.90081e-06 0.000333459
0.00122309 -7.35692e-05 5.39923e-06
-7.35692e-05 0.000129539 -2.57443e-06
5.39923e-06 -2.57443e-06 5.09784e-05
0.00122611 4.45241e-05 4.01121e-05
4.45241e-05 0.000256863 -6.5699e-06
4.01121e-05 -6.5699e-06 0.000249607
0.000986494 3.09233e-05 6.51555e-06
3.09233e-05 0.000146772 -2.8783e-06
6.51555e-06 -2.8783e-06 0.000109639
0.00131611 -6.85526e-05 2.67942e-06
-6.85526e-05 0.000256378 -9.05262e-07
2.67942e-06 -9.05262e-07 0.000184617
0.00112296 -8.98806e-05 2.44826e-06
-8.98806e-05 6.2342e-05 -6.91871e-07
2.44826e-06 -6.91871e-07 -3.32068e-05
0.00378073 -9.28959e-05 -6.01283e-05
-9.28959e-05 0.00166341 -3.78458e-06
-6.01283e-05 -3.78458e-06 0.00165022
0.00291169 -8.59614e-05 -4.29327e-05
-8.59614e-05 0.0011598 -3.17982e-06
-4.29327e-05 -3.17982e-06 0.00116082
0.00323051 -0.000100227 -5.21464e-05
-0.000100227 0.00136022 -3.03252e-06
-5.21464e-05 -3.03252e-06 0.00135199
0.000647375 8.31636e-06 -6.19807e-06
8.31636e-06 -4.40172e-05 -5.00558e-06
-6.19807e-06 -5.00558e-06 -8.48963e-05
0.00437109 -4.10434e-05 -2.81603e-06
-4.10434e-05 0.00195321 -1.77169e-07
-2.81603e-06 -1.77169e-07 0.00194411
0.00366221 -8.99461e-05 2.21733e-06
-8.99461e-05 0.00160089 -1.99579e-07
2.21733e-06 -1.99579e-07 0.0015889
0.000640237 6.1844e-05 -4.47819e-07
6.1844e-05 -7.46542e-05 -1.44831e-07
-4.47819e-07 -1.44831e-07 -0.000124595
0.00187873 -6.26654e-05 -1.66378e-05
-6.26654e-05 0.000605359 -7.48121e-07
-1.66378e-05 -7.48121e-07 0.000604946
0.000668599 3.13439e-05 -2.45339e-07
3.13439e-05 -3.69502e-05 -8.19365e-08
-2.45339e-07 -8.19365e-08 -8.14201e-05
0.00115569 -2.73231e-05 9.14486e-06
-2.73231e-05 0.000220407 4.78024e-07
9.14486e-06 4.78024e-07 0.000187866
0.000866103 5.2692e-05 1.54982e-07
5.2692e-05 3.03397e-05 -2.2475e-07
1.54982e-07 -2.2475e-07 -4.23994e-05
0.00263993 -6.79853e-05 4.0079e-05
-6.79853e-05 0.00100225 3.36354e-06
4.0079e-05 3.36354e-06 0.00100963
0.000732002 -4.8341e-05 2.07051e-06
-4.8341e-05 -1.85674e-05 4.20404e-06
2.07051e-06 4.20404e-06 -3.7837e-05
0.000784036 5.60615e-05 1.38287e-05
5.60615e-05 -2.65623e-05 5.90514e-06
1.38287e-05 5.90514e-06 -7.77405e-05
0.000796599 5.32954e-05 1.19507e-05
5.32954e-05 1.83522e-05 7.02463e-06
1.19507e-05 7.02463e-06 -3.01629e-05
0.00104444 7.31948e-05 5.92427e-06
7.31948e-05 2.60295e-05 2.36344e-06
5.92427e-06 2.36344e-06 -5.61428e-05
0.00156261 -5.2928e-05 1.97634e-05
-5.2928e-05 0.000433779 3.66151e-06
1.97634e-05 3.66151e-06 0.000409503
0.000958379 6.84217e-05 3.86485e-06
6.84217e-05 5.85888e-05 1.26259e-06
3.86485e-06 1.26259e-06 -1.54121e-05
0.000888721 3.73692e-05 3.507e-06
3.73692e-05 5.7138e-05 1.63865e-06
3.507e-06 1.63865e-06 -1.47953e-05
0.000889844 8.19037e-05 2.03038e-06
8.19037e-05 1.38739e-05 -5.63699e-07
2.03038e-06 -5.63699e-07 -7.48667e-05
0.00235693 -5.48303e-05 3.21144e-05
-5.48303e-05 0.000841495 3.4657e-06
3.21144e-05 3.4657e-06 0.000853806
0.0024691 -6.15163e-05 7.14139e-07
-6.15163e-05 0.000906866 -9.61774e-08
7.14139e-07 -9.61774e-08 0.000916901
0.00454092 4.66362e-06 -8.99117e-05
4.66362e-06 0.00202615 -2.65724e-06
-8.99117e-05 -2.65724e-06 0.00202057
0.00480766 -1.75193e-05 -9.43053e-05
-1.75193e-05 0.00215606 -9.80071e-07
-9.43053e-05 -9.80071e-07 0.00215035
0.00509717 8.17719e-06 3.51125e-06
8.17719e-06 0.00229912 -5.33532e-07
3.51125e-06 -5.33532e-07 0.00229274
0.00304399 -9.34739e-06 -3.89424e-05
-9.34739e-06 0.00123219 -5.32906e-07
-3.89424e-05 -5.32906e-07 0.00121623
0.00161542 7.27157e-06 2.21084e-05
7.27157e-06 0.000363201 1.74247e-07
2.21084e-05 1.74247e-07 0.000314142
0.00286316 -1.67626e-05 -3.9233e-05
-1.67626e-05 0.00115055 -9.41044e-07
-3.9233e-05 -9.41044e-07 0.00113449
0.00151889 2.352e-05 1.95444e-05
2.352e-05 0.000335099 3.40308e-07
1.95444e-05 3.40308e-07 0.000290375
0.0051463 7.40736e-05 9.91146e-05
7.40736e-05 0.00232504 1.31658e-06
9.91146e-05 1.31658e-06 0.00231717
0.000776907 -9.50386e-07 1.27596e-05
-9.50386e-07 -9.4161e-05 3.06689e-07
1.27596e-05 3.06689e-07 -0.00015157
0.00236356 -1.61229e-05 5.27914e-05
-1.61229e-05 0.000768765 2.00441e-06
5.27914e-05 2.00441e-06 0.000727811
0.00125019 1.49205e-05 7.64505e-06
1.49205e-05 1.06933e-05 1.61148e-06
7.64505e-06 1.61148e-06 -7.83721e-05
0.0022371 4.79597e-05 4.76437e-05
4.79597e-05 0.000724602 3.36645e-06
4.76437e-05 3.36645e-06 0.000684538
0.00119577 4.36669e-05 7.57438e-06
4.36669e-05 1.56844e-05 1.42545e-06
7.57438e-06 1.42545e-06 -6.95601e-05
0.00170598 1.7589e-05 -9.45245e-05
1.7589e-05 0.000515331 3.51591e-07
-9.45245e-05 3.51591e-07 0.000493391
0.00132396 -4.43197e-06 -1.61998e-05
-4.43197e-06 0.000332417 1.45095e-06
-1.61998e-05 1.45095e-06 0.000307771
0.000999093 5.90941e-05 -7.90546e-06
5.90941e-05 0.000165128 1.85193e-06
-7.90546e-06 1.85193e-06 0.000148911
0.00135104 3.01248e-05 -1.01258e-05
3.01248e-05 0.000372631 2.37086e-06
-1.01258e-05 2.37086e-06 0.000346052
0.00155095 -2.58009e-05 -4.445e-05
-2.58009e-05 0.000358247 3.90022e-06
-4.445e-05 3.90022e-06 0.000312669
0.00136373 -3.09498e-05 -3.81501e-05
-3.09498e-05 0.000303875 4.81926e-06
-3.81501e-05 4.81926e-06 0.000260229
0.00119928 -6.08362e-06 -2.9589e-05
-6.08362e-06 0.000246729 4.02075e-06
-2.9589e-05 4.02075e-06 0.000206418
0.00176468 -9.19919e-05 -8.45588e-06
-9.19919e-05 0.00044562 3.12209e-06
-8.45588e-06 3.12209e-06 0.000368665
0.00502405 1.42694e-05 -3.05509e-06
1.42694e-05 0.00226217 -4.72656e-07
-3.05509e-06 -4.72656e-07 0.00225637
0.00148383 4.14661e-06 3.68565e-05
4.14661e-06 0.0004092 -8.77431e-07
3.68565e-05 -8.77431e-07 0.000386117
0.00115603 8.39087e-06 -2.38125e-05
8.39087e-06 0.000126632 3.05822e-07
-2.38125e-05 3.05822e-07 7.60822e-05
0.00151794 -2.22928e-05 -1.33257e-05
-2.22928e-05 0.000331677 2.12026e-07
-1.33257e-05 2.12026e-07 0.00028551
0.00201589 6.3296e-05 3.15812e-05
6.3296e-05 0.000679893 -1.55531e-06
3.15812e-05 -1.55531e-06 0.000677123
0.00129304 2.96431e-05 -6.30336e-06
2.96431e-05 0.000304555 3.19478e-07
-6.30336e-06 3.19478e-07 0.000268331
0.0014038 -2.60177e-05 -1.3138e-05
-2.60177e-05 0.000306727 2.7544e-07
-1.3138e-05 2.7544e-07 0.000260112
0.00174688 -6.7925e-05 -4.19333e-06
-6.7925e-05 0.000319513 6.75004e-07
-4.19333e-06 6.75004e-07 0.000237243
0.00148458 -7.72955e-05 -1.69238e-06
-7.72955e-05 0.000340588 7.34031e-07
-1.69238e-06 7.34031e-07 0.000267408
0.00148995 -8.06543e-05 -9.779e-07
-8.06543e-05 0.000268017 1.05955e-07
-9.779e-07 1.05955e-07 0.000189964
0.00113117 -8.95915e-05 -3.50432e-08
-8.95915e-05 6.62497e-05 5.46125e-08
-3.50432e-08 5.46125e-08 -2.91355e-05
0.00074949 2.6999e-06 1.25125e-05
2.6999e-06 -9.97649e-05 -1.57474e-06
1.25125e-05 -1.57474e-06 -0.000155935
0.0014685 -1.34203e-05 1.80128e-05
-1.34203e-05 0.000305384 -1.8642e-06
1.80128e-05 -1.8642e-06 0.000258111
0.00161286 -3.30155e-06 7.06054e-06
-3.30155e-06 0.000212115 -1.33124e-06
7.06054e-06 -1.33124e-06 0.000127949
0.00156952 -4.99271e-05 7.26359e-06
-4.99271e-05 0.000209102 -1.20038e-06
7.26359e-06 -1.20038e-06 0.000127458
0.0014429 -7.42512e-05 6.62301e-06
-7.42512e-05 0.000196359 -2.79537e-06
6.62301e-06 -2.79537e-06 0.000114403
0.00182144 -8.22296e-05 2.11848e-06
-8.22296e-05 0.000278225 -5.77799e-07
2.11848e-06 -5.77799e-07 0.000178904
0.00282152 7.69262e-05 4.12319e-05
7.69262e-05 0.00109765 -3.11431e-06
4.12319e-05 -3.11431e-06 0.00110309
0.00115371 -8.62692e-05 2.48827e-06
-8.62692e-05 3.38116e-05 -1.04623e-06
2.48827e-06 -1.04623e-06 -6.27403e-05
0.000690325 6.25588e-05 2.10131e-06
6.25588e-05 -2.16096e-05 -4.42685e-06
2.10131e-06 -4.42685e-06 -5.7849e-05
0.000707603 -4.55048e-05 2.5481e-06
-4.55048e-05 -3.66765e-05 -1.00555e-06
2.5481e-06 -1.00555e-06 -0.000106732
0.00121783 -9.72513e-05 2.34281e-06
-9.72513e-05 0.0001556 -8.44752e-07
2.34281e-06 -8.44752e-07 6.00646e-05
0.00124679 -0.000100566 1.05551e-06
-0.000100566 8.90562e-05 -1.20903e-07
1.05551e-06 -1.20903e-07 -1.48745e-05
0.000646404 5.09916e-05 2.84752e-06
5.09916e-05 -6.16743e-05 -4.35107e-06
2.84752e-06 -4.35107e-06 -8.59662e-05
0.000824807 2.94411e-05 1.03296e-06
2.94411e-05 1.25437e-05 -2.43323e-06
1.03296e-06 -2.43323e-06 -3.98507e-05
0.0041552 -4.00929e-05 -7.49872e-05
-4.00929e-05 0.00184298 -3.46679e-06
-7.49872e-05 -3.46679e-06 0.00183472
0.00342183 -0.000100141 -5.55317e-05
-0.000100141 0.00147468 -3.28523e-06
-5.55317e-05 -3.28523e-06 0.00146319
0.000584389 5.45298e-05 -9.73562e-06
5.45298e-05 -0.000101811 -5.52137e-06
-9.73562e-06 -5.52137e-06 -0.000151582
0.00276725 -7.67858e-05 -4.04678e-05
-7.67858e-05 0.00107459 -3.14645e-06
-4.04678e-05 -3.14645e-06 0.00107954
0.000622852 -4.54752e-05 -1.78537e-06
-4.54752e-05 -5.58186e-05 -5.19121e-06
-1.78537e-06 -5.19121e-06 -9.26937e-05
0.000605213 2.76365e-05 -7.38566e-06
2.76365e-05 -6.46073e-05 -4.77413e-06
-7.38566e-06 -4.77413e-06 -0.000109656
0.000834634 5.18435e-05 -3.54154e-06
5.18435e-05 1.29378e-05 -1.20374e-06
-3.54154e-06 -1.20374e-06 -5.94339e-05
0.00262889 -6.84479e-05 6.38641e-07
-6.84479e-05 0.000996425 -1.21745e-07
6.38641e-07 -1.21745e-07 0.00100396
0.000706664 -4.55339e-05 1.34829e-07
-4.55339e-05 -3.31933e-05 6.85636e-08
1.34829e-07 6.85636e-08 -5.17014e-05
0.00139997 5.72018e-05 1.70458e-05
5.72018e-05 0.000301035 1.98066e-07
1.70458e-05 1.98066e-07 0.000255121
0.00123913 4.44177e-05 1.41203e-05
4.44177e-05 0.000257748 2.55262e-07
1.41203e-05 2.55262e-07 0.000214125
0.00102535 7.32131e-05 3.69083e-07
7.32131e-05 1.70235e-05 -8.34191e-08
3.69083e-07 -8.34191e-08 -6.5025e-05
0.000701065 -5.83135e-05 -1.41738e-08
-5.83135e-05 -2.0915e-05 8.5556e-08
-1.41738e-08 8.5556e-08 -5.11545e-05
0.000904092 6.53999e-05 7.60587e-08
6.53999e-05 3.05496e-05 2.83356e-07
7.60587e-08 2.83356e-07 -4.30645e-05
0.000843672 3.15424e-05 2.44525e-07
3.15424e-05 3.40997e-05 -2.80591e-07
2.44525e-07 -2.80591e-07 -3.77025e-05
0.000847138 8.00298e-05 -7.03987e-08
8.00298e-05 -9.18799e-06 -1.69787e-07
-7.03987e-08 -1.69787e-07 -9.81721e-05
0.000701622 -5.51005e-05 1.80987e-06
-5.51005e-05 -2.62059e-05 4.40957e-06
1.80987e-06 4.40957e-06 -5.10959e-05
0.000760538 -4.04614e-05 2.61178e-06
-4.04614e-05 -1.36577e-05 3.86898e-06
2.61178e-06 3.86898e-06 -2.74766e-05
0.000770967 -6.06637e-06 2.50589e-06
-6.06637e-06 -1.06227e-05 2.33997e-06
2.50589e-06 2.33997e-06 -6.19204e-05
0.00109143 6.57658e-05 6.77053e-06
6.57658e-05 7.0813e-06 2.14789e-06
6.77053e-06 2.14789e-06 -7.7241e-05
0.00100656 7.44197e-05 4.76223e-06
7.44197e-05 5.25704e-05 2.14587e-06
4.76223e-06 2.14587e-06 -2.53819e-05
0.00123157 9.28111e-05 3.28311e-06
9.28111e-05 6.48357e-05 1.20565e-06
3.28311e-06 1.20565e-06 -3.54189e-05
0.000859541 2.19207e-05 2.89141e-06
2.19207e-05 4.05582e-05 2.0473e-06
2.89141e-06 2.0473e-06 -2.59533e-05
0.000930043 8.50448e-05 1.62191e-06
8.50448e-05 6.17079e-06 -1.05346e-07
1.62191e-06 -1.05346e-07 -8.27605e-05
0.00105444 8.47051e-05 2.20193e-06
8.47051e-05 0.0001242 1.21336e-07
2.20193e-06 1.21336e-07 3.39621e-05
0.00106001 9.73828e-05 -2.48231e-07
9.73828e-05 9.36136e-05 -1.45106e-06
-2.48231e-07 -1.45106e-06 -3.46416e-06
0.00224179 -4.88052e-05 2.81664e-05
-4.88052e-05 0.000772896 3.52654e-06
2.81664e-05 3.52654e-06 0.000787628
0.00232263 -5.50277e-05 6.18126e-07
-5.50277e-05 0.000822554 -7.8681e-08
6.18126e-07 -7.8681e-08 0.000835157
0.00242458 -6.16068e-05 -3.23161e-05
-6.16068e-05 0.000882991 -3.27381e-06
-3.23161e-05 -3.27381e-06 0.000893327
0.000689029 4.1879e-05 3.03143e-06
4.1879e-05 -4.73169e-05 -3.92636e-06
3.03143e-06 -3.92636e-06 -6.58828e-05
0.00267888 6.93042e-05 3.76062e-05
6.93042e-05 0.00101765 -3.2197e-06
3.76062e-05 -3.2197e-06 0.00102563
0.00439864 -8.14355e-06 -8.47633e-05
-8.14355e-06 0.00195886 -3.18511e-06
-8.47633e-05 -3.18511e-06 0.0019525
0.00464268 9.31086e-06 -9.24196e-05
9.31086e-06 0.00207512 -1.93009e-06
-9.24196e-05 -1.93009e-06 0.00206963
0.000704661 3.02063e-05 -1.17967e-05
3.02063e-05 -9.35974e-05 -2.77792e-06
-1.17967e-05 -2.77792e-06 -0.000143171
0.000733828 1.79823e-05 -1.23425e-05
1.79823e-05 -9.85968e-05 -1.60525e-06
-1.23425e-05 -1.60525e-06 -0.000153231
0.00502897 -2.44718e-05 -9.75652e-05
-2.44718e-05 0.00226478 -1.69785e-07
-9.75652e-05 -1.69785e-07 0.00225885
0.0051522 1.14947e-05 -1.22287e-06
1.14947e-05 0.00232506 4.71461e-07
-1.22287e-06 4.71461e-07 0.00231917
0.000764869 8.61159e-07 -6.98055e-08
8.61159e-07 -9.92648e-05 -3.45807e-07
-6.98055e-08 -3.45807e-07 -0.000156641
0.00157124 6.76027e-06 2.08028e-05
6.76027e-06 0.00035395 3.46299e-07
2.08028e-05 3.46299e-07 0.000307916
0.00124206 1.85684e-05 1.53252e-07
1.85684e-05 7.18418e-06 9.42014e-08
1.53252e-07 9.42014e-08 -8.19226e-05
0.00066562 4.10076e-05 5.4459e-08
4.10076e-05 -0.000102039 -7.36276e-08
5.4459e-08 -7.36276e-08 -0.000151449
0.00119334 4.53479e-05 2.08854e-08
4.53479e-05 1.51838e-05 -1.70059e-07
2.08854e-08 -1.70059e-07 -7.02893e-05
0.000749303 -6.25872e-06 1.28908e-05
-6.25872e-06 -0.000111473 -8.45105e-07
1.28908e-05 -8.45105e-07 -0.000169614
0.00129202 7.0659e-06 7.99035e-06
7.0659e-06 1.00286e-05 5.73182e-07
7.99035e-06 5.73182e-07 -8.33655e-05
0.00122376 2.90487e-05 7.54384e-06
2.90487e-05 1.62684e-05 1.37693e-06
7.54384e-06 1.37693e-06 -6.95987e-05
0.00150082 1.76719e-05 3.22722e-06
1.76719e-05 6.1575e-05 1.34293e-06
3.22722e-06 1.34293e-06 -4.15847e-05
0.00114896 5.52049e-05 7.28342e-06
5.52049e-05 8.44649e-06 1.87405e-06
7.28342e-06 1.87405e-06 -7.66018e-05
0.00143475 5.01746e-05 3.20083e-06
5.01746e-05 6.26361e-05 2.31609e-07
3.20083e-06 2.31609e-07 -3.59693e-05
0.00507412 1.83133e-05 -0.000107407
1.83133e-05 0.00228632 -7.71766e-07
-0.000107407 -7.71766e-07 0.00228061
0.00130929 -1.05254e-05 -1.43676e-05
-1.05254e-05 0.000322459 1.01839e-06
-1.43676e-05 1.01839e-06 0.000297597
1.95125e-05 4.11443e-07 -1.27253e-05
4.11443e-07 -0.000475494 2.3776e-06
-1.27253e-05 2.3776e-06 -0.000534198
0.00157339 -1.57024e-05 -4.61148e-05
-1.57024e-05 0.000358728 2.70312e-06
-4.61148e-05 2.70312e-06 0.000313688
0.0027427 9.45663e-05 -1.47811e-05
9.45663e-05 0.00107193 1.28657e-06
-1.47811e-05 1.28657e-06 0.00107136
0.00163617 1.59932e-05 -2.36766e-05
1.59932e-05 0.0004775 3.79301e-06
-2.36766e-05 3.79301e-06 0.000445056
0.00146727 -3.13911e-05 -4.14633e-05
-3.13911e-05 0.000336364 4.64265e-06
-4.14633e-05 4.64265e-06 0.000291612
0.00156278 -6.29926e-05 -1.32892e-05
-6.29926e-05 0.000222442 3.09193e-06
-1.32892e-05 3.09193e-06 0.000139104
0.00177559 -8.85962e-05 -8.47146e-06
-8.85962e-05 0.000416633 2.97956e-06
-8.47146e-06 2.97956e-06 0.000338966
0.00166506 -8.56546e-05 -6.92797e-06
-8.56546e-05 0.000431253 2.59382e-06
-6.92797e-06 2.59382e-06 0.000356624
0.00114133 -8.94224e-05 -1.99268e-06
-8.94224e-05 7.11886e-05 6.68525e-07
-1.99268e-06 6.68525e-07 -2.40485e-05
0.000759875 4.53725e-06 -5.00542e-08
4.53725e-06 -9.58676e-05 -2.33374e-07
-5.00542e-08 -2.33374e-07 -0.000152053
0.0015172 -1.09178e-05 -1.44432e-05
-1.09178e-05 0.000328532 9.53726e-08
-1.44432e-05 9.53726e-08 0.000282478
0.0012384 -3.4603e-06 -2.67043e-06
-3.4603e-06 1.56216e-05 6.57233e-08
-2.67043e-06 6.57233e-08 -7.0794e-05
0.0017851 -5.18692e-05 -2.14134e-06
-5.18692e-05 0.00032243 2.68775e-07
-2.14134e-06 2.68775e-07 0.000241766
0.002783 7.59427e-05 -6.01708e-07
7.59427e-05 0.00107888 -1.38606e-07
-6.01708e-07 -1.38606e-07 0.00108404
0.00112564 4.08113e-05 1.65319e-06
4.08113e-05 0.000204141 1.82804e-07
1.65319e-06 1.82804e-07 0.00017302
0.00109689 -4.68853e-05 1.16994e-07
-4.68853e-05 0.000164674 -8.34977e-08
1.16994e-07 -8.34977e-08 9.45626e-05
0.00144832 -7.35619e-05 -1.86274e-06
-7.35619e-05 0.000200666 2.23109e-07
-1.86274e-06 2.23109e-07 0.000118712
0.00151 -7.54181e-05 -1.69562e-06
-7.54181e-05 0.00011386 4.64095e-07
-1.69562e-06 4.64095e-07 1.32659e-05
0.00100634 -8.84589e-05 -3.13678e-07
-8.84589e-05 4.76979e-05 -1.39135e-07
-3.13678e-07 -1.39135e-07 -4.75234e-05
0.001404 -9.23797e-05 6.03829e-08
-9.23797e-05 0.000161731 3.54201e-09
6.03829e-08 3.54201e-09 6.5675e-05
0.00123567 -9.96502e-05 1.1034e-07
-9.96502e-05 8.33735e-05 1.26381e-07
1.1034e-07 1.26381e-07 -2.03399e-05
0.000664809 5.35366e-05 -1.99586e-07
5.35366e-05 -4.99476e-05 3.92189e-08
-1.99586e-07 3.92189e-08 -7.50458e-05
0.000799633 2.727e-05 -2.99505e-07
2.727e-05 -1.12684e-06 1.11205e-07
-2.99505e-07 1.11205e-07 -5.34005e-05
0.0012661 -2.28657e-06 7.4963e-06
-2.28657e-06 3.83531e-06 -1.65722e-06
7.4963e-06 -1.65722e-06 -8.79742e-05
0.00155404 -2.07195e-05 6.97835e-06
-2.07195e-05 0.000197181 -1.11332e-06
6.97835e-06 -1.11332e-06 0.000116722
0.00185752 -7.59091e-06 2.2324e-06
-7.59091e-06 0.000262227 -5.6868e-07
2.2324e-06 -5.6868e-07 0.000164183
0.00127096 -5.08497e-05 4.06171e-06
-5.08497e-05 -3.54085e-05 -4.16292e-07
4.06171e-06 -4.16292e-07 -0.000134697
0.00145349 -8.93658e-05 2.49589e-06
-8.93658e-05 0.000137394 -1.08856e-06
2.49589e-06 -1.08856e-06 3.89458e-05
0.00176931 -8.07337e-05 1.4733e-07
-8.07337e-05 0.00020086 1.54248e-07
1.4733e-07 1.54248e-07 9.80304e-05
0.000590753 5.80595e-05 1.94667e-06
5.80595e-05 -8.20434e-05 -4.60545e-06
1.94667e-06 -4.60545e-06 -0.000112428
0.00132477 -9.6888e-05 6.49676e-07
-9.6888e-05 7.49432e-05 -6.94536e-07
6.49676e-07 -6.94536e-07 -2.92378e-05
0.000721652 -1.60867e-05 2.01512e-06
-1.60867e-05 -2.68377e-05 -1.00955e-06
2.01512e-06 -1.00955e-06 -9.53124e-05
0.000650949 -7.15172e-05 1.83406e-06
-7.15172e-05 -9.58981e-05 -1.25132e-06
1.83406e-06 -1.25132e-06 -0.00018633
0.00166266 -0.000123585 6.25109e-07
-0.000123585 0.000355931 3.2404e-08
6.25109e-07 3.2404e-08 0.000249937
0.00148559 -0.000111848 -6.16115e-07
-0.000111848 0.000182057 9.32807e-07
-6.16115e-07 9.32807e-07 7.58647e-05
0.000863096 2.87998e-06 1.85697e-06
2.87998e-06 3.68307e-05 -2.27411e-06
1.85697e-06 -2.27411e-06 -2.43203e-05
0.000814276 3.54627e-05 8.69199e-07
3.54627e-05 3.39415e-06 -1.93139e-06
8.69199e-07 -1.93139e-06 -4.12142e-05
0.000884244 -2.78545e-05 6.14612e-07
-2.78545e-05 4.20978e-05 -8.03131e-07
6.14612e-07 -8.03131e-07 -3.45297e-05
0.000624107 5.35664e-05 -1.07107e-05
5.35664e-05 -0.00010487 -4.898e-06
-1.07107e-05 -4.898e-06 -0.000155333
0.0025994 -6.87705e-05 -3.6701e-05
-6.87705e-05 0.000980902 -3.19275e-06
-3.6701e-05 -3.19275e-06 0.000988628
0.0006872 -4.2487e-05 -3.1182e-06
-4.2487e-05 -4.45314e-05 -3.92283e-06
-3.1182e-06 -3.92283e-06 -6.23177e-05
0.000575666 4.10899e-05 -7.98646e-06
4.10899e-05 -8.63582e-05 -5.2531e-06
-7.98646e-06 -5.2531e-06 -0.000134155
0.00100183 7.31812e-05 -5.69009e-06
7.31812e-05 5.94087e-06 -2.6559e-06
-5.69009e-06 -2.6559e-06 -7.60143e-05
0.000588546 -5.74066e-05 -1.90419e-06
-5.74066e-05 -7.95502e-05 -4.77628e-06
-1.90419e-06 -4.77628e-06 -0.000109922
0.000760797 2.64887e-05 -2.33447e-06
2.64887e-05 -9.06003e-06 -1.91023e-06
-2.33447e-06 -1.91023e-06 -8.0325e-05
0.000862051 6.24165e-05 -3.64446e-06
6.24165e-05 8.91907e-06 -7.70206e-07
-3.64446e-06 -7.70206e-07 -6.43256e-05
0.000799354 7.79718e-05 -2.50068e-06
7.79718e-05 -3.49891e-05 2.21615e-07
-2.50068e-06 2.21615e-07 -0.000124186
0.00066876 -5.32133e-05 1.78871e-07
-5.32133e-05 -4.47452e-05 6.55392e-08
1.78871e-07 6.55392e-08 -6.90056e-05
0.000737463 -3.8393e-05 8.80028e-09
-3.8393e-05 -2.59295e-05 7.98926e-08
8.80028e-09 7.98926e-08 -3.93435e-05
0.000799557 -2.77903e-05 1.20922e-07
-2.77903e-05 2.60941e-06 1.29376e-07
1.20922e-07 1.29376e-07 -4.74018e-05
0.00110017 6.69611e-05 3.46503e-07
6.69611e-05 1.23614e-05 -1.57282e-07
3.46503e-07 -1.57282e-07 -7.20596e-05
0.000952119 7.21508e-05 2.53984e-07
7.21508e-05 2.5534e-05 2.02195e-07
2.53984e-07 2.02195e-07 -5.20663e-05
0.0012195 9.30188e-05 2.15583e-07
9.30188e-05 5.92985e-05 6.8215e-08
2.15583e-07 6.8215e-08 -4.10514e-05
0.000828799 1.88249e-05 -2.917e-07
1.88249e-05 2.69814e-05 4.46358e-10
-2.917e-07 4.46358e-10 -3.9711e-05
0.00105006 9.01572e-05 -9.24143e-08
9.01572e-05 6.9192e-05 -9.86671e-08
-9.24143e-08 -9.86671e-08 -1.96504e-05
0.00101518 8.30038e-05 2.34262e-07
8.30038e-05 0.000103868 -3.18357e-07
2.34262e-07 -3.18357e-07 1.37423e-05
0.000943217 9.30371e-05 -6.53843e-07
9.30371e-05 3.31769e-05 3.62822e-07
-6.53843e-07 3.62822e-07 -6.42506e-05
0.00077466 -3.43324e-05 2.75916e-06
-3.43324e-05 -1.49415e-05 3.56089e-06
2.75916e-06 3.56089e-06 -2.47339e-05
0.000793945 -2.04785e-06 2.82034e-06
-2.04785e-06 5.89898e-07 1.8749e-06
2.82034e-06 1.8749e-06 -5.76968e-05
0.000781978 -2.94969e-05 1.20518e-06
-2.94969e-05 -9.787e-06 2.40072e-06
1.20518e-06 2.40072e-06 -5.21545e-05
0.000899393 1.98277e-05 1.09357e-06
1.98277e-05 5.29552e-05 9.45474e-07
1.09357e-06 9.45474e-07 -1.93992e-05
0.00130519 8.08884e-05 4.12002e-06
8.08884e-05 4.96324e-05 7.44997e-07
4.12002e-06 7.44997e-07 -5.1319e-05
0.00115641 9.56577e-05 2.44057e-06
9.56577e-05 8.53468e-05 1.20637e-06
2.44057e-06 1.20637e-06 -9.4497e-06
0.00132228 0.000101609 1.47917e-06
0.000101609 7.29112e-05 1.16412e-06
1.47917e-06 1.16412e-06 -3.56222e-05
0.00105849 5.78984e-05 2.01529e-06
5.78984e-05 0.00013365 9.86734e-07
2.01529e-06 9.86734e-07 4.90833e-05
0.0011522 0.000101039 3.2245e-07
0.000101039 0.000101357 -4.01617e-07
3.2245e-07 -4.01617e-07 5.65549e-06
0.00104594 9.65831e-05 1.07918e-06
9.65831e-05 0.000121659 -1.11428e-06
1.07918e-06 -1.11428e-06 1.74599e-05
0.000780557 8.78285e-05 6.59281e-07
8.78285e-05 -6.82523e-05 -1.32537e-06
6.59281e-07 -1.32537e-06 -0.000169086
0.000841064 -1.62257e-05 9.62252e-07
-1.62257e-05 4.26055e-06 1.77086e-06
9.62252e-07 1.77086e-06 -2.42791e-05
0.00078236 -2.61765e-05 1.91626e-06
-2.61765e-05 -2.37408e-05 3.44358e-06
1.91626e-06 3.44358e-06 -2.85876e-05
0.0021819 -4.32247e-05 2.48456e-05
-4.32247e-05 0.00073335 3.6373e-06
2.48456e-05 3.6373e-06 0.000750133
0.00223032 -4.89978e-05 7.81162e-07
-4.89978e-05 0.000765727 -7.74425e-08
7.81162e-07 -7.74425e-08 0.000780691
0.00229321 -5.49355e-05 -2.89678e-05
-5.49355e-05 0.000806127 -3.37751e-06
-2.89678e-05 -3.37751e-06 0.000819065
0.000716987 3.6209e-05 2.98929e-06
3.6209e-05 -4.05283e-05 -3.53773e-06
2.98929e-06 -3.53773e-06 -5.45138e-05
0.00250642 6.24956e-05 3.29301e-05
6.24956e-05 0.000921745 -3.30373e-06
3.29301e-05 -3.30373e-06 0.000932155
0.000708346 4.55307e-05 -2.30664e-07
4.55307e-05 -3.58818e-05 4.35073e-08
-2.30664e-07 4.35073e-08 -5.52488e-05
0.00269379 6.88125e-05 -5.46077e-07
6.88125e-05 0.00102564 -1.17473e-07
-5.46077e-07 -1.17473e-07 0.00103345
0.000662336 4.45677e-05 -1.13583e-05
4.45677e-05 -0.000103848 -3.82053e-06
-1.13583e-05 -3.82053e-06 -0.000153531
0.000740775 2.73775e-05 -1.20924e-05
2.73775e-05 -8.28741e-05 -2.02445e-06
-1.20924e-05 -2.02445e-06 -0.000134534
0.00117635 4.58068e-05 -7.44451e-06
4.58068e-05 7.21302e-06 -1.63852e-06
-7.44451e-06 -1.63852e-06 -7.84336e-05
0.00123439 2.01667e-05 -7.43074e-06
2.01667e-05 3.94587e-06 -1.40228e-06
-7.43074e-06 -1.40228e-06 -8.51764e-05
0.000751613 4.98952e-06 -1.28753e-05
4.98952e-06 -0.000105138 -1.04799e-06
-1.28753e-05 -1.04799e-06 -0.000162401
0.00517979 -1.8128e-05 -0.000104726
-1.8128e-05 0.00233873 7.47678e-07
-0.000104726 7.47678e-07 0.00233307
0.000767879 -6.57107e-07 7.84581e-08
-6.57107e-07 -0.000102299 -4.04706e-07
7.84581e-08 -4.04706e-07 -0.000160416
0.0012901 1.09481e-05 7.51927e-08
1.09481e-05 9.22712e-06 -4.03959e-07
7.51927e-08 -4.03959e-07 -8.40872e-05
0.00120705 2.91223e-05 -4.21358e-08
2.91223e-05 8.52235e-06 3.59539e-08
-4.21358e-08 3.59539e-08 -7.74864e-05
0.00151493 1.72544e-05 1.00657e-07
1.72544e-05 6.90125e-05 1.5233e-07
1.00657e-07 1.5233e-07 -3.4136e-05
0.00115385 5.7098e-05 1.89801e-07
5.7098e-05 1.20826e-05 -1.27467e-07
1.89801e-07 -1.27467e-07 -7.32397e-05
0.00144336 5.25708e-05 2.01788e-08
5.25708e-05 6.70166e-05 -5.94999e-08
2.01788e-08 -5.94999e-08 -3.17273e-05
0.00129889 2.76499e-07 7.92329e-06
2.76499e-07 7.53789e-06 -9.64812e-07
7.92329e-06 -9.64812e-07 -8.66508e-05
0.00155457 1.42174e-05 3.58479e-06
1.42174e-05 6.39208e-05 6.39665e-07
3.58479e-06 6.39665e-07 -4.43287e-05
0.00147641 3.32046e-05 3.21883e-06
3.32046e-05 6.80628e-05 6.94476e-07
3.21883e-06 6.94476e-07 -3.12296e-05
0.00163308 1.36723e-05 9.20923e-07
1.36723e-05 9.25409e-05 1.09264e-06
9.20923e-07 1.09264e-06 -1.22407e-05
0.00137393 6.73089e-05 3.19818e-06
6.73089e-05 5.2448e-05 2.30409e-07
3.19818e-06 2.30409e-07 -4.72641e-05
0.00155669 5.4368e-05 7.68062e-07
5.4368e-05 7.87418e-05 -2.62783e-07
7.68062e-07 -2.62783e-07 -2.15309e-05
0.000777811 8.38796e-06 -1.24324e-05
8.38796e-06 -8.79168e-05 1.05274e-06
-1.24324e-05 1.05274e-06 -0.000144296
0.00158521 1.38591e-07 -4.71442e-05
1.38591e-07 0.000361997 1.74098e-06
-4.71442e-05 1.74098e-06 0.000317088
0.000849701 -2.12351e-06 -8.09464e-06
-2.12351e-06 -0.000188189 1.63779e-06
-8.09464e-06 1.63779e-06 -0.000276911
0.00198645 -5.28122e-05 -1.2212e-05
-5.28122e-05 0.000428171 1.92175e-06
-1.2212e-05 1.92175e-06 0.000348608
0.00276954 7.53666e-05 -4.24548e-05
7.53666e-05 0.00107323 3.27859e-06
-4.24548e-05 3.27859e-06 0.00107802
0.00161085 4.25845e-05 -2.12362e-05
4.25845e-05 0.000461505 3.10197e-06
-2.12362e-05 3.10197e-06 0.000432261
0.00148697 -5.85896e-05 -4.89637e-06
-5.85896e-05 0.000365505 1.63906e-06
-4.89637e-06 1.63906e-06 0.000295654
0.00145866 -7.32542e-05 -1.01437e-05
-7.32542e-05 0.000207626 3.24939e-06
-1.01437e-05 3.24939e-06 0.000125648
0.00119455 -6.84827e-05 -4.60941e-06
-6.84827e-05 -5.2565e-05 1.18044e-06
-4.60941e-06 1.18044e-06 -0.000154423
0.0016536 -9.85177e-05 -3.1669e-06
-9.85177e-05 0.000289303 1.24086e-06
-3.1669e-06 1.24086e-06 0.000193735
0.000789278 -7.93036e-05 -1.90251e-06
-7.93036e-05 -6.29506e-05 5.53985e-07
-1.90251e-06 5.53985e-07 -0.000157834
0.00122295 -9.86704e-05 -4.09622e-07
-9.86704e-05 7.68883e-05 2.98779e-07
-4.09622e-07 2.98779e-07 -2.66049e-05
0.000692295 5.56209e-05 -1.71102e-06
5.56209e-05 -3.3775e-05 4.41442e-06
-1.71102e-06 4.41442e-06 -5.95616e-05
0.000770195 1.85725e-05 -1.96076e-06
1.85725e-05 -1.68129e-05 2.08279e-06
-1.96076e-06 2.08279e-06 -6.91691e-05
0.00109069 1.34224e-06 -3.56083e-07
1.34224e-06 -8.69384e-05 -9.00969e-08
-3.56083e-07 -9.00969e-08 -0.000179642
0.00158979 -2.30951e-05 -2.31456e-06
-2.30951e-05 0.000214806 2.79346e-07
-2.31456e-06 2.79346e-07 0.000134296
0.00176171 -5.0723e-06 -1.71764e-06
-5.0723e-06 0.000209954 3.55787e-07
-1.71764e-06 3.55787e-07 0.000111159
0.00156025 -5.46253e-05 8.64061e-07
-5.46253e-05 0.000117967 -2.52937e-07
8.64061e-07 -2.52937e-07 2.00419e-05
0.000650576 5.83839e-05 -2.4773e-07
5.83839e-05 -4.99966e-05 4.2394e-08
-2.4773e-07 4.2394e-08 -8.06677e-05
0.000834015 -2.68865e-05 -4.55443e-08
-2.68865e-05 3.04991e-05 -1.04138e-07
-4.55443e-08 -1.04138e-07 -3.80656e-05
0.000767057 -7.64292e-05 7.20524e-07
-7.64292e-05 -3.47807e-05 -5.64768e-07
7.20524e-07 -5.64768e-07 -0.000124315
0.00162096 -9.26925e-05 -7.17911e-07
-9.26925e-05 0.000222615 1.13061e-07
-7.17911e-07 1.13061e-07 0.000123992
0.00158991 -7.57913e-05 -5.16367e-07
-7.57913e-05 0.000105556 5.34465e-07
-5.16367e-07 5.34465e-07 2.87086e-06
0.00136827 -0.000111581 -9.4292e-07
-0.000111581 0.000203867 4.35265e-07
-9.4292e-07 4.35265e-07 9.72423e-05
0.00132685 -9.64739e-05 -1.26553e-08
-9.64739e-05 7.57733e-05 1.15105e-07
-1.26553e-08 1.15105e-07 -2.83501e-05
0.00130751 -0.000105095 3.59534e-07
-0.000105095 9.1883e-05 6.12275e-07
3.59534e-07 6.12275e-07 -1.38623e-05
0.000818285 -6.58142e-07 -2.59071e-07
-6.58142e-07 1.19298e-05 -6.45774e-08
-2.59071e-07 -6.45774e-08 -4.88389e-05
0.000855195 -1.00269e-05 -4.03875e-07
-1.00269e-05 2.31683e-05 -2.39651e-07
-4.03875e-07 -2.39651e-07 -5.11508e-05
0.000799363 3.36371e-05 -1.74986e-08
3.36371e-05 -4.563e-06 2.09854e-07
-1.74986e-08 2.09854e-07 -4.91865e-05
0.00188477 4.64747e-06 2.24046e-06
4.64747e-06 0.00025208 -8.60362e-07
2.24046e-06 -8.60362e-07 0.000149013
0.00163447 -2.55533e-05 3.14355e-06
-2.55533e-05 0.000155737 -4.59311e-07
3.14355e-06 -4.59311e-07 5.99648e-05
0.0018022 -3.45861e-06 6.57617e-07
-3.45861e-06 0.000190578 -1.46146e-07
6.57617e-07 -1.46146e-07 8.58005e-05
0.00161453 -4.83507e-05 1.10684e-06
-4.83507e-05 9.41399e-05 -6.28897e-08
1.10684e-06 -6.28897e-08 -6.42009e-06
0.00121237 -8.76619e-05 1.30409e-06
-8.76619e-05 -3.98105e-05 -8.56497e-07
1.30409e-06 -8.56497e-07 -0.000144517
0.00169878 -7.2691e-05 -1.50057e-06
-7.2691e-05 0.000129117 9.03973e-07
-1.50057e-06 9.03973e-07 3.10899e-05
0.000824666 -1.3774e-05 2.50321e-06
-1.3774e-05 2.35354e-05 -1.58746e-06
2.50321e-06 -1.58746e-06 -4.32424e-05
0.00136964 -0.000100751 -1.22185e-06
-0.000100751 6.92187e-05 -4.26829e-07
-1.22185e-06 -4.26829e-07 -3.575e-05
0.000931418 -7.80181e-05 1.07945e-06
-7.80181e-05 6.24826e-05 2.31261e-07
1.07945e-06 2.31261e-07 -2.09552e-05
0.000755187 -8.71383e-05 1.50425e-06
-8.71383e-05 -5.64556e-05 -1.73425e-06
1.50425e-06 -1.73425e-06 -0.000160149
0.00149452 -0.000122148 1.22773e-06
-0.000122148 0.000243028 7.03658e-07
1.22773e-06 7.03658e-07 0.0001296
0.0018312 -0.000125248 -2.27175e-06
-0.000125248 0.000341952 2.40692e-06
-2.27175e-06 2.40692e-06 0.000239787
0.000816604 3.07222e-05 1.34376e-06
3.07222e-05 -1.16773e-06 -1.62078e-06
1.34376e-06 -1.62078e-06 -3.98158e-05
0.000918101 -3.76318e-05 1.27372e-06
-3.76318e-05 5.40534e-05 4.79654e-08
1.27372e-06 4.79654e-08 -2.3281e-05
0.000788829 -4.94475e-06 7.59523e-07
-4.94475e-06 -1.23899e-05 -1.46393e-06
7.59523e-07 -1.46393e-06 -8.18795e-05
0.00100218 -7.28495e-05 -3.99009e-08
-7.28495e-05 0.000108851 9.53066e-07
-3.99009e-08 9.53066e-07 2.27799e-05
0.0011027 6.82742e-05 -7.00076e-06
6.82742e-05 1.45196e-05 -2.5488e-06
-7.00076e-06 -2.5488e-06 -7.00254e-05
0.000712041 -3.66944e-05 -3.0411e-06
-3.66944e-05 -3.9351e-05 -3.62593e-06
-3.0411e-06 -3.62593e-06 -5.24012e-05
0.00064384 -5.06913e-05 -2.86832e-06
-5.06913e-05 -5.94895e-05 -4.3056e-06
-2.86832e-06 -4.3056e-06 -8.29902e-05
0.000812149 -3.4024e-05 -1.10284e-06
-3.4024e-05 9.63621e-06 -2.5495e-06
-1.10284e-06 -2.5495e-06 -4.05863e-05
0.000902541 7.00449e-05 -4.12228e-06
7.00449e-05 1.24742e-06 -1.83008e-06
-4.12228e-06 -1.83008e-06 -7.6048e-05
0.00121216 9.33553e-05 -3.21796e-06
9.33553e-05 5.61745e-05 -1.16463e-06
-3.21796e-06 -1.16463e-06 -4.4277e-05
0.000807128 1.43528e-05 -2.54364e-06
1.43528e-05 1.80871e-05 -1.91178e-06
-2.54364e-06 -1.91178e-06 -4.88112e-05
0.000981623 8.13827e-05 -2.20041e-06
8.13827e-05 8.65969e-05 -9.98981e-07
-2.20041e-06 -9.98981e-07 -3.4447e-06
0.00116229 9.4952e-05 -1.82476e-06
9.4952e-05 0.000128238 -2.40029e-08
-1.82476e-06 -2.40029e-08 3.95066e-05
0.000820848 8.84341e-05 -2.26242e-06
8.84341e-05 -3.01053e-05 9.97123e-07
-2.26242e-06 9.97123e-07 -0.000127865
0.000752633 -3.33789e-05 9.91197e-08
-3.33789e-05 -2.62047e-05 2.96789e-08
9.91197e-08 2.96789e-08 -3.58525e-05
0.00081409 5.02044e-06 2.32416e-08
5.02044e-06 1.36878e-05 -3.07141e-08
2.32416e-08 -3.07141e-08 -4.56777e-05
0.000799386 -3.32121e-05 -8.13351e-08
-3.32121e-05 -6.97439e-07 1.97481e-07
-8.13351e-08 1.97481e-07 -4.30772e-05
0.000913503 1.20983e-05 2.26567e-07
1.20983e-05 5.96604e-05 -2.14708e-07
2.26567e-07 -2.14708e-07 -1.2156e-05
0.0013192 8.18878e-05 8.0776e-07
8.18878e-05 5.69348e-05 2.40479e-07
8.0776e-07 2.40479e-07 -4.4252e-05
0.00111577 9.47035e-05 9.14169e-08
9.47035e-05 6.59574e-05 4.87523e-08
9.14169e-08 4.87523e-08 -2.87948e-05
0.00132278 0.000101752 -1.918e-08
0.000101752 7.32862e-05 4.49085e-07
-1.918e-08 4.49085e-07 -3.52093e-05
0.000992878 5.84085e-05 2.49654e-07
5.84085e-05 0.000100308 2.25675e-07
2.49654e-07 2.25675e-07 1.63916e-05
0.00130622 0.000107294 -4.88871e-07
0.000107294 0.000182098 -8.41388e-07
-4.88871e-07 -8.41388e-07 8.64516e-05
0.0010645 9.78121e-05 2.43773e-07
9.78121e-05 0.000130514 -6.62983e-07
2.43773e-07 -6.62983e-07 2.5807e-05
0.00089646 9.27623e-05 -1.67236e-06
9.27623e-05 -3.92883e-06 1.26029e-08
-1.67236e-06 1.26029e-08 -0.000103102
0.000783385 -3.00888e-05 2.36366e-06
-3.00888e-05 -1.72607e-05 3.47788e-06
2.36366e-06 3.47788e-06 -2.42681e-05
0.000804118 -3.06609e-05 1.0927e-06
-3.06609e-05 -3.48844e-06 2.14853e-06
1.0927e-06 2.14853e-06 -4.01922e-05
0.000992062 3.0506e-05 1.56225e-06
3.0506e-05 9.79168e-05 6.1786e-07
1.56225e-06 6.1786e-07 2.04056e-05
0.000876612 2.60367e-06 8.15132e-07
2.60367e-06 3.70652e-05 1.47092e-06
8.15132e-07 1.47092e-06 -2.68518e-05
0.000971015 6.19273e-05 1.18981e-06
6.19273e-05 9.76495e-05 4.71263e-08
1.18981e-06 4.71263e-08 1.22294e-05
0.00141947 8.54932e-05 2.28295e-06
8.54932e-05 6.35986e-05 4.7504e-08
2.28295e-06 4.7504e-08 -4.3146e-05
0.0011931 0.000103883 8.7402e-07
0.000103883 7.61232e-05 1.16125e-06
8.7402e-07 1.16125e-06 -2.65615e-05
0.00143659 0.000108846 -5.57955e-07
0.000108846 0.000107591 8.12184e-07
-5.57955e-07 8.12184e-07 -3.31008e-06
0.00109755 9.47811e-05 2.63315e-06
9.47811e-05 0.000163146 2.20572e-06
2.63315e-06 2.20572e-06 6.19928e-05
0.00117296 0.000106612 1.8244e-06
0.000106612 9.60122e-05 -2.97148e-07
1.8244e-06 -2.97148e-07 -3.22345e-06
0.000528721 7.78248e-05 2.02532e-06
7.78248e-05 -0.000164183 -1.70648e-06
2.02532e-06 -1.70648e-06 -0.00027838
0.000834927 -2.01343e-05 1.13014e-06
-2.01343e-05 4.39859e-06 1.87041e-06
1.13014e-06 1.87041e-06 -2.61404e-05
0.000863272 5.74457e-06 3.66738e-07
5.74457e-06 2.458e-05 8.64548e-07
3.66738e-07 8.64548e-07 -2.22496e-05
0.000852471 -1.13081e-05 7.46354e-07
-1.13081e-05 7.33856e-06 1.79498e-06
7.46354e-07 1.79498e-06 -1.96807e-05
0.000842125 -1.4657e-05 1.29092e-07
-1.4657e-05 5.45586e-06 4.27805e-09
1.29092e-07 4.27805e-09 -2.31996e-05
0.00133145 -2.80964e-05 2.01957e-06
-2.80964e-05 0.000263469 2.07178e-06
2.01957e-06 2.07178e-06 0.000263577
0.00105365 -2.86813e-05 7.94919e-07
-2.86813e-05 0.000120982 -3.15173e-08
7.94919e-07 -3.15173e-08 0.000117733
0.00102324 -2.57477e-05 2.0465e-05
-2.57477e-05 0.000107756 6.36098e-06
2.0465e-05 6.36098e-06 0.000120611
0.00217568 -4.33409e-05 9.35452e-07
-4.33409e-05 0.00072897 -7.16286e-08
9.35452e-07 -7.16286e-08 0.000745962
0.00221725 -4.9027e-05 -2.59466e-05
-4.9027e-05 0.000757719 -3.49718e-06
-2.59466e-05 -3.49718e-06 0.000772942
0.000733254 3.2346e-05 2.60955e-06
3.2346e-05 -3.95298e-05 -3.41053e-06
2.60955e-06 -3.41053e-06 -5.02271e-05
0.00237834 5.60922e-05 2.94386e-05
5.60922e-05 0.000847329 -3.41347e-06
2.94386e-05 -3.41347e-06 0.00086015
0.000738785 3.78088e-05 -1.8139e-08
3.78088e-05 -2.89812e-05 7.15768e-08
-1.8139e-08 7.15768e-08 -4.33157e-05
0.0025438 6.21157e-05 -7.52906e-07
6.21157e-05 0.000941654 -1.01206e-07
-7.52906e-07 -1.01206e-07 0.000951845
0.000728655 4.85238e-05 -1.85008e-06
4.85238e-05 -2.39381e-05 4.23648e-06
-1.85008e-06 4.23648e-06 -4.40755e-05
0.0027026 6.84703e-05 -4.04239e-05
6.84703e-05 0.00103048 3.35815e-06
-4.04239e-05 3.35815e-06 0.0010381
0.00116366 5.90984e-05 -7.50021e-06
5.90984e-05 1.80863e-05 -2.10322e-06
-7.50021e-06 -2.10322e-06 -6.74881e-05
0.00120169 3.22157e-05 -7.32172e-06
3.22157e-05 6.37576e-06 -1.19889e-06
-7.32172e-06 -1.19889e-06 -7.98061e-05
0.00144477 5.09306e-05 -3.22e-06
5.09306e-05 6.78077e-05 -3.51028e-07
-3.22e-06 -3.51028e-07 -3.09228e-05
0.00152978 1.70949e-05 -3.22898e-06
1.70949e-05 7.67903e-05 -1.00835e-06
-3.22898e-06 -1.00835e-06 -2.63436e-05
0.00128281 1.35507e-05 -7.90402e-06
1.35507e-05 5.78798e-06 -1.41366e-06
-7.90402e-06 -1.41366e-06 -8.74894e-05
0.000782712 4.31857e-06 -1.29527e-05
4.31857e-06 -9.47781e-05 4.1255e-08
-1.29527e-05 4.1255e-08 -0.000152997
0.0012977 2.08425e-06 -1.88911e-08
2.08425e-06 6.77835e-06 -4.41009e-07
-1.88911e-08 -4.41009e-07 -8.74992e-05
0.00156391 1.59736e-05 2.37683e-08
1.59736e-05 6.88051e-05 -3.58082e-07
2.37683e-08 -3.58082e-07 -3.93842e-05
0.0014752 3.01401e-05 8.41191e-08
3.01401e-05 6.79073e-05 1.36064e-07
8.41191e-08 1.36064e-07 -3.13128e-05
0.0016045 1.28816e-05 -2.79719e-08
1.28816e-05 7.49977e-05 1.94867e-07
-2.79719e-08 1.94867e-07 -3.04433e-05
0.00139158 6.8021e-05 -8.01162e-08
6.8021e-05 6.10514e-05 -3.83531e-08
-8.01162e-08 -3.83531e-08 -3.87616e-05
0.00156783 5.4059e-05 -3.43869e-08
5.4059e-05 8.46583e-05 6.65624e-08
-3.43869e-08 6.65624e-08 -1.55978e-05
0.0015702 6.90513e-06 3.86716e-06
6.90513e-06 6.48347e-05 -1.11954e-06
3.86716e-06 -1.11954e-06 -4.4316e-05
0.00162899 1.28898e-05 8.39673e-07
1.28898e-05 6.42943e-05 1.34123e-06
8.39673e-07 1.34123e-06 -4.72718e-05
0.00158511 3.29507e-05 9.62873e-07
3.29507e-05 7.80038e-05 3.44712e-07
9.62873e-07 3.44712e-07 -2.32109e-05
0.00181474 8.45189e-06 -6.75565e-09
8.45189e-06 0.000164835 4.66817e-07
-6.75565e-09 4.66817e-07 6.04883e-05
0.00150007 6.78095e-05 5.88274e-07
6.78095e-05 7.16624e-05 -7.00433e-07
5.88274e-07 -7.00433e-07 -3.0806e-05
0.0016506 4.44475e-05 -1.65001e-06
4.44475e-05 9.66408e-05 1.07033e-07
-1.65001e-06 1.07033e-07 3.0075e-06
0.000918571 2.97107e-06 -7.57703e-06
2.97107e-06 -0.000175944 1.28196e-06
-7.57703e-06 1.28196e-06 -0.000269574
0.00161722 -2.73591e-05 -1.17573e-05
-2.73591e-05 0.000227803 1.45589e-06
-1.17573e-05 1.45589e-06 0.000147325
0.00167157 1.25201e-06 -5.27187e-06
1.25201e-06 0.00016053 1.39899e-06
-5.27187e-06 1.39899e-06 6.1042e-05
0.00185148 -5.85469e-05 -3.48655e-06
-5.85469e-05 0.000272327 1.39185e-07
-3.48655e-06 1.39185e-07 0.00017576
0.000691032 4.41569e-05 -3.74423e-06
4.41569e-05 -3.05875e-05 4.15963e-06
-3.74423e-06 4.15963e-06 -5.99165e-05
0.000893258 -2.99521e-05 -2.84896e-06
-2.99521e-05 6.1041e-05 1.33574e-06
-2.84896e-06 1.33574e-06 -7.89018e-06
0.000892535 -8.1963e-05 -6.8851e-07
-8.1963e-05 3.08199e-05 7.95835e-08
-6.8851e-07 7.95835e-08 -5.78387e-05
0.00179307 -9.61664e-05 -4.24864e-06
-9.61664e-05 0.000310274 1.60786e-06
-4.24864e-06 1.60786e-06 0.000211459
0.00140735 -7.076e-05 -1.42375e-06
-7.076e-05 8.62125e-06 3.97989e-07
-1.42375e-06 3.97989e-07 -9.39138e-05
0.00132845 -9.60606e-05 -7.24266e-07
-9.60606e-05 7.63738e-05 9.46338e-07
-7.24266e-07 9.46338e-07 -2.76944e-05
0.00107084 -9.94837e-05 -1.38376e-06
-9.94837e-05 5.02036e-05 7.57352e-07
-1.38376e-06 7.57352e-07 -5.70401e-05
0.00112093 -9.79941e-05 1.79385e-06
-9.79941e-05 -2.62148e-06 -4.16513e-07
1.79385e-06 -4.16513e-07 -0.000107896
0.000787118 2.24265e-06 -2.63968e-06
2.24265e-06 -5.98341e-06 1.70859e-06
-2.63968e-06 1.70859e-06 -6.62283e-05
0.000836414 -6.95575e-06 -1.19595e-06
-6.95575e-06 1.26475e-05 2.96376e-07
-1.19595e-06 2.96376e-07 -6.13367e-05
0.000784293 3.28615e-05 -9.51509e-07
3.28615e-05 -1.23513e-05 2.10517e-06
-9.51509e-07 2.10517e-06 -5.71087e-05
0.00174182 5.35667e-06 -1.77807e-06
5.35667e-06 0.000173964 4.72685e-07
-1.77807e-06 4.72685e-07 6.93257e-05
0.00163131 -3.05326e-05 -8.18816e-07
-3.05326e-05 0.000152452 1.01252e-07
-8.18816e-07 1.01252e-07 5.68564e-05
0.00166628 -9.20404e-07 -6.8661e-07
-9.20404e-07 0.000118758 5.07519e-07
-6.8661e-07 5.07519e-07 1.35885e-05
0.00170235 -4.70252e-05 2.56777e-07
-4.70252e-05 0.000140808 -2.27193e-07
2.56777e-07 -2.27193e-07 4.05592e-05
0.000827381 -1.69671e-05 1.70135e-07
-1.69671e-05 2.27592e-05 -2.00899e-07
1.70135e-07 -2.00899e-07 -4.35609e-05
0.0010125 -8.20744e-05 -1.24362e-07
-8.20744e-05 0.000102665 2.66606e-07
-1.24362e-07 2.66606e-07 1.88414e-05
0.00084282 -8.99174e-05 5.40176e-07
-8.99174e-05 -7.89541e-06 -8.06782e-07
5.40176e-07 -8.06782e-07 -0.000110396
0.00145112 -9.31587e-05 2.00448e-07
-9.31587e-05 8.64704e-05 -5.5807e-07
2.00448e-07 -5.5807e-07 -1.80628e-05
0.00161137 -7.07208e-05 2.88381e-07
-7.07208e-05 8.06993e-05 9.39373e-07
2.88381e-07 9.39373e-07 -1.63324e-05
0.00123679 -0.000112085 1.73314e-09
-0.000112085 0.000113121 1.88005e-07
1.73314e-09 1.88005e-07 -1.04087e-06
0.00137724 -9.9769e-05 -1.36799e-07
-9.9769e-05 7.20724e-05 2.74576e-07
-1.36799e-07 2.74576e-07 -3.26371e-05
0.00158412 -0.000116707 8.44555e-07
-0.000116707 0.000215385 5.1661e-07
8.44555e-07 5.1661e-07 0.000114238
0.000956355 -4.35599e-05 -1.53604e-07
-4.35599e-05 7.53114e-05 -2.05225e-07
-1.53604e-07 -2.05225e-07 -2.6477e-06
0.000975613 -7.67377e-05 -2.92013e-07
-7.67377e-05 9.50924e-05 3.53138e-07
-2.92013e-07 3.53138e-07 7.75837e-06
0.000811599 3.19692e-05 8.99034e-08
3.19692e-05 -3.20416e-06 8.59154e-08
8.99034e-08 8.59154e-08 -4.21121e-05
0.000802357 1.05096e-05 -7.95384e-08
1.05096e-05 -8.29988e-06 -5.17616e-07
-7.95384e-08 -5.17616e-07 -7.50723e-05
0.00166452 2.79034e-06 1.18225e-06
2.79034e-06 9.57527e-05 -1.03418e-06
1.18225e-06 -1.03418e-06 -1.43311e-05
0.00170503 -2.35247e-05 1.26506e-06
-2.35247e-05 0.000145354 1.83481e-07
1.26506e-06 1.83481e-07 4.45639e-05
0.00174365 1.1187e-06 8.29685e-08
1.1187e-06 0.000138473 1.93797e-07
8.29685e-08 1.93797e-07 3.32238e-05
0.00162907 -3.92749e-05 -4.86303e-07
-3.92749e-05 7.23824e-05 -7.51667e-07
-4.86303e-07 -7.51667e-07 -2.66411e-05
0.0014517 -9.21419e-05 -1.60103e-06
-9.21419e-05 4.33326e-05 6.13872e-08
-1.60103e-06 6.13872e-08 -5.89646e-05
0.0017343 -6.86687e-05 5.70809e-07
-6.86687e-05 0.000117674 1.71969e-07
5.70809e-07 1.71969e-07 2.26563e-05
0.000932507 -7.45725e-05 1.24098e-06
-7.45725e-05 6.37365e-05 5.53512e-07
1.24098e-06 5.53512e-07 -1.62775e-05
0.0013099 -9.95875e-05 -3.20394e-06
-9.95875e-05 1.87055e-05 7.97857e-07
-3.20394e-06 7.97857e-07 -7.66358e-05
0.000701637 -7.9835e-05 -1.98326e-08
-7.9835e-05 -5.60222e-05 -6.0681e-07
-1.98326e-08 -6.0681e-07 -0.000150811
0.00110466 -0.000107486 1.73403e-06
-0.000107486 0.000107311 -1.25297e-06
1.73403e-06 -1.25297e-06 -8.0791e-06
0.0013134 -0.000121067 1.18113e-06
-0.000121067 0.000130721 2.26548e-06
1.18113e-06 2.26548e-06 1.1571e-05
0.00197144 -0.000130937 -7.62917e-07
-0.000130937 0.000400443 1.7762e-06
-7.62917e-07 1.7762e-06 0.000298094
0.000826957 2.10448e-05 1.56777e-06
2.10448e-05 8.13774e-07 -1.57421e-06
1.56777e-06 -1.57421e-06 -3.45835e-05
0.000755331 2.97316e-06 5.39586e-07
2.97316e-06 -3.29775e-05 -1.3445e-06
5.39586e-07 -1.3445e-06 -9.49807e-05
0.000973906 -8.71296e-05 3.26477e-07
-8.71296e-05 8.95602e-05 1.26936e-06
3.26477e-07 1.26936e-06 1.74558e-06
0.000977827 -5.95639e-05 8.64243e-07
-5.95639e-05 9.45914e-05 3.10781e-09
8.64243e-07 3.10781e-09 1.34305e-05
0.000980453 -8.75646e-05 -3.46896e-07
-8.75646e-05 9.99533e-05 1.91929e-06
-3.46896e-07 1.91929e-06 8.73203e-06
0.00073091 -3.25255e-05 -2.6474e-06
-3.25255e-05 -3.73195e-05 -3.5267e-06
-2.6474e-06 -3.5267e-06 -4.68295e-05
0.00133991 8.30872e-05 -2.72806e-06
8.30872e-05 6.76537e-05 -3.01143e-07
-2.72806e-06 -3.01143e-07 -3.37812e-05
0.000813571 -3.63032e-05 -1.06505e-06
-3.63032e-05 6.76521e-06 -2.21657e-06
-1.06505e-06 -2.21657e-06 -3.56732e-05
0.000859808 -4.50946e-06 -1.74392e-06
-4.50946e-06 3.82497e-05 -2.26374e-06
-1.74392e-06 -2.26374e-06 -2.07855e-05
0.000923963 5.45939e-06 -4.7839e-07
5.45939e-06 6.44412e-05 -1.23164e-06
-4.7839e-07 -1.23164e-06 -6.8376e-06
0.00107562 9.38533e-05 -2.50935e-06
9.38533e-05 4.68679e-05 -1.21292e-06
-2.50935e-06 -1.21292e-06 -4.7856e-05
0.00132155 0.000101831 -1.44448e-06
0.000101831 7.28246e-05 -2.63349e-07
-1.44448e-06 -2.63349e-07 -3.56367e-05
0.000937959 7.32929e-05 -1.6886e-06
7.32929e-05 7.42651e-05 -4.90438e-07
-1.6886e-06 -4.90438e-07 -1.00719e-05
0.00109602 9.96571e-05 -2.15694e-06
9.96571e-05 0.000146088 -9.65286e-07
-2.15694e-06 -9.65286e-07 4.08113e-05
0.0014617 0.000113612 -1.76922e-06
0.000113612 0.000263574 -8.62768e-07
-1.76922e-06 -8.62768e-07 0.000167977
0.00101995 9.7954e-05 -3.61382e-06
9.7954e-05 6.42071e-05 2.04197e-06
-3.61382e-06 2.04197e-06 -3.33122e-05
0.000761849 -2.94212e-05 1.04134e-07
-2.94212e-05 -2.83737e-05 2.36695e-08
1.04134e-07 2.36695e-08 -3.5277e-05
0.000812351 -3.10676e-05 -6.60007e-08
-3.10676e-05 8.11973e-07 7.26036e-08
-6.60007e-08 7.26036e-08 -3.58189e-05
0.000955575 3.73409e-05 2.85084e-07
3.73409e-05 7.96789e-05 -9.12904e-08
2.85084e-07 -9.12904e-08 1.99879e-06
0.000885363 -6.89987e-06 5.37986e-08
-6.89987e-06 4.08911e-05 5.04925e-08
5.37986e-08 5.04925e-08 -2.23188e-05
0.000922254 5.23523e-05 3.78493e-07
5.23523e-05 7.07826e-05 -2.8589e-07
3.78493e-07 -2.8589e-07 -1.41336e-05
0.0014307 8.6193e-05 1.01362e-06
8.6193e-05 6.93533e-05 4.98925e-07
1.01362e-06 4.98925e-07 -3.76618e-05
0.0012 0.000104824 1.48953e-07
0.000104824 8.00049e-05 -6.29215e-09
1.48953e-07 -6.29215e-09 -2.27304e-05
0.00138884 0.000108611 8.89169e-07
0.000108611 8.36902e-05 7.0829e-07
8.89169e-07 7.0829e-07 -2.76459e-05
0.00102995 9.20004e-05 7.52851e-07
9.20004e-05 0.000129694 8.56982e-07
7.52851e-07 8.56982e-07 2.87767e-05
0.00129428 0.000110917 4.36774e-07
0.000110917 0.000159833 -7.45176e-07
4.36774e-07 -7.45176e-07 6.06522e-05
0.000882667 9.39418e-05 -1.36668e-06
9.39418e-05 1.65164e-05 -7.56019e-07
-1.36668e-06 -7.56019e-07 -9.76389e-05
0.000823054 -2.52606e-05 1.1411e-06
-2.52606e-05 2.15666e-06 1.9942e-06
1.1411e-06 1.9942e-06 -3.09264e-05
0.000870351 -1.04638e-05 5.20254e-07
-1.04638e-05 2.80946e-05 1.36175e-06
5.20254e-07 1.36175e-06 -2.70889e-05
0.00104569 8.78868e-05 8.10315e-07
8.78868e-05 0.000133478 -7.05274e-08
8.10315e-07 -7.05274e-08 4.05836e-05
0.000939081 2.01635e-05 6.88551e-07
2.01635e-05 7.6726e-05 7.14031e-07
6.88551e-07 7.14031e-07 1.41285e-07
0.00102896 5.29956e-05 7.89736e-07
5.29956e-05 0.000133083 -6.4119e-07
7.89736e-07 -6.4119e-07 4.04039e-05
0.00148267 8.53389e-05 -1.49982e-06
8.53389e-05 6.37507e-05 -1.42601e-06
-1.49982e-06 -1.42601e-06 -4.23885e-05
0.00124121 0.000112843 1.11717e-06
0.000112843 7.78708e-05 8.04801e-07
1.11717e-06 8.04801e-07 -2.76952e-05
0.00115171 0.000111686 -2.65942e-06
0.000111686 -3.95916e-05 -7.5501e-07
-2.65942e-06 -7.5501e-07 -0.000141744
0.000972977 9.39159e-05 1.08712e-06
9.39159e-05 0.000106857 2.4049e-06
1.08712e-06 2.4049e-06 -8.73953e-06
0.00121903 0.000116383 4.0161e-06
0.000116383 0.000138874 -9.15165e-07
4.0161e-06 -9.15165e-07 2.16062e-05
0.000833081 -1.88661e-05 7.2111e-08
-1.88661e-05 3.78877e-06 1.84647e-09
7.2111e-08 1.84647e-09 -2.67603e-05
0.000715888 -1.85284e-05 4.62533e-07
-1.85284e-05 -5.46208e-05 1.57189e-06
4.62533e-07 1.57189e-06 -0.000102923
0.000804063 -9.32747e-06 -6.40918e-07
-9.32747e-06 -7.43816e-06 -3.04677e-09
-6.40918e-07 -3.04677e-09 -5.43821e-05
0.0010773 1.30067e-05 9.06433e-07
1.30067e-05 0.000144508 1.68809e-07
9.06433e-07 1.68809e-07 8.65226e-05
0.00087034 1.09458e-05 1.48436e-06
1.09458e-05 2.72568e-05 9.97894e-07
1.48436e-06 9.97894e-07 -1.92065e-05
0.000860359 -4.46945e-06 7.12273e-07
-4.46945e-06 8.55466e-06 1.78902e-06
7.12273e-07 1.78902e-06 -1.75881e-05
0.000851271 -1.18589e-05 4.85119e-08
-1.18589e-05 6.8794e-06 2.09071e-08
4.85119e-08 2.09071e-08 -2.01962e-05
0.00132416 -2.29414e-05 1.47123e-06
-2.29414e-05 0.000254107 2.02408e-06
1.47123e-06 2.02408e-06 0.000256101
0.000842867 -1.36028e-05 -9.99065e-07
-1.36028e-05 6.4355e-06 -1.86016e-06
-9.99065e-07 -1.86016e-06 -2.23424e-05
0.00134648 -2.6474e-05 -3.63539e-06
-2.6474e-05 0.000271006 -1.1846e-06
-3.63539e-06 -1.1846e-06 0.000271402
0.00102678 -2.21227e-05 1.74181e-05
-2.21227e-05 0.000102352 6.26867e-06
1.74181e-05 6.26867e-06 0.000117099
0.00133519 -2.93402e-05 -8.89403e-06
-2.93402e-05 0.000271166 -3.22173e-06
-8.89403e-06 -3.22173e-06 0.000269709
0.00156322 -3.19565e-05 1.56842e-05
-3.19565e-05 0.000395809 2.09273e-06
1.56842e-05 2.09273e-06 0.000411597
0.0021718 -4.33836e-05 -2.29444e-05
-4.33836e-05 0.000725841 -3.61026e-06
-2.29444e-05 -3.61026e-06 0.000743043
0.000740093 2.92673e-05 2.20173e-06
2.92673e-05 -4.18906e-05 -3.37146e-06
2.20173e-06 -3.37146e-06 -5.02014e-05
0.000750925 3.29731e-05 -1.36899e-07
3.29731e-05 -3.0335e-05 2.11903e-08
-1.36899e-07 2.11903e-08 -4.11781e-05
0.00231544 5.04371e-05 2.62476e-05
5.04371e-05 0.000806611 -3.53726e-06
2.62476e-05 -3.53726e-06 0.000821469
0.00240752 5.60378e-05 -7.09324e-07
5.60378e-05 0.000863414 -8.30382e-08
-7.09324e-07 -8.30382e-08 0.000875962
0.000757308 3.99389e-05 -2.47748e-06
3.99389e-05 -1.90828e-05 3.81227e-06
-2.47748e-06 3.81227e-06 -3.38228e-05
0.00257937 6.17298e-05 -3.71324e-05
6.17298e-05 0.000960584 3.4253e-06
-3.71324e-05 3.4253e-06 0.000970564
0.00140969 6.88776e-05 -3.44568e-06
6.88776e-05 6.98875e-05 -3.19075e-07
-3.44568e-06 -3.19075e-07 -3.00388e-05
0.00147804 3.07643e-05 -3.17661e-06
3.07643e-05 6.97719e-05 -3.97556e-07
-3.17661e-06 -3.97556e-07 -2.95213e-05
0.0015788 5.49022e-05 -5.47257e-07
5.49022e-05 9.04901e-05 4.42698e-07
-5.47257e-07 4.42698e-07 -9.79087e-06
0.0015715 1.20283e-05 -8.06505e-07
1.20283e-05 5.52849e-05 -7.44125e-07
-8.06505e-07 -7.44125e-07 -5.08255e-05
0.00157602 1.94603e-05 -3.39736e-06
1.94603e-05 7.51188e-05 -1.32791e-06
-3.39736e-06 -1.32791e-06 -3.30503e-05
0.00131103 6.79417e-06 -7.96058e-06
6.79417e-06 1.31994e-05 1.89048e-08
-7.96058e-06 1.89048e-08 -8.10878e-05
0.00158183 1.1133e-05 4.32489e-08
1.1133e-05 7.08601e-05 -6.21801e-07
4.32489e-08 -6.21801e-07 -3.8397e-05
0.0016016 4.79637e-06 2.83196e-07
4.79637e-06 4.77644e-05 3.27234e-07
2.83196e-07 3.27234e-07 -6.47015e-05
0.00160218 3.22294e-05 1.8598e-08
3.22294e-05 8.70207e-05 1.43177e-07
1.8598e-08 1.43177e-07 -1.40632e-05
0.00174101 7.8392e-06 -8.02877e-08
7.8392e-06 0.000125462 -4.42496e-07
-8.02877e-08 -4.42496e-07 2.13131e-05
0.00151302 6.91921e-05 -1.37196e-07
6.91921e-05 7.79093e-05 5.42667e-08
-1.37196e-07 5.42667e-08 -2.48339e-05
0.00162369 4.39653e-05 -1.47164e-08
4.39653e-05 7.99959e-05 4.42165e-07
-1.47164e-08 4.42165e-07 -1.38013e-05
0.00163213 5.72328e-07 1.80896e-06
5.72328e-07 5.60864e-05 -1.04945e-06
1.80896e-06 -1.04945e-06 -5.79286e-05
0.00179378 1.37319e-05 -3.90053e-07
1.37319e-05 0.000128483 6.63511e-07
-3.90053e-07 6.63511e-07 1.64677e-05
0.00162241 2.41603e-05 -5.01735e-07
2.41603e-05 6.87393e-05 1.033e-06
-5.01735e-07 1.033e-06 -2.98803e-05
0.00176843 3.60448e-06 -3.47559e-07
3.60448e-06 0.000129907 1.74914e-08
-3.47559e-07 1.74914e-08 2.62393e-05
0.00148902 6.17582e-05 -1.25264e-06
6.17582e-05 2.92034e-05 -1.26989e-06
-1.25264e-06 -1.26989e-06 -6.83308e-05
0.00185198 3.67277e-05 -6.58082e-07
3.67277e-05 0.000177093 -3.74453e-07
-6.58082e-07 -3.74453e-07 8.51911e-05
0.00157489 5.36636e-06 -4.96837e-06
5.36636e-06 8.3779e-05 1.76653e-06
-4.96837e-06 1.76653e-06 -2.24612e-05
0.00162513 -3.22777e-05 -4.8139e-06
-3.22777e-05 0.000147966 5.35673e-07
-4.8139e-06 5.35673e-07 5.25421e-05
0.00155569 -4.08767e-07 -1.79172e-06
-4.08767e-07 5.97779e-05 8.36714e-07
-1.79172e-06 8.36714e-07 -4.57953e-05
0.00179463 -4.63328e-05 -1.50743e-06
-4.63328e-05 0.000189658 -2.95349e-07
-1.50743e-06 -2.95349e-07 8.97263e-05
0.00084487 -1.99274e-05 -2.70675e-06
-1.99274e-05 2.96373e-05 1.33795e-06
-2.70675e-06 1.33795e-06 -3.62828e-05
0.00108869 -8.58384e-05 -1.4589e-06
-8.58384e-05 0.000140577 3.33736e-07
-1.4589e-06 3.33736e-07 5.6356e-05
0.000922112 -9.2138e-05 -3.32916e-07
-9.2138e-05 3.6617e-05 1.12062e-07
-3.32916e-07 1.12062e-07 -6.46662e-05
0.00169335 -9.86722e-05 -1.05831e-06
-9.86722e-05 0.000214543 2.62481e-07
-1.05831e-06 2.62481e-07 0.000110183
0.00152882 -6.88288e-05 6.63523e-07
-6.88288e-05 3.48117e-05 1.43512e-07
6.63523e-07 1.43512e-07 -6.12313e-05
0.0013864 -9.88874e-05 1.50167e-06
-9.88874e-05 7.575e-05 8.46097e-07
1.50167e-06 8.46097e-07 -2.87093e-05
0.000988393 -0.000102396 -8.27342e-07
-0.000102396 -1.2032e-05 -7.88589e-08
-8.27342e-07 -7.88589e-08 -0.000126957
0.00133026 -0.000107953 3.04725e-06
-0.000107953 8.51069e-05 -2.64017e-06
3.04725e-06 -2.64017e-06 -1.49743e-05
0.000975981 -3.58516e-05 -1.32883e-06
-3.58516e-05 8.49648e-05 -3.45708e-07
-1.32883e-06 -3.45708e-07 7.55748e-06
0.00095998 -6.4824e-05 -8.29513e-07
-6.4824e-05 8.3375e-05 -5.68451e-07
-8.29513e-07 -5.68451e-07 -3.02513e-06
0.000802467 3.22706e-05 -9.19033e-07
3.22706e-05 -7.48517e-06 1.82712e-06
-9.19033e-07 1.82712e-06 -4.65725e-05
0.00082312 2.01387e-05 -2.15973e-07
2.01387e-05 1.07779e-06 3.97233e-07
-2.15973e-07 3.97233e-07 -6.41042e-05
0.00167744 3.74897e-06 -1.56714e-07
3.74897e-06 0.000102126 2.27562e-07
-1.56714e-07 2.27562e-07 -7.97913e-06
0.00174365 -2.0862e-05 -5.45308e-07
-2.0862e-05 0.000164735 1.31756e-08
-5.45308e-07 1.31756e-08 6.44625e-05
0.00170405 3.54353e-07 -7.34318e-07
3.54353e-07 0.000119445 6.56274e-07
-7.34318e-07 6.56274e-07 1.48005e-05
0.0016716 -4.02755e-05 -1.2477e-07
-4.02755e-05 9.37191e-05 -4.40537e-07
-1.2477e-07 -4.40537e-07 -5.11525e-06
0.000989525 -6.14971e-05 -1.83419e-07
-6.14971e-05 9.09057e-05 7.39493e-08
-1.83419e-07 7.39493e-08 1.16383e-05
0.000783608 -8.25465e-05 4.81586e-07
-8.25465e-05 -1.30865e-05 -4.1273e-07
4.81586e-07 -4.1273e-07 -0.000106631
0.00110493 -0.000106912 1.13738e-07
-0.000106912 0.000109158 -1.57711e-07
1.13738e-07 -1.57711e-07 -6.5534e-06
0.0015825 -9.47505e-05 -6.73494e-07
-9.47505e-05 0.000112868 -5.11923e-07
-6.73494e-07 -5.11923e-07 9.86649e-06
0.00162486 -6.75143e-05 -3.88492e-07
-6.75143e-05 6.5691e-05 6.37537e-07
-3.88492e-07 6.37537e-07 -2.63603e-05
0.00130746 -0.000119633 -2.40308e-07
-0.000119633 0.000128414 5.83212e-07
-2.40308e-07 5.83212e-07 8.56858e-06
0.00139272 -0.000100749 -1.26968e-07
-0.000100749 6.06914e-05 1.03936e-06
-1.26968e-07 1.03936e-06 -3.46263e-05
0.00160507 -0.00011848 9.72461e-07
-0.00011848 0.0002111 -1.38702e-06
9.72461e-07 -1.38702e-06 0.000111692
0.00102266 -8.93492e-05 6.16029e-08
-8.93492e-05 0.000113959 -3.27132e-08
6.16029e-08 -3.27132e-08 2.61207e-05
0.00100124 -8.57362e-05 4.09852e-08
-8.57362e-05 0.000109341 1.70168e-07
4.09852e-08 1.70168e-07 1.84148e-05
0.000968281 -4.29833e-05 -3.34067e-07
-4.29833e-05 8.80817e-05 -1.49944e-08
-3.34067e-07 -1.49944e-08 8.06589e-06
0.000707906 2.63198e-05 -2.24013e-07
2.63198e-05 -6.17213e-05 2.99842e-09
-2.24013e-07 2.99842e-09 -9.82091e-05
0.000784401 1.87207e-05 5.73127e-08
1.87207e-05 -2.07555e-05 -3.47103e-07
5.73127e-08 -3.47103e-07 -8.04846e-05
0.00170777 6.43203e-06 -9.30507e-08
6.43203e-06 9.16044e-05 -7.18627e-07
-9.30507e-08 -7.18627e-07 -1.77014e-05
0.00166952 -5.93674e-06 1.38876e-06
-5.93674e-06 8.97197e-05 1.80569e-07
1.38876e-06 1.80569e-07 -1.28707e-05
0.0016313 -4.41568e-05 1.20213e-06
-4.41568e-05 4.65001e-05 -1.41503e-06
1.20213e-06 -1.41503e-06 -5.29922e-05
0.00138272 -8.08695e-05 6.84147e-08
-8.08695e-05 -2.71619e-05 -1.55788e-06
6.84147e-08 -1.55788e-06 -0.000121662
0.000946058 -8.74474e-05 -7.62688e-08
-8.74474e-05 7.38455e-05 1.25343e-06
-7.62688e-08 1.25343e-06 -1.44678e-05
0.00197005 -0.00012148 -1.11181e-06
-0.00012148 0.00032202 1.3854e-06
-1.11181e-06 1.3854e-06 0.000230628
0.00038563 -6.81191e-05 -1.18152e-07
-6.81191e-05 -0.000215933 -1.8727e-06
-1.18152e-07 -1.8727e-06 -0.000318271
0.00120726 -0.00011895 2.96507e-06
-0.00011895 0.000139218 -1.02715e-06
2.96507e-06 -1.02715e-06 8.99e-06
0.00164313 -0.000136056 1.6852e-06
-0.000136056 0.000269301 2.26941e-06
1.6852e-06 2.26941e-06 0.000144598
0.000617172 1.93912e-05 1.23075e-06
1.93912e-05 -0.0001127 -2.27292e-06
1.23075e-06 -2.27292e-06 -0.000147739
0.000977621 6.99048e-07 1.28691e-06
6.99048e-07 8.29561e-05 -6.71966e-07
1.28691e-06 -6.71966e-07 2.75549e-05
0.000995569 -2.76699e-05 9.63425e-08
-2.76699e-05 9.76366e-05 -2.08332e-07
9.63425e-08 -2.08332e-07 2.71327e-05
0.000978511 -8.78346e-05 -3.82158e-07
-8.78346e-05 9.25673e-05 2.08432e-06
-3.82158e-07 2.08432e-06 3.41266e-06
0.00107952 -6.37594e-05 4.03828e-07
-6.37594e-05 0.000150156 1.34101e-06
4.03828e-07 1.34101e-06 6.15334e-05
0.000948045 -8.59299e-05 -1.54066e-07
-8.59299e-05 7.6909e-05 1.86108e-06
-1.54066e-07 1.86108e-06 -1.52164e-05
0.000741837 -2.88226e-05 -2.18558e-06
-2.88226e-05 -3.86843e-05 -3.49928e-06
-2.18558e-06 -3.49928e-06 -4.54899e-05
0.000821143 -3.07676e-05 -1.39935e-06
-3.07676e-05 5.38893e-06 -1.9387e-06
-1.39935e-06 -1.9387e-06 -3.11562e-05
0.001446 8.70643e-05 -6.4189e-07
8.70643e-05 7.71155e-05 8.65125e-07
-6.4189e-07 8.65125e-07 -3.01704e-05
0.000904855 -1.8522e-05 -2.87651e-07
-1.8522e-05 5.02093e-05 -1.44266e-06
-2.87651e-07 -1.44266e-06 -1.22533e-05
0.000899439 3.03363e-05 -1.20775e-06
3.03363e-05 4.94206e-05 -5.32851e-07
-1.20775e-06 -5.32851e-07 -2.73176e-05
0.00087678 4.48954e-05 -3.01095e-07
4.48954e-05 4.56716e-05 -3.28478e-07
-3.01095e-07 -3.28478e-07 -3.88048e-05
0.00120508 0.00010565 -1.16514e-06
0.00010565 8.29663e-05 -1.33097e-06
-1.16514e-06 -1.33097e-06 -1.98096e-05
0.00133524 0.000108136 6.05691e-07
0.000108136 5.68556e-05 2.92598e-07
6.05691e-07 2.92598e-07 -5.49023e-05
0.000957314 8.89291e-05 -7.10193e-07
8.89291e-05 9.32355e-05 -3.12202e-07
-7.10193e-07 -3.12202e-07 -7.35959e-06
0.00122259 0.000109289 -2.18447e-06
0.000109289 0.000189972 7.54025e-07
-2.18447e-06 7.54025e-07 7.59314e-05
0.00141271 0.000115146 -2.73568e-06
0.000115146 0.000222289 -6.30617e-07
-2.73568e-06 -6.30617e-07 0.000123156
0.000824976 -2.44404e-05 3.40979e-08
-2.44404e-05 3.33995e-06 2.39007e-08
3.40979e-08 2.39007e-08 -2.97061e-05
0.000874097 -1.73837e-05 -1.20393e-07
-1.73837e-05 3.00032e-05 1.40611e-07
-1.20393e-07 1.40611e-07 -2.50942e-05
0.00101165 8.64441e-05 -4.02171e-07
8.64441e-05 0.000117414 -2.67962e-07
-4.02171e-07 -2.67962e-07 2.49591e-05
0.000927079 1.56649e-05 1.28784e-07
1.56649e-05 6.86024e-05 -7.51895e-10
1.28784e-07 -7.51895e-10 -7.07153e-06
0.000946372 5.87189e-05 1.32906e-07
5.87189e-05 9.15269e-05 -5.91278e-07
1.32906e-07 -5.91278e-07 -2.93435e-06
0.00149037 8.75391e-05 -7.2769e-07
8.75391e-05 6.96899e-05 -1.86602e-07
-7.2769e-07 -1.86602e-07 -3.69759e-05
0.00126701 0.000113702 9.90244e-07
0.000113702 8.98145e-05 -9.31492e-08
9.90244e-07 -9.31492e-08 -1.60047e-05
0.00127434 0.000114545 5.06381e-07
0.000114545 1.69632e-05 1.10884e-06
5.06381e-07 1.10884e-06 -8.3821e-05
0.000798999 8.61751e-05 5.47886e-07
8.61751e-05 1.71314e-05 1.42196e-06
5.47886e-07 1.42196e-06 -9.84934e-05
0.00121963 0.000116238 -3.52672e-07
0.000116238 0.000140681 -7.8041e-07
-3.52672e-07 -7.8041e-07 2.08555e-05
0.000866126 -1.12911e-05 6.49469e-07
-1.12911e-05 2.53796e-05 1.22636e-06
6.49469e-07 1.22636e-06 -2.46948e-05
0.000810539 -1.9379e-06 2.62248e-07
-1.9379e-06 1.76984e-06 1.48546e-06
2.62248e-07 1.48546e-06 -6.73519e-05
0.00113109 9.79195e-05 4.92461e-07
9.79195e-05 0.000191564 -5.54223e-07
4.92461e-07 -5.54223e-07 8.61946e-05
0.000843632 3.45477e-05 5.13861e-07
3.45477e-05 3.28365e-05 5.95167e-07
5.13861e-07 5.95167e-07 -5.65749e-05
0.00102693 6.94083e-05 3.99446e-07
6.94083e-05 0.000129611 -9.05679e-07
3.99446e-07 -9.05679e-07 2.85262e-05
0.00164028 8.80502e-05 -2.49113e-06
8.80502e-05 0.00010069 1.82052e-07
-2.49113e-06 1.82052e-07 1.21159e-05
0.00161199 0.00013852 1.03754e-06
0.00013852 0.000260121 -1.44898e-06
1.03754e-06 -1.44898e-06 0.000144903
0.00025054 8.91336e-05 4.67642e-07
8.91336e-05 -0.000539378 -1.82101e-06
4.67642e-07 -1.82101e-06 -0.000635092
0.00159286 0.000125007 4.0701e-06
0.000125007 0.000415143 3.1761e-06
4.0701e-06 3.1761e-06 0.000289745
7.86826e-05 7.41594e-05 8.47714e-07
7.41594e-05 -0.000444353 -9.12158e-07
8.47714e-07 -9.12158e-07 -0.000576886
0.000831977 -1.67864e-05 -1.29366e-06
-1.67864e-05 3.54269e-06 -1.82903e-06
-1.29366e-06 -1.82903e-06 -2.69949e-05
0.000799856 -1.20465e-05 1.35044e-07
-1.20465e-05 -1.01873e-05 5.38931e-07
1.35044e-07 5.38931e-07 -5.81866e-05
0.000797956 -1.77057e-05 2.50857e-07
-1.77057e-05 -7.0813e-06 1.17663e-06
2.50857e-07 1.17663e-06 -6.70279e-05
0.000758178 -2.49365e-05 -6.47031e-07
-2.49365e-05 -3.25898e-05 -8.30348e-07
-6.47031e-07 -8.30348e-07 -7.95695e-05
0.000883879 -1.24631e-06 2.17705e-07
-1.24631e-06 3.29662e-05 -3.65456e-08
2.17705e-07 -3.65456e-08 -1.25536e-05
0.000927067 -1.57323e-05 1.66491e-07
-1.57323e-05 6.25754e-05 -3.90301e-07
1.66491e-07 -3.90301e-07 5.55986e-06
0.00103328 5.56666e-06 3.05282e-07
5.56666e-06 0.000122823 1.42515e-07
3.05282e-07 1.42515e-07 5.82463e-05
0.000815283 -3.09509e-05 8.5652e-08
-3.09509e-05 5.1845e-06 7.35197e-07
8.5652e-08 7.35197e-07 -5.22503e-05
0.0008977 -1.77661e-05 6.72197e-08
-1.77661e-05 3.69475e-05 8.92448e-07
6.72197e-08 8.92448e-07 -7.01203e-06
0.00085271 1.87472e-06 7.60266e-07
1.87472e-06 3.53282e-06 1.64454e-06
7.60266e-07 1.64454e-06 -2.26631e-05
0.000854455 -8.75847e-06 -1.42212e-07
-8.75847e-06 5.66484e-06 1.9286e-08
-1.42212e-07 1.9286e-08 -2.05248e-05
0.00132 -1.71611e-05 1.21769e-06
-1.71611e-05 0.000247454 1.95937e-06
1.21769e-06 1.95937e-06 0.000250533
0.000850489 -1.21703e-05 -6.25521e-07
-1.21703e-05 6.64358e-06 -1.847e-06
-6.25521e-07 -1.847e-06 -2.0478e-05
0.00133671 -2.14941e-05 -3.00341e-06
-2.14941e-05 0.000260492 -1.16271e-06
-3.00341e-06 -1.16271e-06 0.000262654
0.00101671 -1.83601e-05 1.39896e-05
-1.83601e-05 9.14971e-05 6.19694e-06
1.39896e-05 6.19694e-06 0.000107771
0.00135634 -2.52505e-05 -7.64021e-06
-2.52505e-05 0.000275786 -4.42164e-06
-7.64021e-06 -4.42164e-06 0.000276417
0.000973013 -2.33873e-05 5.72284e-06
-2.33873e-05 7.40348e-05 2.3799e-06
5.72284e-06 2.3799e-06 8.85959e-05
0.00209092 -4.18405e-05 -6.17292e-06
-4.18405e-05 0.000677312 -1.57277e-06
-6.17292e-06 -1.57277e-06 0.000695619
0.000753283 2.6229e-05 1.69336e-06
2.6229e-05 -4.06741e-05 -3.35754e-06
1.69336e-06 -3.35754e-06 -4.6762e-05
0.000757558 2.96082e-05 -1.14601e-07
2.96082e-05 -3.28781e-05 2.4388e-08
-1.14601e-07 2.4388e-08 -4.12675e-05
0.00226527 4.4641e-05 2.31111e-05
4.4641e-05 0.000773196 -3.6519e-06
2.31111e-05 -3.6519e-06 0.000789877
0.000770067 3.37305e-05 -2.8273e-06
3.37305e-05 -2.03635e-05 3.45228e-06
-2.8273e-06 3.45228e-06 -3.13617e-05
0.00232058 5.01895e-05 -9.43593e-07
5.01895e-05 0.000810265 -8.18551e-08
-9.43593e-07 -8.18551e-08 0.00082495
0.00243011 5.55036e-05 -3.26637e-05
5.55036e-05 0.000875969 3.49166e-06
-3.26637e-05 3.49166e-06 0.000888335
0.00152508 7.04828e-05 -1.41539e-06
7.04828e-05 8.37015e-05 6.89496e-07
-1.41539e-06 6.89496e-07 -1.93137e-05
0.00162215 3.05896e-05 -4.19284e-07
3.05896e-05 9.7514e-05 3.8193e-08
-4.19284e-07 3.8193e-08 -3.40268e-06
0.00160181 4.35436e-05 1.86457e-06
4.35436e-05 6.59719e-05 7.37077e-07
1.86457e-06 7.37077e-07 -2.80032e-05
0.00166249 7.16104e-06 -7.30215e-08
7.16104e-06 8.35476e-05 -1.26172e-06
-7.30215e-08 -1.26172e-06 -2.03898e-05
0.00159452 1.10527e-07 -8.37292e-07
1.10527e-07 4.14791e-05 -8.71641e-07
-8.37292e-07 -8.71641e-07 -7.18913e-05
0.0015974 1.44823e-05 -3.59656e-06
1.44823e-05 7.88199e-05 -8.46342e-08
-3.59656e-06 -8.46342e-08 -3.04959e-05
0.00167567 4.21959e-06 2.84447e-07
4.21959e-06 7.81311e-05 -5.46624e-07
2.84447e-07 -5.46624e-07 -3.62898e-05
0.00178868 9.65281e-06 9.11161e-09
9.65281e-06 0.000127191 -3.36447e-07
9.11161e-09 -3.36447e-07 1.52698e-05
0.00161158 2.2395e-05 7.07579e-08
2.2395e-05 6.23505e-05 4.505e-07
7.07579e-08 4.505e-07 -3.66084e-05
0.00172287 3.52517e-06 5.07377e-08
3.52517e-06 0.000103876 -7.74481e-07
5.07377e-08 -7.74481e-07 7.67654e-07
0.00154777 6.35135e-05 -5.45977e-07
6.35135e-05 5.89922e-05 1.16405e-07
-5.45977e-07 1.16405e-07 -3.84673e-05
0.00172266 3.61294e-05 1.17969e-06
3.61294e-05 0.000111313 -5.4587e-07
1.17969e-06 -5.4587e-07 2.00362e-05
0.00177666 1.17911e-05 6.46495e-08
1.17911e-05 0.000103379 -4.56915e-07
6.46495e-08 -4.56915e-07 -1.16515e-05
0.00174772 4.3272e-06 -7.49706e-07
4.3272e-06 9.68267e-05 4.95999e-07
-7.49706e-07 4.95999e-07 -1.01333e-05
0.00170621 1.60345e-05 -2.94836e-07
1.60345e-05 8.85817e-05 5.22772e-07
-2.94836e-07 5.22772e-07 -7.86498e-06
0.00187015 5.71992e-05 -1.49051e-06
5.71992e-05 0.000187223 -7.52352e-07
-1.49051e-06 -7.52352e-07 9.61098e-05
0.00168278 4.64252e-06 -1.22671e-06
4.64252e-06 0.000104746 1.51786e-06
-1.22671e-06 1.51786e-06 -5.39597e-06
0.00176988 -1.99437e-05 -2.78066e-06
-1.99437e-05 0.000177658 1.78355e-07
-2.78066e-06 1.78355e-07 7.78828e-05
0.00159183 -7.06014e-07 -1.4782e-06
-7.06014e-07 6.3909e-05 7.06422e-07
-1.4782e-06 7.06422e-07 -4.02158e-05
0.00170382 -4.07108e-05 -3.92578e-07
-4.07108e-05 0.000109709 -1.16931e-07
-3.92578e-07 -1.16931e-07 1.10797e-05
0.00104705 -6.16339e-05 -1.36991e-06
-6.16339e-05 0.000120121 -4.06274e-07
-1.36991e-06 -4.06274e-07 4.05278e-05
0.00088803 -8.64912e-05 5.04505e-07
-8.64912e-05 4.11955e-05 -3.22981e-07
5.04505e-07 -3.22981e-07 -5.11961e-05
0.00109753 -0.00010601 -9.64822e-07
-0.00010601 0.000107111 1.39696e-06
-9.64822e-07 1.39696e-06 -8.89964e-06
0.00170695 -9.71895e-05 1.47765e-07
-9.71895e-05 0.000179087 -2.5003e-07
1.47765e-07 -2.5003e-07 7.5401e-05
0.00152002 -6.65224e-05 -5.03498e-07
-6.65224e-05 1.60254e-05 1.47546e-06
-5.03498e-07 1.47546e-06 -7.30709e-05
0.00146765 -0.000101766 2.57243e-06
-0.000101766 9.88322e-05 1.28659e-06
2.57243e-06 1.28659e-06 3.53108e-06
0.00127336 -0.000117101 -1.0871e-06
-0.000117101 0.000111835 -8.8018e-07
-1.0871e-06 -8.8018e-07 -8.65339e-06
0.00126747 -0.000106895 -1.32337e-07
-0.000106895 3.68897e-05 -5.91424e-06
-1.32337e-07 -5.91424e-06 -5.97169e-05
0.00106856 -9.14999e-05 -2.69391e-07
-9.14999e-05 0.00013707 -1.25521e-06
-2.69391e-07 -1.25521e-06 4.91836e-05
0.00103221 -8.62661e-05 -3.64992e-07
-8.62661e-05 0.000124142 -1.91941e-06
-3.64992e-07 -1.91941e-06 3.32108e-05
0.000949553 -2.78253e-05 -1.93556e-08
-2.78253e-05 7.76166e-05 1.95597e-07
-1.93556e-08 1.95597e-07 -1.5888e-06
0.000595143 2.79801e-05 -1.02582e-06
2.79801e-05 -0.000121254 1.68916e-06
-1.02582e-06 1.68916e-06 -0.000158668
0.000817925 3.13771e-05 -1.11578e-07
3.13771e-05 -5.20386e-06 3.93213e-07
-1.11578e-07 3.93213e-07 -6.33621e-05
0.00165324 5.6537e-06 -4.05309e-07
5.6537e-06 6.79696e-05 4.68262e-07
-4.05309e-07 4.68262e-07 -4.04376e-05
0.00170433 -6.88828e-06 -3.8966e-07
-6.88828e-06 0.000109083 -1.6948e-07
-3.8966e-07 -1.6948e-07 6.12781e-06
0.00176985 -4.61766e-05 -1.24496e-06
-4.61766e-05 0.000120058 -3.30092e-08
-1.24496e-06 -3.30092e-08 2.15674e-05
0.00103417 -9.11084e-05 -2.89261e-09
-9.11084e-05 0.000117578 2.08955e-07
-2.89261e-09 2.08955e-07 2.90321e-05
0.000781604 -8.5408e-05 1.06594e-06
-8.5408e-05 -1.38808e-05 -9.7805e-07
1.06594e-06 -9.7805e-07 -0.000115661
0.00114519 -0.000115493 -9.71223e-08
-0.000115493 0.000110696 -1.33548e-07
-9.71223e-08 -1.33548e-07 -2.00644e-05
0.0015607 -8.4313e-05 5.55371e-07
-8.4313e-05 5.99855e-05 -1.02868e-06
5.55371e-07 -1.02868e-06 -3.52699e-05
0.0015243 -0.000128863 -1.60204e-07
-0.000128863 0.000208841 -2.37691e-07
-1.60204e-07 -2.37691e-07 8.7514e-05
0.00155308 -0.00011265 -1.17799e-06
-0.00011265 0.00011675 -2.26852e-07
-1.17799e-06 -2.26852e-07 2.59349e-05
0.000611658 2.2611e-05 6.33872e-08
2.2611e-05 -0.000115733 -5.86582e-07
6.33872e-08 -5.86582e-07 -0.000150527
0.00102604 -9.00348e-05 3.69597e-08
-9.00348e-05 0.000116701 1.25399e-07
3.69597e-08 1.25399e-07 2.73533e-05
0.000950025 -8.57485e-05 -5.74623e-07
-8.57485e-05 7.8227e-05 1.08293e-07
-5.74623e-07 1.08293e-07 -1.33392e-05
0.00106341 -6.52519e-05 -3.1201e-07
-6.52519e-05 0.000144065 8.03392e-07
-3.1201e-07 8.03392e-07 5.38354e-05
0.00102059 -2.52558e-05 1.086e-08
-2.52558e-05 0.000111424 8.63603e-09
1.086e-08 8.63603e-09 4.07979e-05
0.000873327 1.22762e-05 -2.0706e-07
1.22762e-05 2.56754e-05 1.863e-07
-2.0706e-07 1.863e-07 -2.89852e-05
0.00183247 5.98101e-06 2.6183e-08
5.98101e-06 0.000146931 -9.10198e-07
2.6183e-08 -9.10198e-07 4.14284e-05
0.00172655 -8.25207e-06 5.68972e-07
-8.25207e-06 9.21624e-05 4.45107e-07
5.68972e-07 4.45107e-07 -9.17322e-06
0.0014194 -5.39947e-05 2.34166e-06
-5.39947e-05 -6.89802e-05 -1.59248e-06
2.34166e-06 -1.59248e-06 -0.000169754
0.00173235 -0.000102995 4.29202e-07
-0.000102995 9.41341e-05 -2.08914e-06
4.29202e-07 -2.08914e-06 2.15084e-06
0.000962125 -8.92505e-05 -7.00782e-07
-8.92505e-05 8.38336e-05 1.27567e-06
-7.00782e-07 1.27567e-06 -8.39394e-06
0.0015896 -0.000129436 2.88841e-06
-0.000129436 0.000164378 2.80492e-06
2.88841e-06 2.80492e-06 5.19312e-05
0.000688138 -8.79617e-05 -4.37055e-07
-8.79617e-05 -6.92401e-05 -2.50568e-06
-4.37055e-07 -2.50568e-06 -0.000191013
0.00148463 -0.000135307 1.04908e-06
-0.000135307 0.000264869 1.12174e-06
1.04908e-06 1.12174e-06 0.000122458
0.00062628 1.87547e-05 8.36998e-07
1.87547e-05 -0.000110169 -2.33387e-06
8.36998e-07 -2.33387e-06 -0.000142849
0.000991572 -5.82546e-07 1.06722e-06
-5.82546e-07 8.91046e-05 -7.55186e-07
1.06722e-06 -7.55186e-07 3.76261e-05
0.00105931 -2.5626e-05 2.33724e-07
-2.5626e-05 0.000131006 6.28787e-07
2.33724e-07 6.28787e-07 6.42672e-05
0.000988211 -3.10453e-05 4.15836e-07
-3.10453e-05 9.91989e-05 -7.95964e-07
4.15836e-07 -7.95964e-07 1.72605e-05
0.00106034 -9.15781e-05 -2.13825e-07
-9.15781e-05 0.000134317 2.10911e-06
-2.13825e-07 2.10911e-06 4.23567e-05
0.000971261 -8.80826e-05 -6.94048e-07
-8.80826e-05 9.08784e-05 2.79917e-06
-6.94048e-07 2.79917e-06 -4.27197e-06
0.000825032 -2.3341e-05 -1.42822e-06
-2.3341e-05 3.4553e-06 -1.86475e-06
-1.42822e-06 -1.86475e-06 -2.9501e-05
0.000873643 -2.24258e-05 -4.12017e-07
-2.24258e-05 2.98269e-05 -1.28458e-06
-4.12017e-07 -1.28458e-06 -2.52389e-05
0.00150666 9.00042e-05 4.76254e-07
9.00042e-05 7.99541e-05 1.36595e-06
4.76254e-07 1.36595e-06 -2.72486e-05
0.000924376 8.50971e-06 -4.15434e-07
8.50971e-06 6.53069e-05 -7.75575e-07
-4.15434e-07 -7.75575e-07 -9.40831e-06
0.00096696 8.45845e-05 -5.9055e-07
8.45845e-05 9.613e-05 -2.62428e-07
-5.9055e-07 -2.62428e-07 4.10715e-06
0.000872148 4.95098e-05 -8.64785e-07
4.95098e-05 5.10692e-05 -3.41997e-07
-8.64785e-07 -3.41997e-07 -4.30971e-05
0.00129217 0.000114543 -1.03043e-06
0.000114543 0.000101414 -1.33558e-06
-1.03043e-06 -1.33558e-06 -4.65582e-06
0.00138618 0.000117033 1.32261e-06
0.000117033 6.78003e-05 9.41112e-07
1.32261e-06 9.41112e-07 -3.15547e-05
0.000633543 7.89364e-05 -6.17567e-07
7.89364e-05 -6.81284e-05 1.9754e-07
-6.17567e-07 1.9754e-07 -0.000183841
0.00124833 0.000117424 -2.10947e-06
0.000117424 0.000157312 5.68843e-07
-2.10947e-06 5.68843e-07 3.47707e-05
0.000865689 -1.70334e-05 -1.35799e-07
-1.70334e-05 2.48864e-05 9.71345e-08
-1.35799e-07 9.71345e-08 -2.51921e-05
0.000860296 3.22247e-06 9.41196e-08
3.22247e-06 2.78187e-05 5.53013e-07
9.41196e-08 5.53013e-07 -4.11553e-05
0.00108791 9.57266e-05 -6.35101e-08
9.57266e-05 0.000172207 -8.71606e-07
-6.35101e-08 -8.71606e-07 6.78126e-05
0.000896323 1.88737e-05 -1.56821e-07
1.88737e-05 5.73947e-05 -1.45875e-08
-1.56821e-07 -1.45875e-08 -2.96303e-05
0.000940189 6.39713e-05 -1.106e-06
6.39713e-05 8.68918e-05 -8.4615e-07
-1.106e-06 -8.4615e-07 -1.43076e-05
0.00177237 8.96578e-05 -1.57025e-06
8.96578e-05 0.000162192 -8.30375e-08
-1.57025e-06 -8.30375e-08 7.26159e-05
0.00160521 0.000137523 1.41598e-06
0.000137523 0.00025045 1.06815e-07
1.41598e-06 1.06815e-07 0.00013665
0.000818099 0.000106908 -7.1218e-07
0.000106908 -0.000238215 6.6851e-07
-7.1218e-07 6.6851e-07 -0.000328967
0.00123864 0.000109512 1.25323e-06
0.000109512 0.000233882 1.42623e-06
1.25323e-06 1.42623e-06 0.000108651
0.000636908 9.89334e-05 -1.36623e-06
9.89334e-05 -0.000158702 -6.37973e-07
-1.36623e-06 -6.37973e-07 -0.00029723
0.000809704 -6.78382e-06 4.1456e-07
-6.78382e-06 -1.2092e-06 1.35212e-06
4.1456e-07 1.35212e-06 -6.38441e-05
0.000811169 3.42044e-05 5.00632e-07
3.42044e-05 1.05607e-05 3.99622e-07
5.00632e-07 3.99622e-07 -7.36226e-05
0.00107987 9.62272e-05 1.18995e-06
9.62272e-05 0.000170698 -2.24892e-07
1.18995e-06 -2.24892e-07 5.66535e-05
0.000648683 4.79254e-05 5.91233e-07
4.79254e-05 -6.64906e-05 7.88712e-07
5.91233e-07 7.88712e-07 -0.000169461
0.00212411 6.26721e-05 -1.09302e-06
6.26721e-05 0.000276359 3.86133e-07
-1.09302e-06 3.86133e-07 0.000190616
0.00132718 0.000106123 2.14237e-06
0.000106123 -0.000101738 -6.67851e-07
2.14237e-06 -6.67851e-07 -0.000178827
0.00135085 0.000138409 1.91924e-06
0.000138409 0.0001075 -3.29101e-06
1.91924e-06 -3.29101e-06 -2.24086e-05
0.000414158 7.94405e-05 1.04181e-06
7.94405e-05 -0.000203102 1.53431e-06
1.04181e-06 1.53431e-06 -0.000354395
0.000875812 4.03828e-06 -5.39202e-07
4.03828e-06 3.22013e-05 -6.07796e-07
-5.39202e-07 -6.07796e-07 -1.68833e-05
0.000885777 -3.14019e-06 -7.37339e-08
-3.14019e-06 4.03724e-05 3.82511e-07
-7.37339e-08 3.82511e-07 -1.99928e-05
0.000964229 -6.26251e-06 2.85495e-07
-6.26251e-06 8.39176e-05 8.22984e-07
2.85495e-07 8.22984e-07 1.62462e-05
0.00087872 -1.23297e-05 -6.21338e-07
-1.23297e-05 2.87978e-05 -8.97198e-07
-6.21338e-07 -8.97198e-07 -1.57391e-05
0.000774179 -2.7086e-05 1.01888e-07
-2.7086e-05 -1.83267e-05 -9.3354e-07
1.01888e-07 -9.3354e-07 -7.60469e-05
0.000886686 -1.12749e-05 1.05567e-07
-1.12749e-05 3.09229e-05 3.39624e-08
1.05567e-07 3.39624e-08 -1.28747e-05
0.000954814 1.53907e-05 -1.29167e-07
1.53907e-05 8.38342e-05 -3.27616e-07
-1.29167e-07 -3.27616e-07 1.66106e-05
0.000838782 -1.34574e-05 1.55289e-07
-1.34574e-05 1.94005e-05 2.98618e-07
1.55289e-07 2.98618e-07 -3.90235e-05
0.000990622 2.96701e-06 4.04185e-07
2.96701e-06 0.000102057 3.98192e-07
4.04185e-07 3.98192e-07 3.05524e-05
0.000818366 -3.18667e-05 -2.03004e-07
-3.18667e-05 1.09982e-05 8.37448e-07
-2.03004e-07 8.37448e-07 -5.44986e-05
0.000785621 1.91897e-05 3.91942e-07
1.91897e-05 -8.72209e-06 9.08445e-07
3.91942e-07 9.08445e-07 -6.67271e-05
0.000899448 -1.5139e-06 1.58628e-07
-1.5139e-06 3.63419e-05 7.82471e-07
1.58628e-07 7.82471e-07 -7.20829e-06
0.000843656 5.65379e-06 6.62938e-07
5.65379e-06 -8.30683e-07 1.58518e-06
6.62938e-07 1.58518e-06 -2.76966e-05
0.000850829 -5.05189e-06 -2.64191e-07
-5.05189e-06 2.66826e-06 8.9068e-09
-2.64191e-07 8.9068e-09 -2.35874e-05
0.00132358 -1.12889e-05 1.0054e-06
-1.12889e-05 0.000246677 1.88131e-06
1.0054e-06 1.88131e-06 0.000250008
0.000845686 -1.37818e-05 -2.6894e-07
-1.37818e-05 1.20901e-06 -1.75364e-06
-2.6894e-07 -1.75364e-06 -2.50142e-05
0.00133828 -1.59222e-05 -2.38203e-06
-1.59222e-05 0.000257205 -1.18992e-06
-2.38203e-06 -1.18992e-06 0.000260244
0.00101667 -1.41951e-05 1.10171e-05
-1.41951e-05 8.74746e-05 6.24039e-06
1.10171e-05 6.24039e-06 0.000104408
0.00135278 -2.04897e-05 -5.82225e-06
-2.04897e-05 0.000268775 -4.34053e-06
-5.82225e-06 -4.34053e-06 0.000271023
0.000971212 -1.92916e-05 4.27966e-06
-1.92916e-05 6.74009e-05 2.36584e-06
4.27966e-06 2.36584e-06 8.36015e-05
0.00091714 -2.37578e-05 -2.32088e-06
-2.37578e-05 4.46735e-05 -1.62512e-06
-2.32088e-06 -1.62512e-06 5.92018e-05
0.000764033 2.27476e-05 1.24481e-06
2.27476e-05 -4.03687e-05 -3.30155e-06
1.24481e-06 -3.30155e-06 -4.42022e-05
0.00076668 2.64252e-05 -1.59378e-07
2.64252e-05 -3.36969e-05 2.03153e-08
-1.59378e-07 2.03153e-08 -3.98547e-05
0.00221481 3.86285e-05 1.97208e-05
3.86285e-05 0.000740162 -3.7376e-06
1.97208e-05 -3.7376e-06 0.000758563
0.000776225 2.99815e-05 -2.43678e-06
2.99815e-05 -2.32594e-05 3.35293e-06
-2.43678e-06 3.35293e-06 -3.17296e-05
0.00227243 4.45961e-05 -1.05454e-06
4.45961e-05 0.000777864 -7.48308e-08
-1.05454e-06 -7.48308e-08 0.000794358
0.00233188 4.98862e-05 -2.86963e-05
4.98862e-05 0.00081714 3.55212e-06
-2.86963e-05 3.55212e-06 0.000831653
0.00160213 6.52865e-05 1.50503e-06
6.52865e-05 8.65613e-05 2.01315e-06
1.50503e-06 2.01315e-06 -1.08297e-05
0.00159659 2.05555e-05 2.90582e-07
2.05555e-05 5.38234e-05 -2.03737e-07
2.90582e-07 -2.03737e-07 -4.54674e-05
0.00158681 3.54731e-05 2.00386e-06
3.54731e-05 4.20294e-05 -1.03338e-06
2.00386e-06 -1.03338e-06 -4.85908e-05
0.00168552 3.47111e-06 5.53147e-07
3.47111e-06 8.20773e-05 -1.28193e-06
5.53147e-07 -1.28193e-06 -2.04755e-05
0.00180774 6.89136e-06 5.82749e-07
6.89136e-06 0.000138184 -1.39385e-06
5.82749e-07 -1.39385e-06 2.63327e-05
0.00170106 2.90496e-06 -1.29846e-06
2.90496e-06 9.09842e-05 -8.88087e-08
-1.29846e-06 -8.88087e-08 -2.38226e-05
0.00178851 1.3357e-05 -2.74225e-07
1.3357e-05 0.000113885 -1.28128e-08
-2.74225e-07 -1.28128e-08 2.10902e-07
0.00176059 2.34391e-07 3.14016e-07
2.34391e-07 0.000103846 -3.73823e-07
3.14016e-07 -3.73823e-07 -3.10353e-06
0.00168349 1.64014e-05 4.60482e-07
1.64014e-05 7.6464e-05 -8.98369e-08
4.60482e-07 -8.98369e-08 -1.99603e-05
0.00167558 5.20887e-05 -2.61625e-08
5.20887e-05 8.69293e-05 -1.43408e-07
-2.61625e-08 -1.43408e-07 -3.87638e-06
0.001809 6.87526e-06 -1.38549e-06
6.87526e-06 0.000116002 4.75582e-08
-1.38549e-06 4.75582e-08 7.18444e-06
0.00188661 -3.49381e-06 -7.47509e-07
-3.49381e-06 0.000151075 3.86276e-07
-7.47509e-07 3.86276e-07 5.37824e-05
0.00178943 3.39151e-05 2.01802e-07
3.39151e-05 0.000115856 8.64269e-07
2.01802e-07 8.64269e-07 2.37139e-05
0.00165888 5.28441e-06 -6.27274e-07
5.28441e-06 7.45314e-05 1.60473e-06
-6.27274e-07 1.60473e-06 -3.28972e-05
0.00174419 -7.93327e-06 -1.0988e-06
-7.93327e-06 0.000131271 8.86076e-08
-1.0988e-06 8.86076e-08 2.7922e-05
0.00191516 -4.83307e-05 -1.2602e-06
-4.83307e-05 0.000197059 7.43384e-07
-1.2602e-06 7.43384e-07 9.9575e-05
0.00110936 -9.40427e-05 -2.99389e-07
-9.40427e-05 0.000154564 -5.8225e-07
-2.99389e-07 -5.8225e-07 6.58705e-05
0.00119246 -0.000103434 2.42324e-07
-0.000103434 0.000195782 1.82323e-07
2.42324e-07 1.82323e-07 9.44983e-05
0.00114184 -0.000114356 -1.72706e-06
-0.000114356 0.000112776 1.71066e-06
-1.72706e-06 1.71066e-06 -1.87216e-05
0.00176134 -8.81279e-05 -4.08929e-07
-8.81279e-05 0.000158288 2.12468e-07
-4.08929e-07 2.12468e-07 6.23166e-05
0.00116293 -0.000104335 -3.13097e-06
-0.000104335 -7.5532e-05 4.96594e-07
-3.13097e-06 4.96594e-07 -0.000165768
0.00147229 -0.000124605 -2.14784e-06
-0.000124605 0.000182219 -3.09814e-06
-2.14784e-06 -3.09814e-06 6.41219e-05
0.00106936 -9.20274e-05 2.03963e-07
-9.20274e-05 0.000138688 -1.68835e-06
2.03963e-07 -1.68835e-06 4.91644e-05
0.000910154 -8.34731e-05 -1.57011e-06
-8.34731e-05 5.8633e-05 -2.13683e-06
-1.57011e-06 -2.13683e-06 -3.22784e-05
0.00103565 -7.22656e-05 2.78643e-07
-7.22656e-05 0.000132655 -7.0605e-09
2.78643e-07 -7.0605e-09 4.03806e-05
0.000596524 2.39098e-05 -9.60378e-07
2.39098e-05 -0.000123673 1.09461e-06
-9.60378e-07 1.09461e-06 -0.000158231
0.00104561 -1.68158e-05 -2.32734e-08
-1.68158e-05 0.000123528 1.92803e-07
-2.32734e-08 1.92803e-07 5.38421e-05
0.000759177 2.55575e-05 -1.11114e-07
2.55575e-05 -3.62222e-05 1.00519e-06
-1.11114e-07 1.00519e-06 -9.04187e-05
0.00176664 6.23928e-06 -5.67899e-08
6.23928e-06 0.000112803 -5.12169e-07
-5.67899e-08 -5.12169e-07 6.24151e-06
0.00171949 -1.01854e-05 8.48512e-07
-1.01854e-05 8.87487e-05 -1.14028e-07
8.48512e-07 -1.14028e-07 -1.31656e-05
0.00162309 -5.6212e-05 4.04661e-07
-5.6212e-05 3.07371e-05 -6.53805e-07
4.04661e-07 -6.53805e-07 -7.03143e-05
0.00104111 -9.27706e-05 -7.42399e-09
-9.27706e-05 0.000122673 6.26445e-07
-7.42399e-09 6.26445e-07 2.99692e-05
0.000801362 -9.19484e-05 -1.88248e-07
-9.19484e-05 -5.07887e-06 2.64832e-07
-1.88248e-07 2.64832e-07 -0.000124333
0.00161821 -0.000140561 -1.77456e-06
-0.000140561 0.000330457 1.20461e-06
-1.77456e-06 1.20461e-06 0.000187884
0.00177965 -0.000105759 -1.09564e-06
-0.000105759 0.000127204 8.87509e-07
-1.09564e-06 8.87509e-07 3.55527e-05
0.00147946 -0.000125878 1.62593e-06
-0.000125878 0.000105294 -9.37379e-07
1.62593e-06 -9.37379e-07 -6.81093e-06
0.00072904 1.87719e-05 1.55756e-07
1.87719e-05 -5.60641e-05 -5.67503e-07
1.55756e-07 -5.67503e-07 -8.77055e-05
0.000976778 1.1143e-05 -3.15433e-07
1.1143e-05 8.10656e-05 1.67259e-07
-3.15433e-07 1.67259e-07 2.99709e-05
0.000880973 -8.34633e-05 -8.13417e-07
-8.34633e-05 4.17805e-05 2.26642e-07
-8.13417e-07 2.26642e-07 -4.95695e-05
0.00101125 -8.76958e-05 9.81159e-07
-8.76958e-05 0.000110444 6.2576e-07
9.81159e-07 6.2576e-07 1.69905e-05
0.000943956 -3.13206e-05 -6.30678e-08
-3.13206e-05 7.6544e-05 -3.00077e-07
-6.30678e-08 -3.00077e-07 -6.13278e-06
0.000995899 -2.1784e-05 -5.19221e-07
-2.1784e-05 9.76583e-05 8.51512e-07
-5.19221e-07 8.51512e-07 3.07402e-05
0.00175382 8.12956e-06 -2.47726e-06
8.12956e-06 9.25049e-05 -2.55565e-07
-2.47726e-06 -2.55565e-07 -8.8157e-06
0.00176912 -2.06902e-05 5.9512e-07
-2.06902e-05 9.14877e-05 1.16199e-06
5.9512e-07 1.16199e-06 -8.034e-06
0.00179208 -7.8023e-05 1.79662e-06
-7.8023e-05 7.39091e-05 -2.62032e-06
1.79662e-06 -2.62032e-06 -2.04005e-05
0.00180644 -0.000131098 9.08272e-07
-0.000131098 0.000135475 -1.40433e-06
9.08272e-07 -1.40433e-06 4.34247e-05
0.000725919 -8.00439e-05 -1.49428e-06
-8.00439e-05 -2.18171e-05 9.36951e-07
-1.49428e-06 9.36951e-07 -0.000122141
0.00141477 -0.000137825 -4.1091e-07
-0.000137825 0.000176736 3.30983e-06
-4.1091e-07 3.30983e-06 2.25661e-05
0.00163225 -0.000134697 6.8167e-07
-0.000134697 0.00040871 -2.35119e-06
6.8167e-07 -2.35119e-06 0.000271636
0.000849828 1.50491e-05 6.11367e-07
1.50491e-05 5.06971e-06 -1.6501e-06
6.11367e-07 -1.6501e-06 -2.35546e-05
0.000860588 -4.09282e-05 8.74687e-07
-4.09282e-05 2.57315e-05 -8.39043e-07
8.74687e-07 -8.39043e-07 -2.17514e-05
0.000749779 1.09514e-05 4.39036e-07
1.09514e-05 -3.60878e-05 -1.43469e-06
4.39036e-07 -1.43469e-06 -8.81568e-05
0.000958231 -2.68228e-05 8.40717e-07
-2.68228e-05 7.90952e-05 -1.07507e-07
8.40717e-07 -1.07507e-07 1.42603e-05
0.000960242 8.35797e-06 -1.68546e-07
8.35797e-06 8.07264e-05 -2.10413e-07
-1.68546e-07 -2.10413e-07 6.91181e-06
0.000861584 -8.50505e-05 2.10797e-06
-8.50505e-05 4.96572e-05 1.67663e-06
2.10797e-06 1.67663e-06 -4.90607e-05
0.000797574 -7.94392e-05 -1.76055e-06
-7.94392e-05 -1.84659e-05 2.16444e-06
-1.76055e-06 2.16444e-06 -0.000104127
0.00171457 -0.000124115 -1.26848e-06
-0.000124115 0.000488193 2.75794e-06
-1.26848e-06 2.75794e-06 0.000391811
0.000873617 -2.2703e-05 -4.41359e-07
-2.2703e-05 2.8812e-05 -1.17479e-06
-4.41359e-07 -1.17479e-06 -2.12912e-05
0.000909547 9.59178e-06 -4.42088e-07
9.59178e-06 5.37097e-05 -3.24752e-07
-4.42088e-07 -3.24752e-07 -1.51701e-05
0.00188471 9.07927e-05 6.35119e-07
9.07927e-05 0.00021393 6.40327e-07
6.35119e-07 6.40327e-07 0.000123346
0.000939496 2.25299e-05 -6.77e-07
2.25299e-05 8.04841e-05 -6.22437e-07
-6.77e-07 -6.22437e-07 -6.53641e-06
0.00105362 9.39485e-05 -8.95199e-07
9.39485e-05 0.000157545 -2.04411e-06
-8.95199e-07 -2.04411e-06 5.40745e-05
0.000857273 5.91935e-05 -1.88824e-06
5.91935e-05 4.66895e-05 -4.13242e-07
-1.88824e-06 -4.13242e-07 -5.47303e-05
0.00159111 0.000136168 -1.04308e-07
0.000136168 0.00023669 6.46239e-07
-1.04308e-07 6.46239e-07 0.000124379
0.00141977 0.00012592 1.51147e-06
0.00012592 7.97473e-05 3.87321e-06
1.51147e-06 3.87321e-06 -6.06783e-06
0.000886461 9.39939e-05 -2.45895e-07
9.39939e-05 5.40475e-05 5.60482e-07
-2.45895e-07 5.60482e-07 -7.10836e-05
0.00112942 0.000120901 -4.35189e-06
0.000120901 9.18981e-05 -1.02967e-06
-4.35189e-06 -1.02967e-06 -5.22709e-05
0.000813141 4.17275e-06 2.151e-07
4.17275e-06 2.29448e-06 4.76905e-07
2.151e-07 4.76905e-07 -6.21579e-05
0.000859586 4.09239e-05 -1.43799e-07
4.09239e-05 3.70297e-05 -7.6051e-07
-1.43799e-07 -7.6051e-07 -4.7295e-05
0.00108408 9.65485e-05 -5.14843e-07
9.65485e-05 0.000174926 -1.01654e-06
-5.14843e-07 -1.01654e-06 6.12967e-05
0.000877086 5.60376e-05 -2.76788e-07
5.60376e-05 5.18162e-05 -2.20305e-07
-2.76788e-07 -2.20305e-07 -5.10583e-05
0.00203885 5.91552e-05 -1.16877e-07
5.91552e-05 0.000226534 1.11127e-06
-1.16877e-07 1.11127e-06 0.000138779
0.0014272 0.000108413 1.77342e-06
0.000108413 -3.85869e-05 -1.36177e-06
1.77342e-06 -1.36177e-06 -0.000116631
0.0017743 0.000153211 -2.2818e-06
0.000153211 0.000319457 -2.02977e-07
-2.2818e-06 -2.02977e-07 0.000192338
0.000719208 9.59743e-05 9.39219e-07
9.59743e-05 -5.72847e-05 3.81004e-07
9.39219e-07 3.81004e-07 -0.000207303
0.000957401 6.47731e-06 3.98298e-07
6.47731e-06 8.09178e-05 5.40834e-07
3.98298e-07 5.40834e-07 8.76503e-06
0.00158877 2.61061e-05 -2.34749e-06
2.61061e-05 -6.38553e-06 -1.38182e-06
-2.34749e-06 -1.38182e-06 -8.78442e-05
0.00112933 8.28914e-05 4.50505e-07
8.28914e-05 0.000191726 1.62196e-06
4.50505e-07 1.62196e-06 9.18014e-05
0.00108969 9.95197e-05 8.93828e-07
9.95197e-05 0.000158248 1.3981e-06
8.93828e-07 1.3981e-06 3.54638e-05
0.00217124 8.82969e-05 7.72146e-07
8.82969e-05 0.000228935 -3.01468e-07
7.72146e-07 -3.01468e-07 0.000158475
0.00160739 0.000151376 4.0715e-06
0.000151376 9.04041e-05 -4.0171e-06
4.0715e-06 -4.0171e-06 -1.96185e-05
0.00170146 0.000147646 6.91355e-07
0.000147646 0.000394814 1.77726e-06
6.91355e-07 1.77726e-06 0.000229624
0.000973842 -6.55004e-08 -1.0435e-06
-6.55004e-08 8.57533e-05 -4.09802e-07
-1.0435e-06 -4.09802e-07 2.63859e-05
0.000964224 -6.66452e-06 -4.11833e-08
-6.66452e-06 8.39173e-05 5.08129e-08
-4.11833e-08 5.08129e-08 1.62172e-05
0.000961561 -4.93705e-07 4.15028e-07
-4.93705e-07 8.70109e-05 9.79738e-07
4.15028e-07 9.79738e-07 1.14235e-05
0.00088206 -1.30164e-05 -1.36613e-07
-1.30164e-05 2.91861e-05 -8.72964e-07
-1.36613e-07 -8.72964e-07 -1.50216e-05
0.000879238 -5.52846e-06 6.6535e-08
-5.52846e-06 4.14015e-05 -9.78883e-08
6.6535e-08 -9.78883e-08 -1.72983e-05
0.000870849 6.52576e-06 -3.6495e-07
6.52576e-06 3.98957e-05 -1.07378e-06
-3.6495e-07 -1.07378e-06 -2.8499e-05
0.000890057 -1.78799e-05 -1.14801e-07
-1.78799e-05 3.28678e-05 2.2958e-08
-1.14801e-07 2.2958e-08 -1.16273e-05
0.000802902 -1.47656e-05 -4.48615e-07
-1.47656e-05 -8.86654e-07 3.65267e-07
-4.48615e-07 3.65267e-07 -5.81809e-05
0.000959453 -1.06732e-05 2.31835e-07
-1.06732e-05 8.47144e-05 -3.83515e-07
2.31835e-07 -3.83515e-07 1.25622e-05
0.00092023 3.53201e-06 8.26041e-08
3.53201e-06 6.68827e-05 4.70228e-07
8.26041e-08 4.70228e-07 5.26043e-07
0.000954087 4.68365e-06 4.70738e-07
4.68365e-06 8.26434e-05 -1.69185e-08
4.70738e-07 -1.69185e-08 5.97382e-06
0.000849428 -2.75814e-05 7.21646e-08
-2.75814e-05 2.72657e-05 7.24142e-07
7.21646e-08 7.24142e-07 -4.43134e-05
0.000961055 1.0945e-05 3.3703e-07
1.0945e-05 8.57174e-05 2.20844e-07
3.3703e-07 2.20844e-07 2.21067e-05
0.000897571 7.88479e-06 9.68103e-07
7.88479e-06 4.89407e-05 5.49609e-07
9.68103e-07 5.49609e-07 -8.93052e-06
0.000896066 2.34254e-06 2.3735e-07
2.34254e-06 3.4756e-05 7.33066e-07
2.3735e-07 7.33066e-07 -9.3724e-06
0.000840719 9.32932e-06 3.99792e-07
9.32932e-06 -1.39204e-06 1.56099e-06
3.99792e-07 1.56099e-06 -2.89668e-05
0.000846721 -1.32611e-06 -1.61222e-07
-1.32611e-06 8.244e-07 2.08836e-09
-1.61222e-07 2.08836e-09 -2.60587e-05
0.00132949 -5.52934e-06 7.58811e-07
-5.52934e-06 0.000248512 1.84087e-06
7.58811e-07 1.84087e-06 0.000251629
0.000851907 -1.17843e-05 -2.23726e-07
-1.17843e-05 3.35709e-06 -1.62329e-06
-2.23726e-07 -1.62329e-06 -2.29581e-05
0.00134663 -1.02394e-05 -1.75198e-06
-1.02394e-05 0.000259225 -1.21106e-06
-1.75198e-06 -1.21106e-06 0.000262394
0.00102355 -9.83345e-06 8.11749e-06
-9.83345e-06 8.85698e-05 6.32009e-06
8.11749e-06 6.32009e-06 0.000105678
0.00135994 -1.50838e-05 -4.30834e-06
-1.50838e-05 0.000268715 -4.28224e-06
-4.30834e-06 -4.28224e-06 0.000271658
0.000980445 -1.48053e-05 3.005e-06
-1.48053e-05 6.78412e-05 2.38744e-06
3.005e-06 2.38744e-06 8.48581e-05
0.000925669 -1.94113e-05 -1.71267e-06
-1.94113e-05 4.32201e-05 -1.58371e-06
-1.71267e-06 -1.58371e-06 5.94805e-05
0.000845111 1.12241e-05 3.26951e-07
1.12241e-05 1.9226e-07 -1.59616e-06
3.26951e-07 -1.59616e-06 -2.62711e-05
0.000775582 1.85531e-05 9.97459e-07
1.85531e-05 -3.94119e-05 -3.20032e-06
9.97459e-07 -3.20032e-06 -4.11332e-05
0.000779175 2.30214e-05 -1.27525e-07
2.30214e-05 -3.2491e-05 2.56608e-08
-1.27525e-07 2.56608e-08 -3.641e-05
0.00216032 3.22748e-05 1.63936e-05
3.22748e-05 0.000705637 -3.78828e-06
1.63936e-05 -3.78828e-06 0.000725689
0.000782801 2.66806e-05 -2.01445e-06
2.66806e-05 -2.52435e-05 3.31332e-06
-2.01445e-06 3.31332e-06 -3.14864e-05
0.00222218 3.86825e-05 -1.2769e-06
3.86825e-05 0.000744907 -6.82768e-08
-1.2769e-06 -6.82768e-08 0.000763113
0.00227545 4.43847e-05 -2.51927e-05
4.43847e-05 0.000780348 3.67693e-06
-2.51927e-05 3.67693e-06 0.00079669
0.00148712 4.70146e-05 7.94464e-07
4.70146e-05 -1.01129e-05 -1.91399e-07
7.94464e-07 -1.91399e-07 -0.000100632
0.00166112 1.67035e-05 6.72918e-07
1.67035e-05 6.45288e-05 -5.70401e-07
6.72918e-07 -5.70401e-07 -3.18721e-05
0.0017683 7.13705e-08 9.87548e-07
7.13705e-08 0.000107928 -1.30408e-06
9.87548e-07 -1.30408e-06 1.04594e-06
0.00175265 1.48696e-05 2.86353e-07
1.48696e-05 0.000100454 1.61893e-07
2.86353e-07 1.61893e-07 -1.18985e-05
0.00181257 7.47932e-06 -1.90934e-08
7.47932e-06 0.000116403 2.84251e-07
-1.90934e-08 2.84251e-07 7.62846e-06
0.0018321 -2.51352e-06 1.17527e-07
-2.51352e-06 0.000122242 -1.03479e-07
1.17527e-07 -1.03479e-07 2.41523e-05
0.00172519 3.41126e-05 3.14949e-07
3.41126e-05 8.34341e-05 3.66828e-07
3.14949e-07 3.66828e-07 -8.63708e-06
0.00183345 -1.5211e-06 -1.5417e-06
-1.5211e-06 0.000116639 4.02031e-07
-1.5417e-06 4.02031e-07 1.70762e-05
0.00188055 8.6423e-06 -2.67582e-06
8.6423e-06 0.000140622 3.14978e-07
-2.67582e-06 3.14978e-07 5.15322e-05
0.00182769 5.92062e-06 -1.04734e-06
5.92062e-06 9.4975e-05 3.30162e-07
-1.04734e-06 3.30162e-07 2.10409e-05
0.00175953 6.9383e-06 8.61149e-07
6.9383e-06 0.000107918 4.6321e-07
8.61149e-07 4.6321e-07 4.22949e-07
0.00173406 -1.21308e-05 -5.97885e-07
-1.21308e-05 9.62779e-05 -7.62048e-07
-5.97885e-07 -7.62048e-07 -6.20803e-06
0.00182953 -5.84468e-05 -1.75214e-06
-5.84468e-05 0.000132733 -2.4533e-07
-1.75214e-06 -2.4533e-07 3.12631e-05
0.00111297 -9.59712e-05 -8.43321e-08
-9.59712e-05 0.000157858 2.8128e-07
-8.43321e-08 2.8128e-07 6.47004e-05
0.000873302 -9.42494e-05 4.47876e-07
-9.42494e-05 3.73816e-05 2.85318e-06
4.47876e-07 2.85318e-06 -7.91802e-05
0.00162408 -0.000140194 -2.50311e-06
-0.000140194 0.00032986 2.44297e-06
-2.50311e-06 2.44297e-06 0.000188287
0.00182527 -0.000108371 2.83005e-06
-0.000108371 0.000159909 2.89688e-06
2.83005e-06 2.89688e-06 6.86457e-05
0.00129015 -0.000119396 -2.20571e-06
-0.000119396 6.09452e-06 -2.28227e-06
-2.20571e-06 -2.28227e-06 -0.000105473
0.000695464 -7.51653e-05 -1.2061e-06
-7.51653e-05 -5.4182e-05 -9.20816e-07
-1.2061e-06 -9.20816e-07 -0.000144874
0.00109004 -9.04077e-05 2.15173e-06
-9.04077e-05 0.000150127 -2.81654e-06
2.15173e-06 -2.81654e-06 5.80018e-05
0.000902414 1.64524e-06 -2.86064e-08
1.64524e-06 5.01634e-05 -3.90037e-07
-2.86064e-08 -3.90037e-07 -2.96663e-05
0.000835996 1.84183e-05 -7.80641e-07
1.84183e-05 8.04527e-08 1.12946e-06
-7.80641e-07 1.12946e-06 -3.05049e-05
0.000965396 2.56233e-05 -6.2744e-07
2.56233e-05 7.514e-05 1.02195e-06
-6.2744e-07 1.02195e-06 2.41738e-05
0.000935085 -1.06276e-05 -5.7907e-07
-1.06276e-05 6.61142e-05 1.12147e-06
-5.7907e-07 1.12147e-06 -1.28709e-06
0.0017925 8.59119e-06 3.03517e-07
8.59119e-06 0.000112078 -5.78922e-09
3.03517e-07 -5.78922e-09 1.19987e-05
0.000848501 1.42479e-05 1.04749e-08
1.42479e-05 3.99669e-06 1.19706e-08
1.04749e-08 1.19706e-08 -2.45843e-05
0.000793836 -3.78022e-06 -3.24018e-07
-3.78022e-06 -1.29741e-05 6.86439e-08
-3.24018e-07 6.86439e-08 -5.85843e-05
0.00181153 -2.15354e-05 -1.46395e-07
-2.15354e-05 0.00011229 -4.82759e-07
-1.46395e-07 -4.82759e-07 1.21171e-05
0.00172675 -7.74869e-05 -7.32622e-08
-7.74869e-05 4.65533e-05 -4.37122e-07
-7.32622e-08 -4.37122e-07 -5.07187e-05
0.000771614 -8.14845e-05 1.03185e-07
-8.14845e-05 4.32772e-06 1.69473e-06
1.03185e-07 1.69473e-06 -9.43229e-05
0.00136882 -0.000122853 -7.56536e-07
-0.000122853 0.000273262 3.75053e-07
-7.56536e-07 3.75053e-07 0.000131828
0.00125226 -0.000129083 8.69481e-07
-0.000129083 8.77084e-05 9.84017e-07
8.69481e-07 9.84017e-07 -5.96937e-05
0.00176566 -0.000131052 4.75096e-07
-0.000131052 0.000120143 -1.26277e-07
4.75096e-07 -1.26277e-07 2.85266e-05
0.000929515 -1.13544e-05 9.63669e-07
-1.13544e-05 5.8589e-05 -4.81075e-07
9.63669e-07 -4.81075e-07 8.141e-06
0.00093811 -1.44955e-05 -4.37756e-07
-1.44955e-05 6.9779e-05 4.30181e-07
-4.37756e-07 4.30181e-07 4.28968e-06
0.000920344 -8.50653e-05 3.65812e-07
-8.50653e-05 4.17769e-05 4.91617e-07
3.65812e-07 4.91617e-07 -4.62524e-05
0.001259 -0.000103477 6.76112e-07
-0.000103477 0.000250404 -1.02502e-06
6.76112e-07 -1.02502e-06 0.000161062
0.000813908 -6.1147e-05 -1.71976e-08
-6.1147e-05 2.2993e-05 2.98883e-07
-1.71976e-08 2.98883e-07 -7.49257e-05
0.00095234 4.17963e-06 3.89457e-08
4.17963e-06 7.74514e-05 -2.37594e-07
3.89457e-08 -2.37594e-07 2.59568e-06
0.00177082 5.59403e-06 -2.74534e-06
5.59403e-06 8.10099e-05 -6.69128e-08
-2.74534e-06 -6.69128e-08 -5.67433e-06
0.00207585 -2.80926e-05 7.32987e-07
-2.80926e-05 0.000225897 2.22417e-06
7.32987e-07 2.22417e-06 0.000126265
0.00172394 -0.00011482 -2.73695e-06
-0.00011482 -1.20155e-05 -4.30419e-06
-2.73695e-06 -4.30419e-06 -8.86637e-05
0.00133339 -0.000139646 5.13958e-07
-0.000139646 -8.31674e-06 1.68276e-06
5.13958e-07 1.68276e-06 -0.000124431
0.00111137 -8.60597e-05 -2.35104e-06
-8.60597e-05 0.000172775 -5.84154e-07
-2.35104e-06 -5.84154e-07 7.04851e-05
0.00175621 -0.000155231 -1.68809e-06
-0.000155231 0.000442119 -4.6772e-07
-1.68809e-06 -4.6772e-07 0.000270512
0.000710689 3.37939e-05 -9.55938e-07
3.37939e-05 -5.56814e-05 -1.25805e-06
-9.55938e-07 -1.25805e-06 -0.000100614
0.000861541 -1.70164e-05 5.47764e-07
-1.70164e-05 2.1749e-05 -9.61391e-07
5.47764e-07 -9.61391e-07 -2.52915e-05
0.00107064 -3.02291e-05 4.47738e-07
-3.02291e-05 0.000146151 -2.9494e-07
4.47738e-07 -2.9494e-07 8.70794e-05
0.000790253 1.80766e-05 -6.19488e-07
1.80766e-05 -3.83883e-06 -7.31853e-07
-6.19488e-07 -7.31853e-07 -7.1036e-05
0.00107824 -4.32223e-06 1.60036e-07
-4.32223e-06 0.000145499 -6.20925e-08
1.60036e-07 -6.20925e-08 7.38987e-05
0.000717121 -1.09518e-05 1.69126e-07
-1.09518e-05 -3.08694e-05 6.97499e-07
1.69126e-07 6.97499e-07 -0.000116171
0.00115931 -6.91458e-05 4.40415e-06
-6.91458e-05 0.000217148 3.47659e-07
4.40415e-06 3.47659e-07 0.000110437
0.000848928 -8.9242e-05 -5.44398e-06
-8.9242e-05 2.59949e-05 2.58815e-06
-5.44398e-06 2.58815e-06 -5.90459e-05
0.000810589 1.61353e-05 -3.90269e-07
1.61353e-05 2.5618e-06 -4.23153e-07
-3.90269e-07 -4.23153e-07 -6.37029e-05
0.00090519 4.36706e-05 -1.41013e-06
4.36706e-05 6.16264e-05 -1.6911e-06
-1.41013e-06 -1.6911e-06 -2.25547e-05
0.00196605 5.57456e-05 1.39963e-06
5.57456e-05 0.000183124 8.4374e-07
1.39963e-06 8.4374e-07 9.33294e-05
0.00157378 0.000111671 -1.88312e-07
0.000111671 4.84082e-05 9.16174e-07
-1.88312e-07 9.16174e-07 -3.05649e-05
0.00110427 6.06269e-05 -1.95685e-06
6.06269e-05 0.000168912 -1.06693e-06
-1.95685e-06 -1.06693e-06 6.64451e-05
0.00106944 9.58592e-05 -2.0324e-06
9.58592e-05 0.000168566 -2.18777e-06
-2.0324e-06 -2.18777e-06 5.55774e-05
0.00222697 0.000169192 -2.04887e-06
0.000169192 0.000547375 1.99901e-06
-2.04887e-06 1.99901e-06 0.00042284
0.00104565 0.000113319 -1.84906e-06
0.000113319 0.000100147 -8.30205e-07
-1.84906e-06 -8.30205e-07 -4.88792e-05
0.000941156 1.87295e-05 4.89662e-08
1.87295e-05 7.5042e-05 -4.95965e-07
4.89662e-08 -4.95965e-07 1.43015e-06
0.00175758 2.55766e-05 -8.27681e-07
2.55766e-05 7.90691e-05 7.00985e-08
-8.27681e-07 7.00985e-08 -2.00807e-06
0.000992597 6.92531e-05 1.42204e-07
6.92531e-05 0.000118498 7.57353e-07
1.42204e-07 7.57353e-07 2.053e-05
0.000903938 9.0062e-05 2.17502e-08
9.0062e-05 6.39835e-05 -1.96714e-07
2.17502e-08 -1.96714e-07 -6.04391e-05
0.00186284 8.31608e-05 1.32075e-06
8.31608e-05 7.82334e-05 -2.73796e-07
1.32075e-06 -2.73796e-07 7.23944e-06
0.00189735 0.000161811 7.46241e-07
0.000161811 0.0002295 -4.93313e-07
7.46241e-07 -4.93313e-07 0.000120391
0.00168901 0.000148529 4.46248e-07
0.000148529 0.000395534 9.33827e-07
4.46248e-07 9.33827e-07 0.00023193
0.00102045 3.27863e-05 3.65978e-08
3.27863e-05 0.000125946 9.74448e-07
3.65978e-08 9.74448e-07 3.91811e-05
0.00225068 4.79757e-05 -3.00224e-06
4.79757e-05 0.000281942 -8.52399e-07
-3.00224e-06 -8.52399e-07 0.000218209
0.00153507 0.000101389 -1.07412e-06
0.000101389 0.000385861 4.19252e-07
-1.07412e-06 4.19252e-07 0.000277515
0.00183396 0.000141971 -1.70829e-06
0.000141971 0.000527903 1.31023e-06
-1.70829e-06 1.31023e-06 0.000383709
0.00199495 0.000158479 4.07566e-06
0.000158479 0.000111595 -1.62369e-06
4.07566e-06 -1.62369e-06 5.20235e-05
0.00104529 0.00013058 -5.31117e-07
0.00013058 -2.71408e-05 -3.87616e-07
-5.31117e-07 -3.87616e-07 -0.000180428
0.000701449 6.12081e-05 1.26275e-05
6.12081e-05 -0.000266368 1.67174e-06
1.26275e-05 1.67174e-06 -0.000349689
0.000969076 -4.44703e-06 -2.95986e-07
-4.44703e-06 8.64242e-05 -7.52477e-07
-2.95986e-07 -7.52477e-07 1.86742e-05
0.000961604 1.28355e-06 5.53895e-08
1.28355e-06 8.72745e-05 -1.59581e-08
5.53895e-08 -1.59581e-08 1.15837e-05
0.000987993 1.69608e-05 2.69072e-07
1.69608e-05 9.89492e-05 2.05419e-07
2.69072e-07 2.05419e-07 1.74232e-05
0.000879388 -2.69348e-05 1.49806e-08
-2.69348e-05 2.81998e-05 -8.02677e-07
1.49806e-08 -8.02677e-07 -1.69059e-05
0.000810316 -3.99434e-05 -4.34981e-07
-3.99434e-05 3.36298e-06 -1.84594e-07
-4.34981e-07 -1.84594e-07 -5.41954e-05
0.00101336 4.08925e-05 -7.97664e-07
4.08925e-05 0.000118683 -7.77093e-08
-7.97664e-07 -7.77093e-08 5.12394e-05
0.000934197 -1.31233e-05 -7.96021e-09
-1.31233e-05 7.09295e-05 -1.00626e-06
-7.96021e-09 -1.00626e-06 -2.21638e-06
0.00088001 -1.65162e-05 -2.0657e-07
-1.65162e-05 2.91983e-05 3.59771e-08
-2.0657e-07 3.59771e-08 -1.68436e-05
0.000831977 -1.97425e-06 1.73864e-07
-1.97425e-06 1.08567e-05 6.29298e-09
1.73864e-07 6.29298e-09 -4.51221e-05
0.000936168 1.14363e-06 2.39833e-07
1.14363e-06 7.29142e-05 -5.8652e-07
2.39833e-07 -5.8652e-07 -3.94459e-06
0.000961121 -1.18087e-05 -2.07792e-07
-1.18087e-05 8.52166e-05 -1.43916e-07
-2.07792e-07 -1.43916e-07 2.15814e-05
0.000938907 -2.05406e-05 1.87484e-07
-2.05406e-05 7.46027e-05 -1.68186e-08
1.87484e-07 -1.68186e-08 3.67105e-06
0.00092966 -4.09019e-06 -9.3682e-08
-4.09019e-06 6.81508e-05 3.47992e-07
-9.3682e-08 3.47992e-07 -7.98336e-06
0.000945107 1.45106e-06 4.50781e-07
1.45106e-06 7.805e-05 -5.56e-08
4.50781e-07 -5.56e-08 1.14065e-05
0.00100208 7.76409e-06 5.74097e-07
7.76409e-06 0.000101669 -1.46929e-07
5.74097e-07 -1.46929e-07 3.9821e-05
0.000827833 7.83365e-06 -1.6016e-07
7.83365e-06 8.2148e-06 5.74124e-07
-1.6016e-07 5.74124e-07 -5.09063e-05
0.000755579 5.70038e-06 3.09162e-07
5.70038e-06 -3.96841e-05 1.20566e-06
3.09162e-07 1.20566e-06 -8.56397e-05
0.00103287 -4.79096e-06 2.8503e-07
-4.79096e-06 0.000123575 4.35137e-08
2.8503e-07 4.35137e-08 6.29488e-05
0.000745783 5.48434e-06 -4.01659e-07
5.48434e-06 -4.27028e-05 1.19818e-06
-4.01659e-07 1.19818e-06 -8.9413e-05
0.000842223 1.19249e-05 2.45195e-07
1.19249e-05 -3.92342e-08 1.56636e-06
2.45195e-07 1.56636e-06 -2.7968e-05
0.000840844 1.63904e-06 -2.31291e-07
1.63904e-06 -1.35003e-06 4.13509e-09
-2.31291e-07 4.13509e-09 -2.889e-05
0.000790124 5.05586e-07 2.45934e-07
5.05586e-07 -3.92611e-05 3.06062e-06
2.45934e-07 3.06062e-06 -3.94831e-05
0.000850241 -8.5273e-06 7.19497e-08
-8.5273e-06 2.73274e-06 -1.55873e-06
7.19497e-08 -1.55873e-06 -2.41713e-05
0.00107407 -4.37581e-06 -1.09282e-06
-4.37581e-06 0.000112452 -1.25233e-06
-1.09282e-06 -1.25233e-06 0.000113978
0.00211323 -6.80459e-06 4.9603e-06
-6.80459e-06 0.0006682 3.96989e-06
4.9603e-06 3.96989e-06 0.000691215
0.00136932 -9.56557e-06 -2.70478e-06
-9.56557e-06 0.000271538 -4.27081e-06
-2.70478e-06 -4.27081e-06 0.000274518
0.000989692 -1.01173e-05 1.63524e-06
-1.01173e-05 6.98406e-05 2.42443e-06
1.63524e-06 2.42443e-06 8.71442e-05
0.00094037 -1.4636e-05 -1.22439e-06
-1.4636e-05 4.62501e-05 -1.55375e-06
-1.22439e-06 -1.55375e-06 6.3449e-05
0.000852918 7.5493e-06 2.37488e-07
7.5493e-06 2.89001e-06 -1.58337e-06
2.37488e-07 -1.58337e-06 -2.19449e-05
0.000850777 1.06252e-05 -3.67851e-08
1.06252e-05 2.89966e-06 1.10964e-08
-3.67851e-08 1.10964e-08 -2.35778e-05
0.000783821 1.40863e-05 5.69421e-07
1.40863e-05 -3.91426e-05 -3.15082e-06
5.69421e-07 -3.15082e-06 -3.91868e-05
0.00106972 2.06857e-05 -4.80304e-07
2.06857e-05 0.000117407 3.10346e-08
-4.80304e-07 3.10346e-08 0.000117005
0.0021189 2.56895e-05 1.34384e-05
2.56895e-05 0.000678821 -3.85433e-06
1.34384e-05 -3.85433e-06 0.000700273
0.000793902 2.33008e-05 -1.48439e-06
2.33008e-05 -2.48191e-05 3.28428e-06
-1.48439e-06 3.28428e-06 -2.88233e-05
0.0021685 3.24984e-05 -1.34839e-06
3.24984e-05 0.000710719 -6.08635e-08
-1.34839e-06 -6.08635e-08 0.00073056
0.00223213 3.86826e-05 -2.18265e-05
3.86826e-05 0.000751016 3.77011e-06
-2.18265e-05 3.77011e-06 0.000769026
0.00163942 3.43468e-05 -2.35006e-07
3.43468e-05 4.0097e-05 4.38259e-07
-2.35006e-07 4.38259e-07 -5.19075e-05
0.00177462 -7.19641e-07 1.26819e-06
-7.19641e-07 9.1793e-05 -8.05332e-07
1.26819e-06 -8.05332e-07 -7.097e-06
0.00178544 3.92515e-06 8.66718e-07
3.92515e-06 0.000101697 3.44522e-07
8.66718e-07 3.44522e-07 -7.15313e-06
0.00180849 1.89422e-06 1.62899e-07
1.89422e-06 0.000103513 3.39191e-07
1.62899e-07 3.39191e-07 3.84658e-06
0.00181376 8.74064e-06 -1.49575e-07
8.74064e-06 0.000106147 -2.83755e-11
-1.49575e-07 -2.83755e-11 1.62343e-05
0.00179597 3.37261e-06 1.71276e-06
3.37261e-06 9.58198e-05 2.72027e-08
1.71276e-06 2.72027e-08 2.35277e-05
0.00172361 8.13545e-06 -2.24558e-06
8.13545e-06 4.69262e-05 2.42869e-07
-2.24558e-06 2.42869e-07 -3.55504e-05
0.00378658 -7.50565e-05 4.30169e-06
-7.50565e-05 0.00101122 -1.42461e-06
4.30169e-06 -1.42461e-06 0.000963299
0.00140798 4.71263e-06 -1.10252e-06
4.71263e-06 -0.000150089 1.56358e-07
-1.10252e-06 1.56358e-07 -0.000211102
0.000883829 1.75545e-05 9.52332e-08
1.75545e-05 3.25757e-05 -7.31436e-07
9.52332e-08 -7.31436e-07 -8.63775e-06
0.00178506 8.71581e-06 1.60835e-06
8.71581e-06 0.000108266 -3.80497e-07
1.60835e-06 -3.80497e-07 9.38569e-06
0.00182457 -2.24038e-05 -1.3236e-06
-2.24038e-05 0.000117206 -1.6023e-06
-1.3236e-06 -1.6023e-06 1.65308e-05
0.00166537 -7.65279e-05 1.60156e-06
-7.65279e-05 2.09353e-05 1.06876e-06
1.60156e-06 1.06876e-06 -7.86575e-05
0.000848866 -8.43004e-05 1.56537e-06
-8.43004e-05 4.68035e-05 9.71854e-07
1.56537e-06 9.71854e-07 -5.02941e-05
0.00116876 -0.00011362 4.24815e-07
-0.00011362 0.00017234 2.91382e-06
4.24815e-07 2.91382e-06 2.43967e-05
0.00117252 -0.000124393 1.1684e-06
-0.000124393 4.33942e-05 -1.12687e-06
1.1684e-06 -1.12687e-06 -9.92544e-05
0.00180659 -0.000133359 -1.423e-07
-0.000133359 0.00014616 -7.97588e-07
-1.423e-07 -7.97588e-07 5.46758e-05
0.00106009 -8.96222e-05 3.46971e-06
-8.96222e-05 0.000110879 -2.9712e-06
3.46971e-06 -2.9712e-06 2.06765e-05
0.00072764 -7.98067e-05 -2.55039e-06
-7.98067e-05 -2.64292e-05 -6.94048e-06
-2.55039e-06 -6.94048e-06 -0.000108497
0.00072228 -5.64672e-05 3.38856e-07
-5.64672e-05 -2.38011e-05 4.20179e-07
3.38856e-07 4.20179e-07 -0.000122455
0.000849543 1.36468e-05 -7.41754e-07
1.36468e-05 4.26176e-06 1.70173e-06
-7.41754e-07 1.70173e-06 -2.43009e-05
0.00094746 -6.297e-06 -4.49241e-08
-6.297e-06 7.53252e-05 -5.28221e-07
-4.49241e-08 -5.28221e-07 -4.54965e-07
0.00111115 -3.47741e-05 -4.49277e-07
-3.47741e-05 0.000156561 4.94377e-07
-4.49277e-07 4.94377e-07 0.000106198
0.000923861 -3.96637e-06 -4.99444e-07
-3.96637e-06 6.29069e-05 1.03499e-06
-4.99444e-07 1.03499e-06 -2.87102e-06
0.000721883 4.94442e-06 1.78274e-07
4.94442e-06 -5.33848e-05 7.91729e-07
1.78274e-07 7.91729e-07 -9.78013e-05
0.00176458 4.88698e-06 -4.89301e-07
4.88698e-06 8.055e-05 -1.70069e-07
-4.89301e-07 -1.70069e-07 -5.6881e-06
0.000796698 1.22434e-05 2.16736e-07
1.22434e-05 -1.05155e-05 -4.958e-07
2.16736e-07 -4.958e-07 -5.48922e-05
0.00087005 -2.4068e-05 -4.21606e-07
-2.4068e-05 2.82869e-05 2.32224e-08
-4.21606e-07 2.32224e-08 -2.03807e-05
0.000910163 -1.10275e-05 -7.31145e-07
-1.10275e-05 6.19352e-05 4.71752e-07
-7.31145e-07 4.71752e-07 1.37864e-06
0.00184267 -2.81037e-05 1.39522e-06
-2.81037e-05 9.96179e-05 -7.52385e-09
1.39522e-06 -7.52385e-09 1.10268e-06
0.00193595 -0.000119665 -1.7334e-06
-0.000119665 0.000108067 -3.51613e-08
-1.7334e-06 -3.51613e-08 2.86253e-05
0.000902866 -8.19218e-05 -5.66338e-07
-8.19218e-05 5.4409e-05 3.39172e-07
-5.66338e-07 3.39172e-07 -4.47152e-05
0.00111961 -0.000124173 2.18478e-07
-0.000124173 0.000132821 -6.64136e-07
2.18478e-07 -6.64136e-07 -4.30337e-05
0.00147868 -0.000147306 4.51825e-07
-0.000147306 6.56213e-05 5.47595e-07
4.51825e-07 5.47595e-07 -5.1872e-05
0.000892926 9.26506e-06 -1.76166e-07
9.26506e-06 5.04828e-05 4.11519e-08
-1.76166e-07 4.11519e-08 -1.61188e-05
0.000992342 -1.99423e-05 -1.54985e-07
-1.99423e-05 0.00010374 2.79192e-08
-1.54985e-07 2.79192e-08 2.99497e-05
0.000776314 -8.65805e-05 -3.7227e-06
-8.65805e-05 -8.22459e-06 7.78366e-07
-3.7227e-06 7.78366e-07 -9.67352e-05
0.00106487 -5.24391e-05 4.91308e-07
-5.24391e-05 0.000166243 -4.83079e-07
4.91308e-07 -4.83079e-07 6.23004e-05
0.00088509 -2.5848e-05 2.25807e-07
-2.5848e-05 5.71543e-05 7.19874e-07
2.25807e-07 7.19874e-07 -2.83392e-05
0.00201928 -1.01852e-05 -2.32038e-06
-1.01852e-05 0.000181114 6.11598e-07
-2.32038e-06 6.11598e-07 9.96003e-05
0.00239084 -6.51029e-05 -7.12618e-07
-6.51029e-05 0.000316256 3.81126e-07
-7.12618e-07 3.81126e-07 0.000234462
0.00163137 -0.000154943 2.99219e-06
-0.000154943 -1.49567e-05 -2.96198e-06
2.99219e-06 -2.96198e-06 -0.000107546
0.0016568 -0.000157396 -4.88183e-06
-0.000157396 0.000309583 2.37909e-07
-4.88183e-06 2.37909e-07 0.0001618
0.00102118 -9.49568e-05 -6.81329e-07
-9.49568e-05 0.000144288 -1.43556e-06
-6.81329e-07 -1.43556e-06 1.2776e-05
0.000729993 9.99118e-06 6.2022e-08
9.99118e-06 -3.39845e-05 -6.88581e-07
6.2022e-08 -6.88581e-07 -9.3561e-05
0.000832742 3.52919e-05 -5.06701e-08
3.52919e-05 2.19016e-05 -8.32912e-07
-5.06701e-08 -8.32912e-07 -4.28211e-05
0.00107998 1.30614e-05 4.72053e-07
1.30614e-05 0.000150597 4.66961e-07
4.72053e-07 4.66961e-07 8.27018e-05
0.000915227 -3.9431e-05 9.99379e-07
-3.9431e-05 6.76152e-05 -2.53047e-07
9.99379e-07 -2.53047e-07 -6.41591e-06
0.00105153 5.64953e-06 5.94265e-07
5.64953e-06 0.00013326 7.03444e-07
5.94265e-07 7.03444e-07 5.68879e-05
0.000860593 -1.60494e-05 -7.80954e-07
-1.60494e-05 5.3124e-05 -9.16829e-07
-7.80954e-07 -9.16829e-07 -3.81607e-05
0.000806552 -6.21648e-05 6.1206e-06
-6.21648e-05 5.16281e-05 1.44084e-06
6.1206e-06 1.44084e-06 -7.14432e-05
0.000924951 3.4074e-05 -5.75207e-07
3.4074e-05 6.94933e-05 -1.63155e-06
-5.75207e-07 -1.63155e-06 -5.72088e-06
0.000863654 5.68981e-05 -2.48474e-07
5.68981e-05 4.95754e-05 -3.52815e-07
-2.48474e-07 -3.52815e-07 -4.65848e-05
0.00191013 2.43941e-05 2.31165e-06
2.43941e-05 0.000156148 4.38971e-07
2.31165e-06 4.38971e-07 7.54858e-05
0.00155096 7.81319e-05 1.29058e-06
7.81319e-05 -7.42581e-05 -4.91208e-07
1.29058e-06 -4.91208e-07 -0.00014544
0.00217583 0.000171666 -1.18696e-06
0.000171666 0.000361729 1.36792e-06
-1.18696e-06 1.36792e-06 0.000253691
0.000713058 8.06144e-05 -1.73267e-07
8.06144e-05 -3.29121e-05 -7.87638e-07
-1.73267e-07 -7.87638e-07 -0.00015896
0.0016519 0.000148329 -7.15624e-07
0.000148329 0.000382758 8.6885e-07
-7.15624e-07 8.6885e-07 0.000221733
0.00102221 2.56263e-05 -6.18834e-08
2.56263e-05 0.000126125 5.76041e-08
-6.18834e-08 5.76041e-08 4.16604e-05
0.00177968 4.3213e-05 -1.71122e-06
4.3213e-05 2.62496e-05 -4.17605e-07
-1.71122e-06 -4.17605e-07 -3.18989e-05
0.00120297 8.89564e-05 -6.5711e-07
8.89564e-05 0.000219058 1.78587e-07
-6.5711e-07 1.78587e-07 0.00011196
0.00134386 0.000117156 -6.86245e-07
0.000117156 0.000287349 7.88427e-07
-6.86245e-07 7.88427e-07 0.000144276
0.00187894 0.000146787 1.30703e-06
0.000146787 5.06717e-05 -7.42866e-07
1.30703e-06 -7.42866e-07 -8.52579e-06
0.00130564 0.000143322 -1.02254e-06
0.000143322 0.000110868 1.31576e-06
-1.02254e-06 1.31576e-06 -4.77355e-05
0.00179036 5.03965e-05 2.81102e-06
5.03965e-05 0.000102196 -1.29934e-07
2.81102e-06 -1.29934e-07 1.84179e-05
0.00106568 4.52963e-05 -3.66545e-07
4.52963e-05 0.000147134 -3.14233e-07
-3.66545e-07 -3.14233e-07 5.41279e-05
0.00223301 0.000106143 -2.28119e-06
0.000106143 0.000201466 -6.65639e-06
-2.28119e-06 -6.65639e-06 0.000199084
0.00124506 0.000106595 -1.76527e-06
0.000106595 0.000254493 -6.40261e-07
-1.76527e-06 -6.40261e-07 0.000141847
0.00106746 0.000110736 -2.46933e-06
0.000110736 0.000154665 -3.9373e-07
-2.46933e-06 -3.9373e-07 -1.7996e-05
0.00022868 0.000145217 -1.87187e-06
0.000145217 -0.000576613 -1.93857e-06
-1.87187e-06 -1.93857e-06 -0.000700377
0.00646584 -8.53506e-05 -3.51003e-05
-8.53506e-05 0.00209572 -9.48569e-06
-3.51003e-05 -9.48569e-06 0.001477
0.00260468 -1.22234e-05 7.20858e-05
-1.22234e-05 -1.99661e-05 2.47792e-06
7.20858e-05 2.47792e-06 -0.000435075
0.000988841 0.000149617 1.18413e-05
0.000149617 -0.000244502 1.32173e-05
1.18413e-05 1.32173e-05 -0.000237527
-0.00219596 -0.000279699 -1.75613e-05
-0.000279699 -0.00105303 -1.43505e-05
-1.75613e-05 -1.43505e-05 -0.000991808
0.00253508 -0.000412318 -2.30996e-05
-0.000412318 0.000201648 -4.08889e-06
-2.30996e-05 -4.08889e-06 0.00114869
0.00096665 7.47919e-07 -3.1424e-07
7.47919e-07 9.00501e-05 -1.00714e-06
-3.1424e-07 -1.00714e-06 1.42774e-05
0.000987635 1.06769e-05 1.67612e-07
1.06769e-05 9.98014e-05 -2.91268e-07
1.67612e-07 -2.91268e-07 1.91515e-05
0.00105259 3.72645e-05 -1.21397e-08
3.72645e-05 0.000130298 4.82033e-08
-1.21397e-08 4.82033e-08 4.85293e-05
0.000865841 -3.75181e-05 2.63295e-07
-3.75181e-05 2.44523e-05 -8.85319e-07
2.63295e-07 -8.85319e-07 -2.33907e-05
0.000766536 1.8853e-05 -4.74707e-07
1.8853e-05 -2.29081e-05 -5.26446e-07
-4.74707e-07 -5.26446e-07 -7.98116e-05
0.000960564 -3.44013e-05 -5.38057e-08
-3.44013e-05 8.38163e-05 -5.0402e-07
-5.38057e-08 -5.0402e-07 2.05487e-05
0.00102194 -1.22115e-05 -3.26699e-07
-1.22115e-05 0.000118409 -4.04084e-07
-3.26699e-07 -4.04084e-07 4.8355e-05
0.000907548 -3.60696e-06 2.62614e-07
-3.60696e-06 5.75044e-05 -1.41185e-06
2.62614e-07 -1.41185e-06 -1.95529e-05
0.000930809 1.73701e-05 -4.82228e-07
1.73701e-05 6.59384e-05 -3.29243e-07
-4.82228e-07 -3.29243e-07 2.41586e-06
0.000812703 2.87035e-06 9.00725e-08
2.87035e-06 -6.14784e-06 4.64024e-07
9.00725e-08 4.64024e-07 -5.33169e-05
0.000873216 8.46397e-06 -2.48954e-07
8.46397e-06 3.22061e-05 -4.12008e-08
-2.48954e-07 -4.12008e-08 -2.6459e-05
0.000930003 -3.06527e-06 -4.20382e-08
-3.06527e-06 6.88777e-05 1.97314e-07
-4.20382e-08 1.97314e-07 -7.00242e-06
0.000942472 -2.62503e-06 8.11303e-08
-2.62503e-06 7.57372e-05 -1.04154e-07
8.11303e-08 -1.04154e-07 9.05698e-06
0.000875544 1.5e-05 5.4289e-07
1.5e-05 3.8976e-05 -2.15764e-07
5.4289e-07 -2.15764e-07 -2.67436e-05
0.000981081 1.33366e-05 5.63121e-07
1.33366e-05 9.39079e-05 1.3382e-07
5.63121e-07 1.3382e-07 2.3568e-05
0.000853768 5.88542e-06 7.30703e-07
5.88542e-06 1.87046e-05 5.37423e-07
7.30703e-07 5.37423e-07 -4.43037e-05
0.000830904 1.18365e-06 7.91743e-07
1.18365e-06 6.09263e-06 2.835e-07
7.91743e-07 2.835e-07 -5.33516e-05
0.000726461 -3.33764e-05 -1.27553e-06
-3.33764e-05 -5.11651e-05 1.29407e-06
-1.27553e-06 1.29407e-06 -9.92152e-05
0.000950365 7.88416e-06 -2.42151e-07
7.88416e-06 7.33077e-05 3.8341e-07
-2.42151e-07 3.8341e-07 1.37492e-05
0.00102127 6.54283e-05 1.04397e-07
6.54283e-05 0.000115005 1.20498e-07
1.04397e-07 1.20498e-07 4.93508e-05
0.000880787 3.19162e-06 -4.88507e-07
3.19162e-06 4.2494e-05 4.3895e-07
-4.88507e-07 4.3895e-07 -1.67936e-05
0.000946493 9.61832e-06 4.46902e-07
9.61832e-06 7.37155e-05 -3.43391e-07
4.46902e-07 -3.43391e-07 1.49985e-05
0.000878147 -2.26085e-05 -1.18573e-06
-2.26085e-05 2.84181e-05 7.91502e-07
-1.18573e-06 7.91502e-07 -1.7749e-05
0.000754715 4.96486e-06 1.27122e-07
4.96486e-06 -3.5467e-05 3.79031e-07
1.27122e-07 3.79031e-07 -8.38473e-05
0.000846444 1.26211e-05 -8.16035e-08
1.26211e-05 2.21694e-06 1.63307e-06
-8.16035e-08 1.63307e-06 -2.57993e-05
0.000839362 4.0428e-06 -1.69809e-07
4.0428e-06 -1.71173e-06 5.96356e-10
-1.69809e-07 5.96356e-10 -2.95526e-05
0.000804157 4.77853e-06 -2.79646e-07
4.77853e-06 -3.07817e-05 4.33416e-06
-2.79646e-07 4.33416e-06 -3.14584e-05
0.000840327 -6.28419e-06 2.80793e-07
-6.28419e-06 -1.65315e-06 -1.53354e-06
2.80793e-07 -1.53354e-06 -2.91451e-05
0.000792958 5.4081e-07 1.45762e-07
5.4081e-07 -3.77676e-05 -4.30845e-09
1.45762e-07 -4.30845e-09 -3.80105e-05
0.00212578 -9.66239e-07 1.57022e-07
-9.66239e-07 0.000674462 4.0109e-06
1.57022e-07 4.0109e-06 0.000697402
0.000809921 -3.66493e-06 -5.47377e-07
-3.66493e-06 -2.81662e-05 -4.30259e-06
-5.47377e-07 -4.30259e-06 -2.82502e-05
0.0015519 -5.77229e-06 -2.57476e-07
-5.77229e-06 0.000368455 2.24037e-08
-2.57476e-07 2.24037e-08 0.000388608
0.000952795 -9.63293e-06 -7.42892e-07
-9.63293e-06 4.95799e-05 -1.53099e-06
-7.42892e-07 -1.53099e-06 6.71473e-05
0.000855694 3.44284e-06 3.32757e-09
3.44284e-06 3.30613e-06 -1.64066e-06
3.32757e-09 -1.64066e-06 -2.03024e-05
0.000851752 6.90617e-06 3.01754e-08
6.90617e-06 2.02027e-06 2.71259e-09
3.01754e-08 2.71259e-09 -2.27741e-05
0.000790084 9.44822e-06 3.38502e-07
9.44822e-06 -3.86149e-05 -3.1131e-06
3.38502e-07 -3.1131e-06 -3.73164e-05
0.0008539 1.00423e-05 -5.47897e-07
1.00423e-05 4.24279e-06 1.65427e-06
-5.47897e-07 1.65427e-06 -2.2236e-05
0.00106123 1.55681e-05 -2.37569e-07
1.55681e-05 0.000108639 -6.16465e-07
-2.37569e-07 -6.16465e-07 0.000110011
0.00208996 1.92095e-05 9.96726e-06
1.92095e-05 0.000659647 -3.90608e-06
9.96726e-06 -3.90608e-06 0.000682174
0.000793204 1.90858e-05 -1.08265e-06
1.90858e-05 -2.99353e-05 3.22037e-06
-1.08265e-06 3.22037e-06 -3.19231e-05
0.00214787 2.53123e-05 -5.50444e-06
2.53123e-05 0.000695299 1.10082e-06
-5.50444e-06 1.10082e-06 0.000716482
0.00217807 3.26421e-05 -1.81928e-05
3.26421e-05 0.000716552 3.84767e-06
-1.81928e-05 3.84767e-06 0.000736184
0.00176435 9.11721e-06 1.33014e-06
9.11721e-06 8.04941e-05 1.33353e-07
1.33014e-06 1.33353e-07 -1.02235e-05
0.00180166 4.58178e-06 1.64267e-06
4.58178e-06 9.97586e-05 2.40262e-07
1.64267e-06 2.40262e-07 1.00175e-08
0.00176827 1.79646e-06 5.06991e-06
1.79646e-06 9.84751e-05 -4.90338e-07
5.06991e-06 -4.90338e-07 2.78328e-05
0.00167998 -3.4209e-05 2.98792e-06
-3.4209e-05 -4.72208e-05 1.18126e-06
2.98792e-06 1.18126e-06 -0.000103298
0.00183405 7.16158e-06 -2.32179e-07
7.16158e-06 0.000102236 3.31196e-07
-2.32179e-07 3.31196e-07 2.0864e-05
0.00178372 1.00718e-05 9.37704e-07
1.00718e-05 5.2382e-05 -4.96574e-07
9.37704e-07 -4.96574e-07 -1.19819e-05
0.00210224 2.08562e-05 1.45959e-07
2.08562e-05 0.000195699 1.72738e-06
1.45959e-07 1.72738e-06 0.000110304
0.00325504 -0.000145617 0.000138748
-0.000145617 0.000619794 2.1967e-05
0.000138748 2.1967e-05 0.00038154
0.0011808 -4.64193e-05 -4.08701e-06
-4.64193e-05 -0.00028224 8.20666e-07
-4.08701e-06 8.20666e-07 -0.000348972
0.000887028 1.97728e-05 -6.60156e-07
1.97728e-05 3.49941e-05 -7.80494e-07
-6.60156e-07 -7.80494e-07 -6.34146e-06
0.000881635 -1.38217e-05 5.90798e-07
-1.38217e-05 3.34946e-05 -3.54112e-08
5.90798e-07 -3.54112e-08 -9.18558e-06
0.000885476 -3.33502e-05 -2.25918e-07
-3.33502e-05 4.36594e-05 5.46061e-09
-2.25918e-07 5.46061e-09 -1.00667e-05
0.000887721 -2.77706e-05 -8.96245e-07
-2.77706e-05 5.45911e-05 8.76879e-08
-8.96245e-07 8.76879e-08 -3.19669e-06
0.00174989 3.97217e-06 3.10337e-06
3.97217e-06 7.62778e-05 -7.24412e-07
3.10337e-06 -7.24412e-07 -9.58431e-06
0.00171957 -2.90228e-05 1.93601e-06
-2.90228e-05 3.12578e-05 -6.95403e-07
1.93601e-06 -6.95403e-07 -6.65334e-05
0.00215233 -0.00012507 -3.12836e-06
-0.00012507 0.000227602 1.77954e-06
-3.12836e-06 1.77954e-06 0.000144681
0.000736696 -7.9272e-05 2.196e-06
-7.9272e-05 -4.22998e-05 2.33461e-06
2.196e-06 2.33461e-06 -0.00013734
0.00045356 -9.18925e-05 3.05312e-06
-9.18925e-05 -0.000196901 -1.03688e-06
3.05312e-06 -1.03688e-06 -0.000372493
0.0016809 -0.000157211 5.19332e-07
-0.000157211 0.00016886 -9.69569e-07
5.19332e-07 -9.69569e-07 5.11984e-05
0.000741358 -8.52441e-05 -5.56697e-06
-8.52441e-05 -2.33169e-05 1.18778e-07
-5.56697e-06 1.18778e-07 -0.000115405
0.00102055 -3.85113e-05 -6.47928e-07
-3.85113e-05 0.000141368 -6.1329e-07
-6.47928e-07 -6.1329e-07 3.9791e-05
0.0010598 -4.11575e-05 -8.11662e-07
-4.11575e-05 0.000148812 8.60227e-07
-8.11662e-07 8.60227e-07 6.30873e-05
0.000881377 -3.63718e-06 -9.96608e-07
-3.63718e-06 3.3932e-05 9.94027e-07
-9.96608e-07 9.94027e-07 -1.48048e-05
0.000908712 -3.39166e-05 -2.85758e-07
-3.39166e-05 6.34141e-05 8.58165e-08
-2.85758e-07 8.58165e-08 -1.27198e-05
0.000986536 7.2958e-06 -6.92663e-07
7.2958e-06 9.82907e-05 6.80925e-07
-6.92663e-07 6.80925e-07 3.35491e-05
0.000884181 -3.91266e-06 -1.0324e-09
-3.91266e-06 3.62589e-05 3.00269e-07
-1.0324e-09 3.00269e-07 -8.09374e-06
0.000747357 1.67916e-05 1.89933e-07
1.67916e-05 -2.32589e-05 9.65194e-07
1.89933e-07 9.65194e-07 -8.5374e-05
0.00175274 -6.89042e-06 -7.49817e-07
-6.89042e-06 5.53927e-05 9.23906e-07
-7.49817e-07 9.23906e-07 -2.61366e-05
0.000894326 9.10124e-06 4.63966e-07
9.10124e-06 5.11565e-05 -4.68001e-07
4.63966e-07 -4.68001e-07 -6.56613e-06
0.000853487 1.84932e-05 5.26149e-07
1.84932e-05 3.2415e-05 1.3592e-08
5.26149e-07 1.3592e-08 -3.13362e-05
0.000965386 4.09427e-05 -2.88415e-07
4.09427e-05 9.11849e-05 7.3768e-07
-2.88415e-07 7.3768e-07 2.23953e-05
0.0020319 -6.16575e-05 -3.57733e-06
-6.16575e-05 0.000129063 6.21774e-07
-3.57733e-06 6.21774e-07 4.37175e-05
0.00171885 -0.000151132 8.60535e-07
-0.000151132 3.49899e-05 -7.67678e-07
8.60535e-07 -7.67678e-07 -5.71955e-05
0.000978273 -9.7341e-05 -4.74917e-07
-9.7341e-05 0.000109024 -3.2311e-07
-4.74917e-07 -3.2311e-07 -1.77827e-05
0.00176242 -0.000162042 -5.24663e-07
-0.000162042 0.000368795 -9.77945e-07
-5.24663e-07 -9.77945e-07 0.000215409
0.000971158 -1.25869e-05 -3.87409e-07
-1.25869e-05 9.4078e-05 8.11625e-08
-3.87409e-07 8.11625e-08 2.18294e-05
0.000970659 -5.99221e-06 1.04623e-07
-5.99221e-06 9.61381e-05 6.11978e-07
1.04623e-07 6.11978e-07 1.82983e-05
0.000870457 -6.50372e-05 3.3806e-06
-6.50372e-05 7.87044e-05 -8.75925e-07
3.3806e-06 -8.75925e-07 -3.96048e-05
0.00103377 -4.04684e-05 1.07483e-07
-4.04684e-05 0.000145518 -7.7594e-07
1.07483e-07 -7.7594e-07 4.92664e-05
0.00171457 -1.59744e-06 -1.28649e-06
-1.59744e-06 -1.75015e-05 2.31399e-06
-1.28649e-06 2.31399e-06 -0.000104255
0.00212096 -0.000140596 6.21994e-06
-0.000140596 0.000122907 -3.87518e-06
6.21994e-06 -3.87518e-06 3.85591e-05
0.00181629 -0.000165497 -2.07106e-06
-0.000165497 0.000266449 -2.76831e-06
-2.07106e-06 -2.76831e-06 0.000137109
0.00111253 -0.000120402 -2.32626e-06
-0.000120402 0.000182316 -6.1021e-09
-2.32626e-06 -6.1021e-09 4.49255e-05
0.000864049 2.1226e-05 -8.15004e-07
2.1226e-05 4.21044e-05 1.22284e-08
-8.15004e-07 1.22284e-08 -3.11851e-05
0.00090008 -3.71179e-05 7.46015e-07
-3.71179e-05 6.2848e-05 -5.77061e-07
7.46015e-07 -5.77061e-07 -1.01122e-05
0.000953849 -2.75029e-05 5.75727e-07
-2.75029e-05 8.66484e-05 -8.32344e-08
5.75727e-07 -8.32344e-08 7.52745e-06
0.000916673 -9.13559e-06 -2.15666e-06
-9.13559e-06 9.50187e-05 6.09046e-07
-2.15666e-06 6.09046e-07 -2.65343e-05
0.000453406 -3.65252e-05 -2.62121e-06
-3.65252e-05 -0.000828547 -7.5278e-06
-2.62121e-06 -7.5278e-06 -0.00128007
0.00100759 1.59772e-05 5.53066e-09
1.59772e-05 0.000117861 -1.06312e-06
5.53066e-09 -1.06312e-06 3.57559e-05
0.000868949 7.36263e-05 8.55048e-07
7.36263e-05 5.07193e-05 3.56754e-07
8.55048e-07 3.56754e-07 -5.47571e-05
0.00131607 3.87717e-05 2.81354e-06
3.87717e-05 -0.000228444 8.55227e-07
2.81354e-06 8.55227e-07 -0.000281384
0.00174647 0.000133922 -1.85277e-06
0.000133922 -1.69624e-05 1.08995e-06
-1.85277e-06 1.08995e-06 -7.65152e-05
0.00154097 0.000155465 -1.30856e-06
0.000155465 0.000238359 2.88345e-06
-1.30856e-06 2.88345e-06 7.28433e-05
0.000792323 8.97898e-05 1.42827e-06
8.97898e-05 1.52378e-05 1.21934e-08
1.42827e-06 1.21934e-08 -0.000127934
0.00271618 4.20815e-05 -3.93216e-06
4.20815e-05 0.000404764 3.91089e-07
-3.93216e-06 3.91089e-07 0.000309809
0.00099316 4.33657e-05 4.69885e-07
4.33657e-05 0.000113471 -3.22147e-07
4.69885e-07 -3.22147e-07 2.09069e-05
0.00200904 0.00010261 -3.66875e-06
0.00010261 8.43452e-05 -2.21555e-06
-3.66875e-06 -2.21555e-06 8.65976e-05
0.00105559 9.76871e-05 6.40062e-07
9.76871e-05 0.000158462 -3.66652e-07
6.40062e-07 -3.66652e-07 4.70297e-05
0.00104103 0.00011208 -2.35265e-07
0.00011208 0.000147658 2.68947e-07
-2.35265e-07 2.68947e-07 -2.61238e-05
0.000896943 0.00016918 -2.94877e-06
0.00016918 -0.00026773 3.20513e-07
-2.94877e-06 3.20513e-07 -0.000383915
0.00195942 -0.000170672 -2.80014e-05
-0.000170672 -4.58711e-05 -9.7418e-06
-2.80014e-05 -9.7418e-06 -0.00059833
0.00325019 -8.42176e-05 6.90516e-06
-8.42176e-05 0.000206201 -1.16597e-05
6.90516e-06 -1.16597e-05 -0.000298059
0.000902558 0.00014313 4.67641e-06
0.00014313 -0.000292058 1.26273e-06
4.67641e-06 1.26273e-06 -0.000283673
-0.00155951 -0.000258415 1.54116e-05
-0.000258415 -0.00060021 3.31212e-06
1.54116e-05 3.31212e-06 -0.000761754
0.000471673 -0.000444579 1.0613e-05
-0.000444579 -0.000957399 7.05768e-07
1.0613e-05 7.05768e-07 0.000117639
0.00110577 6.71167e-05 1.8866e-08
6.71167e-05 0.000173186 -5.25569e-07
1.8866e-08 -5.25569e-07 8.22277e-05
0.000530568 5.67528e-05 -8.73397e-05
5.67528e-05 0.00036789 -2.00544e-05
-8.73397e-05 -2.00544e-05 0.000125947
0.00160679 -0.00025778 -3.29748e-05
-0.00025778 0.000473268 -2.03742e-05
-3.29748e-05 -2.03742e-05 0.000829297
0.0012556 0.000126098 -4.33682e-06
0.000126098 -0.000225554 -1.10299e-06
-4.33682e-06 -1.10299e-06 -0.000195436
0.00111771 5.43181e-05 -1.60109e-06
5.43181e-05 0.000211301 -1.10877e-06
-1.60109e-06 -1.10877e-06 8.76675e-05
0.00131775 0.000130474 -5.76684e-06
0.000130474 0.000281174 -1.16241e-06
-5.76684e-06 -1.16241e-06 8.42174e-05
0.00158976 0.000184356 5.57317e-06
0.000184356 0.000115612 2.08276e-05
5.57317e-06 2.08276e-05 0.000156481
0.00642837 -0.000271742 -5.54519e-05
-0.000271742 0.00206957 -1.62446e-05
-5.54519e-05 -1.62446e-05 0.0011149
0.00151892 5.59315e-05 1.32291e-05
5.59315e-05 -0.000686515 2.09973e-05
1.32291e-05 2.09973e-05 -0.00139954
-3.37604e-05 -0.000407879 -4.35684e-05
-0.000407879 -0.000314965 -1.5342e-05
-4.35684e-05 -1.5342e-05 -1.50766e-05
0.00017213 -0.000203995 -2.93676e-05
-0.000203995 -0.00167262 5.74573e-07
-2.93676e-05 5.74573e-07 -0.00101273
0.000985181 5.75633e-06 -2.75771e-07
5.75633e-06 0.000100161 -9.37326e-07
-2.75771e-07 -9.37326e-07 2.01341e-05
0.00100068 2.88403e-05 -2.81372e-07
2.88403e-05 0.000103501 1.44109e-07
-2.81372e-07 1.44109e-07 2.26146e-05
0.00117349 5.9663e-05 -1.94223e-07
5.9663e-05 0.000197201 -5.37175e-07
-1.94223e-07 -5.37175e-07 0.000119745
0.000869702 1.91169e-06 -5.98047e-08
1.91169e-06 2.82163e-05 -4.21195e-07
-5.98047e-08 -4.21195e-07 -2.07944e-05
0.000920006 -1.03109e-06 -4.57056e-07
-1.03109e-06 5.61393e-05 -4.97028e-07
-4.57056e-07 -4.97028e-07 -1.61467e-06
0.000872827 -1.68152e-05 -2.52421e-07
-1.68152e-05 3.27137e-05 -7.46489e-07
-2.52421e-07 -7.46489e-07 -2.96958e-05
0.000951498 -5.89847e-06 -5.90383e-08
-5.89847e-06 7.9397e-05 -4.27013e-07
-5.90383e-08 -4.27013e-07 1.26038e-05
0.000938649 -5.446e-06 -3.65836e-08
-5.446e-06 7.41996e-05 -2.14814e-07
-3.65836e-08 -2.14814e-07 -1.6305e-06
0.000747039 -5.64983e-06 3.7054e-07
-5.64983e-06 -3.99042e-05 4.03885e-07
3.7054e-07 4.03885e-07 -8.83907e-05
0.000887741 9.67832e-07 -1.40993e-07
9.67832e-07 4.56123e-05 -3.14875e-07
-1.40993e-07 -3.14875e-07 -1.96833e-05
0.000956586 -1.6379e-05 -1.8155e-07
-1.6379e-05 7.44357e-05 3.49794e-07
-1.8155e-07 3.49794e-07 1.08143e-05
0.000909847 1.97415e-05 3.71132e-07
1.97415e-05 5.01646e-05 -2.11506e-07
3.71132e-07 -2.11506e-07 -1.02698e-05
0.000952578 1.50343e-05 2.87908e-08
1.50343e-05 7.89471e-05 5.23829e-08
2.87908e-08 5.23829e-08 8.05802e-06
0.000868295 -2.95227e-06 5.34244e-07
-2.95227e-06 2.6421e-05 2.40909e-07
5.34244e-07 2.40909e-07 -4.05089e-05
0.00103427 3.36931e-05 -1.62259e-07
3.36931e-05 0.000119703 -6.00487e-07
-1.62259e-07 -6.00487e-07 4.74621e-05
0.000967513 -5.17368e-05 1.22339e-07
-5.17368e-05 7.83749e-05 2.78382e-07
1.22339e-07 2.78382e-07 1.42057e-05
0.000969235 -3.6563e-05 -4.29876e-07
-3.6563e-05 8.22174e-05 1.08619e-07
-4.29876e-07 1.08619e-07 2.14962e-05
0.000963285 -3.45962e-06 -3.72781e-07
-3.45962e-06 7.9243e-05 -7.04808e-08
-3.72781e-07 -7.04808e-08 1.99606e-05
0.000949436 4.50618e-05 -2.72209e-07
4.50618e-05 7.33683e-05 -2.75516e-07
-2.72209e-07 -2.75516e-07 9.5316e-06
0.000946035 2.29933e-05 -1.52241e-08
2.29933e-05 7.11937e-05 9.94583e-08
-1.52241e-08 9.94583e-08 4.39796e-06
0.000913701 3.84445e-05 1.54347e-07
3.84445e-05 5.74636e-05 4.88609e-07
1.54347e-07 4.88609e-07 -6.31749e-06
0.00106147 5.24263e-05 -4.01931e-08
5.24263e-05 0.00012945 4.03314e-08
-4.01931e-08 4.03314e-08 6.21476e-05
0.000868354 1.23164e-05 5.71077e-07
1.23164e-05 4.04548e-05 1.59207e-06
5.71077e-07 1.59207e-06 -2.94378e-05
0.000876969 1.26908e-05 -1.44168e-07
1.26908e-05 3.70428e-05 5.25528e-07
-1.44168e-07 5.25528e-07 -2.00977e-05
0.000887381 5.17047e-07 -3.39324e-08
5.17047e-07 4.42042e-05 -1.42311e-08
-3.39324e-08 -1.42311e-08 -1.39718e-05
0.000873171 1.814e-06 -8.85344e-07
1.814e-06 2.57142e-05 7.44241e-07
-8.85344e-07 7.44241e-07 -1.96749e-05
0.000858484 1.15268e-05 3.24647e-07
1.15268e-05 2.25359e-05 -6.98614e-07
3.24647e-07 -6.98614e-07 -3.39416e-05
0.000825147 -1.30282e-05 6.9316e-08
-1.30282e-05 6.6865e-08 1.72646e-08
6.9316e-08 1.72646e-08 -4.63098e-05
0.00084954 1.29627e-05 -3.95546e-07
1.29627e-05 4.20635e-06 1.70807e-06
-3.95546e-07 1.70807e-06 -2.3928e-05
0.000767323 5.70328e-06 3.67666e-07
5.70328e-06 -2.76226e-05 -4.67686e-07
3.67666e-07 -4.67686e-07 -7.68559e-05
0.000843574 5.94265e-06 -1.49523e-07
5.94265e-06 4.79655e-07 -4.05098e-09
-1.49523e-07 -4.05098e-09 -2.74405e-05
0.00137931 1.03657e-05 -2.74898e-06
1.03657e-05 0.000277679 4.30155e-06
-2.74898e-06 4.30155e-06 0.00027963
0.000837358 -3.79872e-06 5.1215e-07
-3.79872e-06 -2.87801e-06 -1.57538e-06
5.1215e-07 -1.57538e-06 -3.06647e-05
0.00108709 5.40771e-06 -1.19748e-06
5.40771e-06 0.000120136 6.20367e-07
-1.19748e-06 6.20367e-07 0.000120961
0.00100077 2.8778e-06 -2.52541e-06
2.8778e-06 7.41819e-05 3.9268e-06
-2.52541e-06 3.9268e-06 9.11601e-05
0.000796724 5.70019e-07 -2.9056e-08
5.70019e-07 -3.57569e-05 -3.05086e-06
-2.9056e-08 -3.05086e-06 -3.60289e-05
0.00212907 -5.52422e-07 1.93353e-06
-5.52422e-07 0.000676232 2.40667e-10
1.93353e-06 2.40667e-10 0.000699134
0.00100743 -3.66287e-06 -1.67951e-06
-3.66287e-06 7.754e-05 -3.90644e-06
-1.67951e-06 -3.90644e-06 9.48703e-05
0.000874788 3.78402e-05 3.29109e-07
3.78402e-05 3.12184e-05 -1.8217e-07
3.29109e-07 -1.8217e-07 -1.20012e-05
0.000856828 -6.83227e-07 -5.27201e-08
-6.83227e-07 3.8571e-06 -1.6156e-06
-5.27201e-08 -1.6156e-06 -1.91749e-05
0.000856426 2.79645e-06 -5.22061e-08
2.79645e-06 3.59781e-06 5.91233e-10
-5.22061e-08 5.91233e-10 -1.99958e-05
0.000797997 4.55637e-06 5.69235e-08
4.55637e-06 -3.61978e-05 -3.08375e-06
5.69235e-08 -3.08375e-06 -3.38914e-05
0.000851509 6.30664e-06 -2.68307e-07
6.30664e-06 1.64052e-06 1.56917e-06
-2.68307e-07 1.56917e-06 -2.31178e-05
0.000791083 9.60238e-06 5.35897e-08
9.60238e-06 -3.83764e-05 -6.27944e-07
5.35897e-08 -6.27944e-07 -3.70079e-05
0.00205763 1.26127e-05 6.59729e-06
1.26127e-05 0.000639811 -3.93592e-06
6.59729e-06 -3.93592e-06 0.00066321
0.0013297 1.81153e-05 -1.27446e-06
1.81153e-05 0.00025235 1.92797e-06
-1.27446e-06 1.92797e-06 0.000254905
0.00155601 1.6641e-05 3.38488e-07
1.6641e-05 0.000375522 1.22595e-06
3.38488e-07 1.22595e-06 0.000394908
0.00104132 1.88199e-05 -1.39145e-05
1.88199e-05 0.000105056 6.37036e-06
-1.39145e-05 6.37036e-06 0.000120382
-0.000750057 1.95983e-05 4.48499e-06
1.95983e-05 -0.00126876 3.347e-06
4.48499e-06 3.347e-06 -0.0013274
0.00195288 5.89982e-06 2.4975e-06
5.89982e-06 0.000162015 -4.62434e-08
2.4975e-06 -4.62434e-08 8.17073e-05
0.00212176 1.52256e-05 -1.58875e-06
1.52256e-05 0.000236044 -2.37547e-06
-1.58875e-06 -2.37547e-06 0.000168398
0.00108429 -6.83482e-05 2.77346e-05
-6.83482e-05 -0.000266913 5.15312e-07
2.77346e-05 5.15312e-07 -0.000492222
0.00173033 -4.11745e-05 -1.74611e-06
-4.11745e-05 5.28425e-05 -1.38105e-07
-1.74611e-06 -1.38105e-07 -2.73183e-05
0.00172307 1.7737e-05 -3.74652e-06
1.7737e-05 -2.61767e-05 -1.83884e-06
-3.74652e-06 -1.83884e-06 -0.000109294
0.00193909 3.28015e-05 -1.02419e-05
3.28015e-05 0.000205518 1.56372e-06
-1.02419e-05 1.56372e-06 0.000119912
0.00165156 -7.69849e-05 0.000128544
-7.69849e-05 4.96875e-05 -1.33215e-06
0.000128544 -1.33215e-06 -0.000266581
0.00586693 9.94369e-05 -1.52641e-05
9.94369e-05 0.00173336 -2.31604e-07
-1.52641e-05 -2.31604e-07 0.000971688
0.00421094 0.000529376 -1.9315e-05
0.000529376 0.00181124 5.20269e-06
-1.9315e-05 5.20269e-06 0.0020228
0.00162119 0.0004428 -1.70228e-05
0.0004428 9.47449e-05 6.70964e-06
-1.70228e-05 6.70964e-06 0.000942462
0.000739093 -3.77663e-05 1.1306e-06
-3.77663e-05 -2.89861e-05 -6.48655e-07
1.1306e-06 -6.48655e-07 -8.4497e-05
0.000887009 -9.36747e-06 1.9222e-07
-9.36747e-06 3.57251e-05 -2.99949e-08
1.9222e-07 -2.99949e-08 -6.12369e-06
0.000880917 -4.36223e-05 -8.23755e-07
-4.36223e-05 3.52973e-05 8.42733e-07
-8.23755e-07 8.42733e-07 -8.92643e-06
0.000849773 -1.12288e-05 -2.99361e-07
-1.12288e-05 2.68044e-05 3.0033e-08
-2.99361e-07 3.0033e-08 -2.8439e-05
0.000888337 3.95411e-05 3.49616e-08
3.95411e-05 5.74456e-05 7.28138e-07
3.49616e-08 7.28138e-07 -8.22292e-06
0.000935788 4.78027e-05 1.36354e-07
4.78027e-05 7.623e-05 7.24195e-07
1.36354e-07 7.24195e-07 1.42213e-05
0.000924118 -2.66235e-05 6.92503e-07
-2.66235e-05 6.88381e-05 -7.95937e-07
6.92503e-07 -7.95937e-07 1.27475e-05
0.000838061 -4.33613e-05 -5.50273e-07
-4.33613e-05 2.47573e-05 4.81105e-07
-5.50273e-07 4.81105e-07 -3.12631e-05
0.00146233 -2.98232e-06 1.98956e-06
-2.98232e-06 -8.23026e-05 -1.01862e-06
1.98956e-06 -1.01862e-06 -0.000163815
0.00161013 -5.79414e-05 -1.25973e-06
-5.79414e-05 -9.27086e-05 3.69872e-08
-1.25973e-06 3.69872e-08 -0.000180822
0.00175068 -0.000147113 -4.91645e-06
-0.000147113 5.84169e-05 2.63305e-06
-4.91645e-06 2.63305e-06 -3.32337e-05
0.000876172 -9.72213e-05 1.29367e-06
-9.72213e-05 4.46977e-05 1.10214e-06
1.29367e-06 1.10214e-06 -7.95484e-05
0.0016992 -0.00016008 1.51031e-06
-0.00016008 0.000342443 3.54664e-08
1.51031e-06 3.54664e-08 0.000180657
0.000912364 -6.59596e-05 6.22334e-07
-6.59596e-05 9.46334e-05 -1.07104e-06
6.22334e-07 -1.07104e-06 -1.90672e-05
0.00120939 -6.43714e-05 1.93922e-07
-6.43714e-05 0.000239154 -5.37076e-07
1.93922e-07 -5.37076e-07 0.000138108
0.000879439 -1.95368e-05 -7.67636e-07
-1.95368e-05 5.34376e-05 2.34636e-07
-7.67636e-07 2.34636e-07 -2.57395e-05
0.000873868 6.6599e-06 4.33312e-07
6.6599e-06 4.30822e-05 5.00776e-07
4.33312e-07 5.00776e-07 -1.98957e-05
0.00103425 3.39323e-06 -7.78477e-07
3.39323e-06 0.000124559 2.88025e-07
-7.78477e-07 2.88025e-07 5.38191e-05
0.00106774 1.50604e-06 3.56456e-07
1.50604e-06 0.000140181 -6.41578e-09
3.56456e-07 -6.41578e-09 8.4746e-05
0.000841633 6.69474e-05 1.17598e-06
6.69474e-05 2.70109e-05 1.24621e-06
1.17598e-06 1.24621e-06 -4.26475e-05
0.00159032 3.07342e-06 3.40954e-07
3.07342e-06 -8.73178e-05 -3.3261e-06
3.40954e-07 -3.3261e-06 -0.000172385
0.00087695 2.1602e-05 -3.91899e-07
2.1602e-05 4.96245e-05 3.6957e-07
-3.91899e-07 3.6957e-07 -2.24227e-05
0.000889016 -2.49386e-05 -2.94123e-07
-2.49386e-05 5.4432e-05 -3.25806e-07
-2.94123e-07 -3.25806e-07 -1.73813e-05
0.00220127 -0.000142035 -8.48911e-07
-0.000142035 0.000171548 1.13197e-06
-8.48911e-07 1.13197e-06 8.93192e-05
0.00111981 -0.000138477 5.56773e-07
-0.000138477 -7.39076e-05 7.47704e-07
5.56773e-07 7.47704e-07 -0.000196006
0.0011917 -0.000124904 9.37237e-07
-0.000124904 0.000219985 -9.5346e-07
9.37237e-07 -9.5346e-07 7.75888e-05
0.000972877 -3.01399e-05 1.38745e-07
-3.01399e-05 9.69592e-05 -1.24299e-07
1.38745e-07 -1.24299e-07 1.5798e-05
0.00103281 -2.38477e-05 -1.30886e-07
-2.38477e-05 0.000155509 3.45777e-07
-1.30886e-07 3.45777e-07 3.31984e-05
0.00254681 -8.19026e-05 -7.55918e-06
-8.19026e-05 0.000442952 1.06244e-05
-7.55918e-06 1.06244e-05 0.000371083
0.00248597 -0.000218485 -3.49122e-07
-0.000218485 0.00042878 -5.50011e-06
-3.49122e-07 -5.50011e-06 0.000320555
0.000401211 -0.000111049 -4.00367e-06
-0.000111049 -0.00023771 -6.71948e-07
-4.00367e-06 -6.71948e-07 -0.000365409
0.00131466 -8.52901e-05 -4.08317e-06
-8.52901e-05 0.000304985 2.30205e-06
-4.08317e-06 2.30205e-06 0.000159283
0.000770623 -6.14683e-05 7.79263e-07
-6.14683e-05 -4.56131e-06 -1.48664e-07
7.79263e-07 -1.48664e-07 -8.10347e-05
0.000961533 -4.51516e-05 1.58668e-06
-4.51516e-05 9.05992e-05 -5.0116e-08
1.58668e-06 -5.0116e-08 1.02909e-05
0.00104265 -1.90013e-05 -1.19295e-06
-1.90013e-05 0.000134284 4.13537e-07
-1.19295e-06 4.13537e-07 4.06778e-05
-0.00268515 -1.65566e-05 -1.86281e-05
-1.65566e-05 -0.00129805 -1.18041e-06
-1.86281e-05 -1.18041e-06 -0.00113314
0.00675944 -2.48837e-05 -2.3035e-05
-2.48837e-05 0.00228612 -1.66027e-06
-2.3035e-05 -1.66027e-06 0.00172124
0.000928829 4.21049e-05 8.9758e-07
4.21049e-05 8.39425e-05 -6.9306e-07
8.9758e-07 -6.9306e-07 -8.25094e-06
0.000918707 9.08428e-05 1.65912e-06
9.08428e-05 8.982e-05 -1.00861e-06
1.65912e-06 -1.00861e-06 -1.98463e-05
0.00180077 9.82603e-05 -4.4864e-06
9.82603e-05 -2.70064e-05 3.20855e-06
-4.4864e-06 3.20855e-06 -1.88532e-05
0.0016992 0.00019811 -1.09808e-06
0.00019811 0.00010683 1.70686e-06
-1.09808e-06 1.70686e-06 -1.07508e-06
0.00104459 0.000113819 2.05958e-06
0.000113819 0.000154496 6.02884e-07
2.05958e-06 6.02884e-07 -1.80062e-05
0.00551736 8.57651e-06 3.19998e-05
8.57651e-06 0.00155683 -8.19694e-06
3.19998e-05 -8.19694e-06 0.000843419
0.00357984 -7.70176e-05 -6.84808e-05
-7.70176e-05 0.000351731 -1.5527e-05
-6.84808e-05 -1.5527e-05 -4.96989e-05
0.000535593 0.000117079 -4.40347e-06
0.000117079 -0.000493147 -1.33843e-05
-4.40347e-06 -1.33843e-05 -0.000467855
0.00316633 -0.000408113 2.89016e-05
-0.000408113 0.00154324 1.56233e-05
2.89016e-05 1.56233e-05 0.00155416
-0.00156517 -0.000485453 1.51791e-05
-0.000485453 -0.00208934 -1.22163e-05
1.51791e-05 -1.22163e-05 -0.000868791
0.00102862 7.83227e-05 -4.27416e-08
7.83227e-05 0.000137674 -2.32315e-07
-4.27416e-08 -2.32315e-07 4.48151e-05
-0.00226336 -0.00010295 4.89147e-07
-0.00010295 -0.00114294 -1.35013e-06
4.89147e-07 -1.35013e-06 -0.00098207
0.000294751 -0.000242351 -1.05156e-05
-0.000242351 -0.00010407 -2.01673e-06
-1.05156e-05 -2.01673e-06 8.88517e-05
0.00212978 0.000150792 -1.3947e-06
0.000150792 0.000201142 -1.51541e-06
-1.3947e-06 -1.51541e-06 0.000230631
0.000962067 6.41996e-05 -6.33858e-08
6.41996e-05 0.000140606 -9.48528e-07
-6.33858e-08 -9.48528e-07 1.74644e-05
0.000728349 0.000106267 4.10437e-08
0.000106267 -1.67277e-05 3.18411e-07
4.10437e-08 3.18411e-07 -0.000212717
-0.000172747 0.000112595 1.54504e-05
0.000112595 -0.000732172 7.16757e-06
1.54504e-05 7.16757e-06 -0.00067247
0.004807 -0.000195858 8.1669e-07
-0.000195858 0.00116871 5.94793e-07
8.1669e-07 5.94793e-07 0.000155535
0.00391603 0.000118343 -2.56897e-05
0.000118343 0.000602475 -1.60981e-05
-2.56897e-05 -1.60981e-05 0.000143579
0.00367982 -0.000564877 1.18136e-05
-0.000564877 0.00127441 -2.16178e-06
1.18136e-05 -2.16178e-06 0.00139356
0.000660253 -0.000259402 7.98684e-06
-0.000259402 -0.00153891 2.26827e-05
7.98684e-06 2.26827e-05 -0.000699267
0.00113023 4.25324e-05 -2.17532e-06
4.25324e-05 0.000184671 -1.38461e-06
-2.17532e-06 -1.38461e-06 0.000100784
-0.000791412 -7.39992e-05 -4.27722e-05
-7.39992e-05 -0.000388695 -6.00836e-06
-4.27722e-05 -6.00836e-06 -0.000562437
0.00158248 -2.27562e-05 -3.12675e-05
-2.27562e-05 -6.38085e-06 -2.88699e-05
-3.12675e-05 -2.88699e-05 -9.47315e-05
0.000771889 0.000122033 -7.96649e-06
0.000122033 -0.000160247 -7.6557e-06
-7.96649e-06 -7.6557e-06 -0.000198935
0.00165855 0.000106502 -9.29694e-06
0.000106502 0.000552304 -1.84519e-06
-9.29694e-06 -1.84519e-06 0.000402147
0.000911647 2.87635e-05 -6.60248e-06
2.87635e-05 0.000174699 -4.39612e-06
-6.60248e-06 -4.39612e-06 0.000117136
0.00262309 0.000338776 -9.32332e-05
0.000338776 0.00027394 1.40371e-05
-9.32332e-05 1.40371e-05 -0.000125715
0.000187151 -0.000266837 2.02322e-05
-0.000266837 -0.000662972 2.16312e-05
2.02322e-05 2.16312e-05 -0.00195609
0.00610614 -0.000558022 -5.15573e-05
-0.000558022 0.00162555 -4.07684e-06
-5.15573e-05 -4.07684e-06 0.00181635
0.00065055 -0.000117117 -6.36303e-06
-0.000117117 -0.00145657 -1.16412e-05
-6.36303e-06 -1.16412e-05 -0.000929633
0.000946148 3.41868e-05 2.23813e-07
3.41868e-05 7.81619e-05 5.24082e-07
2.23813e-07 5.24082e-07 -3.70528e-06
0.00107947 5.73353e-05 1.00315e-06
5.73353e-05 0.000147686 6.40469e-07
1.00315e-06 6.40469e-07 6.94177e-05
0.000641651 5.53067e-05 1.04822e-06
5.53067e-05 -6.31971e-05 -2.24333e-06
1.04822e-06 -2.24333e-06 -0.00013888
0.000763341 2.26229e-05 2.05599e-07
2.26229e-05 -3.1408e-05 -4.45007e-07
2.05599e-07 -4.45007e-07 -7.99289e-05
0.00098052 2.88625e-05 -4.92018e-07
2.88625e-05 8.98263e-05 -5.6119e-07
-4.92018e-07 -5.6119e-07 2.86049e-05
0.0010561 -3.29984e-05 -1.05443e-07
-3.29984e-05 0.000127441 -2.07034e-08
-1.05443e-07 -2.07034e-08 6.39933e-05
0.000876523 -4.2974e-06 -7.29927e-07
-4.2974e-06 4.06084e-05 -5.03052e-07
-7.29927e-07 -5.03052e-07 -2.4465e-05
0.000940206 1.16661e-05 -5.38623e-07
1.16661e-05 7.1571e-05 2.2218e-07
-5.38623e-07 2.2218e-07 6.25814e-07
0.000949745 1.44895e-05 3.90509e-07
1.44895e-05 7.25409e-05 -3.99106e-07
3.90509e-07 -3.99106e-07 1.15669e-05
0.000935324 -6.14127e-06 -4.13295e-08
-6.14127e-06 6.37489e-05 -6.23436e-08
-4.13295e-08 -6.23436e-08 -3.18846e-06
0.000949281 -3.59548e-05 1.64874e-07
-3.59548e-05 6.91719e-05 4.96411e-08
1.64874e-07 4.96411e-08 4.56484e-06
0.000979871 1.86556e-05 5.86494e-09
1.86556e-05 9.29481e-05 1.81841e-07
5.86494e-09 1.81841e-07 2.18613e-05
0.00123669 -2.3954e-05 8.78487e-07
-2.3954e-05 0.000221721 -4.5323e-07
8.78487e-07 -4.5323e-07 0.000153048
0.000950537 -1.58727e-05 -3.43829e-08
-1.58727e-05 6.55034e-05 8.5623e-08
-3.43829e-08 8.5623e-08 -1.64818e-06
0.000958605 3.72984e-06 1.77911e-07
3.72984e-06 7.72801e-05 2.71093e-07
1.77911e-07 2.71093e-07 9.35417e-06
0.00096596 -2.56324e-05 1.22019e-07
-2.56324e-05 8.2569e-05 -5.9206e-07
1.22019e-07 -5.9206e-07 2.18117e-05
0.000872442 2.16842e-05 -2.45449e-07
2.16842e-05 2.92036e-05 -6.94291e-07
-2.45449e-07 -6.94291e-07 -3.28506e-05
0.000936693 -6.02568e-07 2.65267e-07
-6.02568e-07 6.64801e-05 -1.42364e-07
2.65267e-07 -1.42364e-07 -6.19199e-08
0.000900431 3.76798e-05 -6.18748e-08
3.76798e-05 5.04964e-05 -1.23302e-08
-6.18748e-08 -1.23302e-08 -1.31728e-05
0.00098649 3.67825e-05 -5.34911e-07
3.67825e-05 8.76988e-05 -4.88489e-07
-5.34911e-07 -4.88489e-07 2.15392e-05
0.000869365 2.84423e-05 6.01186e-07
2.84423e-05 3.69466e-05 1.07935e-06
6.01186e-07 1.07935e-06 -2.83353e-05
0.000990945 3.45335e-05 4.01767e-07
3.45335e-05 9.34809e-05 2.60453e-07
4.01767e-07 2.60453e-07 2.42775e-05
0.000928135 2.55414e-05 4.68744e-08
2.55414e-05 5.87095e-05 4.95729e-07
4.68744e-08 4.95729e-07 -9.31261e-06
0.000886816 2.83561e-07 8.34416e-07
2.83561e-07 5.03982e-05 5.95305e-07
8.34416e-07 5.95305e-07 -3.04755e-05
0.000804941 -5.08223e-05 -2.03794e-07
-5.08223e-05 3.18186e-05 6.89027e-07
-2.03794e-07 6.89027e-07 -6.52702e-05
0.000757974 -8.28511e-08 -3.34123e-07
-8.28511e-08 -1.32775e-05 6.04505e-07
-3.34123e-07 6.04505e-07 -8.95585e-05
0.000896415 1.2216e-05 1.21563e-07
1.2216e-05 5.61839e-05 3.84624e-07
1.21563e-07 3.84624e-07 -1.40744e-05
0.000887426 1.42401e-05 9.10847e-08
1.42401e-05 4.33251e-05 1.14348e-06
9.10847e-08 1.14348e-06 -1.61466e-05
0.000893859 1.01187e-05 -1.61282e-07
1.01187e-05 4.68575e-05 -6.22979e-08
-1.61282e-07 -6.22979e-08 -1.09602e-05
0.000872293 1.82506e-05 -4.54784e-07
1.82506e-05 2.68865e-05 7.86003e-07
-4.54784e-07 7.86003e-07 -1.91031e-05
0.000899619 1.24824e-05 3.51398e-07
1.24824e-05 4.89019e-05 -3.6805e-07
3.51398e-07 -3.6805e-07 -8.12967e-06
0.00088232 3.36899e-06 -4.85125e-08
3.36899e-06 3.04868e-05 8.30103e-09
-4.85125e-08 8.30103e-09 -1.50313e-05
0.000845328 1.62633e-05 -7.18878e-07
1.62633e-05 3.83096e-06 1.70241e-06
-7.18878e-07 1.70241e-06 -2.47787e-05
0.000769745 3.57861e-06 4.22518e-07
3.57861e-06 -3.06346e-05 -7.57043e-07
4.22518e-07 -7.57043e-07 -7.6484e-05
0.000847485 8.56788e-06 -7.89934e-08
8.56788e-06 2.95343e-06 -4.21847e-09
-7.89934e-08 -4.21847e-09 -2.51073e-05
0.00137473 1.56408e-05 -4.42196e-06
1.56408e-05 0.00027757 4.30246e-06
-4.42196e-06 4.30246e-06 0.000279171
0.000841529 2.31365e-07 6.39814e-07
2.31365e-07 -8.17331e-07 -1.62728e-06
6.39814e-07 -1.62728e-06 -2.86573e-05
0.0010841 1.03293e-05 -1.88128e-06
1.03293e-05 0.000120082 6.0903e-07
-1.88128e-06 6.0903e-07 0.000120655
0.000957493 9.19581e-06 -6.6405e-07
9.19581e-06 5.25321e-05 1.55771e-06
-6.6405e-07 1.55771e-06 6.93856e-05
0.000792684 4.97267e-06 2.7207e-07
4.97267e-06 -3.73251e-05 -3.07022e-06
2.7207e-07 -3.07022e-06 -3.78751e-05
0.00213701 5.92071e-06 1.7872e-06
5.92071e-06 0.000680942 1.33487e-08
1.7872e-06 1.33487e-08 0.00070367
0.00213201 -1.36093e-07 1.03065e-06
-1.36093e-07 0.000677797 -4.02526e-06
1.03065e-06 -4.02526e-06 0.00070066
0.00111667 2.39204e-05 -8.7589e-07
2.39204e-05 0.000157678 -3.56717e-07
-8.7589e-07 -3.56717e-07 0.000115935
0.000857107 -4.20719e-06 -2.03889e-07
-4.20719e-06 4.89747e-06 -1.53565e-06
-2.03889e-07 -1.53565e-06 -1.84485e-05
0.000880932 2.80823e-06 6.54155e-07
2.80823e-06 3.42295e-05 4.49665e-07
6.54155e-07 4.49665e-07 -8.66e-06
0.000803962 -4.58883e-07 -9.389e-08
-4.58883e-07 -3.34481e-05 -3.04938e-06
-9.389e-08 -3.04938e-06 -3.07336e-05
0.00085774 -1.13601e-06 3.15826e-08
-1.13601e-06 4.27809e-06 1.66901e-09
3.15826e-08 1.66901e-09 -1.87517e-05
0.000854266 2.18278e-06 -1.92472e-07
2.18278e-06 2.33571e-06 1.59903e-06
-1.92472e-07 1.59903e-06 -2.12289e-05
0.000800797 4.74502e-06 -1.29294e-07
4.74502e-06 -3.47059e-05 9.03409e-09
-1.29294e-07 9.03409e-09 -3.24357e-05
0.00203043 6.08052e-06 2.89325e-06
6.08052e-06 0.00062383 -3.94894e-06
2.89325e-06 -3.94894e-06 0.000647807
0.00132316 1.22736e-05 -7.76565e-07
1.22736e-05 0.000245801 1.89113e-06
-7.76565e-07 1.89113e-06 0.000249817
0.00151614 1.13143e-05 1.91543e-06
1.13143e-05 0.000350954 3.06554e-08
1.91543e-06 3.06554e-08 0.000371482
0.00103475 1.39124e-05 -1.16077e-05
1.39124e-05 9.69033e-05 6.35278e-06
-1.16077e-05 6.35278e-06 0.000113622
-0.00417742 0.000118316 -1.80066e-05
0.000118316 -0.00210732 6.44835e-06
-1.80066e-05 6.44835e-06 -0.00203379
-0.0010991 0.00021685 -8.65271e-06
0.00021685 -0.000829541 1.27535e-05
-8.65271e-06 1.27535e-05 -0.000626566
0.000522559 -2.38527e-05 -9.16976e-05
-2.38527e-05 -0.000577644 -9.09478e-06
-9.16976e-05 -9.09478e-06 -0.000792322
0.00252682 -4.27951e-05 1.6923e-06
-4.27951e-05 0.000513385 -3.04377e-07
1.6923e-06 -3.04377e-07 0.000421839
0.00143328 1.49843e-05 -9.33522e-06
1.49843e-05 -0.000200643 -7.4878e-07
-9.33522e-06 -7.4878e-07 -0.000281607
0.00114508 -2.5093e-05 2.30857e-05
-2.5093e-05 -2.89775e-05 -2.33772e-06
2.30857e-05 -2.33772e-06 -0.00026599
0.00207775 3.84052e-05 1.93318e-07
3.84052e-05 0.000284157 1.59908e-06
1.93318e-07 1.59908e-06 0.000198762
0.00520963 0.000261775 -2.14133e-05
0.000261775 0.00135108 -5.26127e-06
-2.14133e-05 -5.26127e-06 0.000691828
-0.00320461 0.000254899 -9.77631e-06
0.000254899 -0.0013719 -2.35832e-06
-9.77631e-06 -2.35832e-06 -0.00133757
8.16186e-05 0.000470135 4.35394e-06
0.000470135 -0.00101816 -6.49339e-06
4.35394e-06 -6.49339e-06 2.68054e-05
0.00149072 -2.94577e-06 4.86039e-05
-2.94577e-06 0.000140168 -9.93321e-06
4.86039e-05 -9.93321e-06 -9.96049e-05
0.00625102 0.000420907 -4.10263e-06
0.000420907 0.00183576 -9.13913e-06
-4.10263e-06 -9.13913e-06 0.000972182
-9.32421e-05 0.000429803 -4.07784e-05
0.000429803 -0.000311336 1.39254e-05
-4.07784e-05 1.39254e-05 3.32865e-05
0.00289865 0.000252966 -3.96412e-05
0.000252966 -1.97162e-05 2.17526e-05
-3.96412e-05 2.17526e-05 0.000607712
0.000863845 3.18311e-05 -6.44744e-07
3.18311e-05 4.40018e-05 -2.01201e-07
-6.44744e-07 -2.01201e-07 -2.4987e-05
0.000802737 -1.23624e-05 1.17691e-07
-1.23624e-05 3.74283e-06 -3.51838e-07
1.17691e-07 -3.51838e-07 -5.10699e-05
0.000878942 -4.10559e-05 -7.9133e-07
-4.10559e-05 3.33078e-05 8.27702e-07
-7.9133e-07 8.27702e-07 -9.7403e-06
0.000798672 6.9516e-06 1.74954e-07
6.9516e-06 1.1434e-06 2.7331e-07
1.74954e-07 2.7331e-07 -5.49432e-05
0.000897144 4.4791e-05 7.35164e-07
4.4791e-05 6.34407e-05 7.6649e-07
7.35164e-07 7.6649e-07 -1.53002e-06
0.000939261 2.98357e-05 -6.45893e-07
2.98357e-05 8.30031e-05 2.86158e-07
-6.45893e-07 2.86158e-07 1.4851e-05
0.000902994 3.40431e-05 1.10688e-06
3.40431e-05 6.35069e-05 1.00696e-06
1.10688e-06 1.00696e-06 -1.75203e-06
0.00086656 -1.54686e-05 6.53142e-07
-1.54686e-05 3.77612e-05 1.88898e-07
6.53142e-07 1.88898e-07 -2.32081e-05
0.000861068 -2.57032e-05 3.63825e-07
-2.57032e-05 3.70376e-05 -5.51175e-07
3.63825e-07 -5.51175e-07 -2.09205e-05
0.000783215 -3.73307e-05 -2.47026e-07
-3.73307e-05 -3.45313e-06 5.66256e-07
-2.47026e-07 5.66256e-07 -6.05436e-05
0.00149564 8.54704e-06 -7.13086e-07
8.54704e-06 -0.000143505 -1.0556e-06
-7.13086e-07 -1.0556e-06 -0.000227279
0.00195376 -0.000134901 -5.15163e-06
-0.000134901 5.62099e-05 3.75586e-06
-5.15163e-06 3.75586e-06 -2.2824e-05
0.000362488 -0.000108171 3.69462e-06
-0.000108171 -0.000444289 2.80034e-06
3.69462e-06 2.80034e-06 -0.000558975
0.00129429 -0.000130765 2.37142e-06
-0.000130765 0.000269325 -2.69626e-07
2.37142e-06 -2.69626e-07 0.000123756
0.00111658 -3.99426e-05 2.4014e-06
-3.99426e-05 0.000198022 -9.33458e-07
2.4014e-06 -9.33458e-07 7.57109e-05
0.00101143 -4.17787e-05 -2.61476e-07
-4.17787e-05 0.000115956 -4.24842e-07
-2.61476e-07 -4.24842e-07 3.34736e-05
0.000876954 -2.07611e-05 -8.97895e-07
-2.07611e-05 4.5564e-05 -7.92777e-08
-8.97895e-07 -7.92777e-08 -2.51075e-05
0.000895023 2.26529e-05 -5.36947e-07
2.26529e-05 5.98638e-05 1.8968e-07
-5.36947e-07 1.8968e-07 -1.09902e-05
0.00180514 -6.42251e-05 -5.78136e-06
-6.42251e-05 6.48644e-05 1.98666e-06
-5.78136e-06 1.98666e-06 -8.86564e-06
0.000814685 -2.89526e-05 -1.74028e-07
-2.89526e-05 1.77986e-05 8.4329e-08
-1.74028e-07 8.4329e-08 -5.92671e-05
0.000908585 -4.74884e-05 6.06187e-07
-4.74884e-05 6.15892e-05 -3.21352e-07
6.06187e-07 -3.21352e-07 -1.97946e-05
0.00189934 -0.000192843 1.44018e-06
-0.000192843 0.000151232 -8.95257e-07
1.44018e-06 -8.95257e-07 4.44344e-05
0.000536015 -0.000112184 1.59161e-06
-0.000112184 -0.000150124 1.9673e-06
1.59161e-06 1.9673e-06 -0.000276134
0.00117298 -8.07376e-05 1.19759e-06
-8.07376e-05 0.000221037 -3.73101e-07
1.19759e-06 -3.73101e-07 8.25604e-05
0.00106311 -3.23351e-05 -5.97458e-07
-3.23351e-05 0.000145725 -3.26954e-07
-5.97458e-07 -3.26954e-07 4.78668e-05
0.00265767 -0.000191269 2.60526e-07
-0.000191269 0.000609259 -5.2935e-07
2.60526e-07 -5.2935e-07 0.000541156
0.00206661 -0.000206183 -6.86516e-06
-0.000206183 0.000503849 -2.14261e-06
-6.86516e-06 -2.14261e-06 0.000383224
0.000882961 -1.03547e-05 -3.46357e-06
-1.03547e-05 8.99639e-05 3.54808e-06
-3.46357e-06 3.54808e-06 -4.09369e-05
0.000886721 2.79165e-05 4.23093e-07
2.79165e-05 5.598e-05 9.86321e-07
4.23093e-07 9.86321e-07 -2.17307e-05
0.000875957 -7.70293e-05 1.15632e-06
-7.70293e-05 4.46955e-05 3.37542e-08
1.15632e-06 3.37542e-08 -4.08071e-05
0.00102918 -3.7236e-05 2.14539e-07
-3.7236e-05 0.000110429 1.46142e-06
2.14539e-07 1.46142e-06 2.38273e-05
0.00111741 4.98572e-07 -4.27616e-05
4.98572e-07 0.000742522 1.26482e-06
-4.27616e-05 1.26482e-06 0.000662494
0.00132013 -1.09115e-05 1.27897e-05
-1.09115e-05 0.000645404 2.2007e-06
1.27897e-05 2.2007e-06 0.000594759
0.000248218 0.000152934 -4.46702e-05
0.000152934 -0.000974311 1.54178e-05
-4.46702e-05 1.54178e-05 -0.00152019
0.000976457 7.72468e-05 4.77063e-07
7.72468e-05 0.000112214 4.57221e-07
4.77063e-07 4.57221e-07 1.92185e-05
0.000811895 7.36045e-05 2.7236e-06
7.36045e-05 7.17855e-05 -4.61879e-08
2.7236e-06 -4.61879e-08 -5.15603e-05
0.00306073 0.000176342 1.37632e-06
0.000176342 0.000663118 -8.94838e-07
1.37632e-06 -8.94838e-07 0.000682149
0.000170456 8.35308e-05 4.66754e-06
8.35308e-05 -0.00029611 6.3879e-07
4.66754e-06 6.3879e-07 -0.000494009
0.00317084 -0.000268975 4.70911e-05
-0.000268975 0.00133965 9.01091e-06
4.70911e-05 9.01091e-06 0.00150096
0.00102579 -0.000272137 8.86337e-06
-0.000272137 -0.000585706 1.90451e-05
8.86337e-06 1.90451e-05 -0.00134811
0.0047948 0.000159169 -7.70607e-05
0.000159169 0.000819007 -5.54212e-05
-7.70607e-05 -5.54212e-05 0.000214097
-0.00119397 8.96535e-05 4.98379e-06
8.96535e-05 -0.00118333 1.87076e-06
4.98379e-06 1.87076e-06 -0.00113987
-0.00222216 -0.000334872 5.39944e-05
-0.000334872 -0.00129775 2.52865e-05
5.39944e-05 2.52865e-05 -0.00121579
0.00158459 -0.00024087 3.29127e-05
-0.00024087 0.000524038 1.63264e-05
3.29127e-05 1.63264e-05 0.000706175
0.00331669 -0.000316178 3.89338e-05
-0.000316178 5.18836e-05 2.2348e-05
3.89338e-05 2.2348e-05 0.000991556
0.00100651 5.42645e-05 1.98505e-07
5.42645e-05 0.000125229 -1.7758e-07
1.98505e-07 -1.7758e-07 3.9996e-05
0.000107671 -9.45447e-05 -1.53231e-05
-9.45447e-05 4.76665e-05 -2.95452e-06
-1.53231e-05 -2.95452e-06 -2.06903e-06
0.00184831 -2.19412e-05 -2.97067e-06
-2.19412e-05 0.0001424 -8.28971e-06
-2.97067e-06 -8.28971e-06 5.60342e-05
0.00120974 0.000110866 -2.73927e-06
0.000110866 9.22957e-05 -2.93501e-07
-2.73927e-06 -2.93501e-07 1.1422e-05
0.000819832 5.8101e-05 -1.43024e-06
5.8101e-05 0.000140066 -5.21108e-07
-1.43024e-06 -5.21108e-07 -1.74171e-05
0.000707561 5.38901e-05 9.92195e-06
5.38901e-05 7.59785e-05 -9.89321e-06
9.92195e-06 -9.89321e-06 3.43837e-05
0.00553238 0.000469263 -3.41937e-05
0.000469263 0.00154014 -1.41723e-05
-3.41937e-05 -1.41723e-05 0.000925822
0.00770396 -0.000362993 4.66016e-06
-0.000362993 0.00251113 4.20414e-06
4.66016e-06 4.20414e-06 0.0014255
0.000309091 -0.000320425 5.74373e-06
-0.000320425 -0.00103423 8.35706e-06
5.74373e-06 8.35706e-06 -0.000843093
0.00322616 -0.000158594 1.96654e-06
-0.000158594 0.000170698 1.12672e-06
1.96654e-06 1.12672e-06 0.000735569
0.00141983 0.00010161 -3.80379e-06
0.00010161 0.000372555 -5.25738e-06
-3.80379e-06 -5.25738e-06 0.000301306
0.00188579 -1.17882e-06 -1.99254e-05
-1.17882e-06 0.000340727 -3.90444e-06
-1.99254e-05 -3.90444e-06 0.000228445
0.00141301 -5.8233e-06 -4.70079e-06
-5.8233e-06 6.07276e-05 -1.35003e-05
-4.70079e-06 -1.35003e-05 2.1288e-06
0.000109573 -3.35304e-05 -1.32201e-05
-3.35304e-05 -0.000110998 -8.75539e-06
-1.32201e-05 -8.75539e-06 -0.000227983
0.00301068 0.000258689 -1.13156e-05
0.000258689 0.00109016 4.85244e-05
-1.13156e-05 4.85244e-05 0.000713965
0.00831612 -0.000219248 1.45511e-05
-0.000219248 0.00248009 -9.6725e-06
1.45511e-05 -9.6725e-06 0.00117004
-0.0019264 -0.00017384 -4.33805e-05
-0.00017384 -0.00223537 -3.37491e-05
-4.33805e-05 -3.37491e-05 -0.00232745
0.00377804 3.08571e-05 -2.73644e-07
3.08571e-05 0.000505865 -1.76465e-05
-2.73644e-07 -1.76465e-05 0.00104974
0.000931563 5.59877e-05 1.01691e-07
5.59877e-05 7.05016e-05 6.28372e-07
1.01691e-07 6.28372e-07 -8.57564e-06
0.000941007 6.82282e-05 -2.18071e-07
6.82282e-05 8.74882e-05 -6.67803e-07
-2.18071e-07 -6.67803e-07 1.30531e-05
0.000592742 4.10388e-05 1.05758e-06
4.10388e-05 -8.86792e-05 -1.99761e-06
1.05758e-06 -1.99761e-06 -0.000152288
0.000947252 4.93792e-05 -8.77561e-07
4.93792e-05 6.91058e-05 -9.37116e-07
-8.77561e-07 -9.37116e-07 9.44366e-06
0.000936597 -2.27094e-05 1.0683e-07
-2.27094e-05 6.41526e-05 -1.07962e-07
1.0683e-07 -1.07962e-07 -1.86857e-06
0.00100126 -8.91012e-06 -7.59814e-07
-8.91012e-06 0.00010017 7.3204e-08
-7.59814e-07 7.3204e-08 3.33476e-05
0.000903257 4.17521e-06 -3.94215e-07
4.17521e-06 5.46752e-05 3.77944e-07
-3.94215e-07 3.77944e-07 -1.55084e-05
0.000966229 8.64702e-06 3.34038e-07
8.64702e-06 7.77968e-05 1.32978e-09
3.34038e-07 1.32978e-09 1.22779e-05
0.000948698 -9.26029e-06 -1.91062e-07
-9.26029e-06 6.49129e-05 1.3792e-07
-1.91062e-07 1.3792e-07 -2.15005e-06
0.000995761 -1.536e-05 2.87665e-07
-1.536e-05 9.92388e-05 3.74662e-07
2.87665e-07 3.74662e-07 2.96508e-05
0.00119755 -3.5283e-05 4.91549e-08
-3.5283e-05 0.00020905 8.51135e-07
4.91549e-08 8.51135e-07 0.000150071
0.00100884 -4.26097e-05 1.32498e-06
-4.26097e-05 8.44324e-05 -6.33082e-08
1.32498e-06 -6.33082e-08 2.08618e-05
0.000894241 3.34634e-05 1.02342e-06
3.34634e-05 4.14433e-05 4.67669e-07
1.02342e-06 4.67669e-07 -2.75694e-05
0.000936329 -1.63699e-05 7.97292e-07
-1.63699e-05 6.49906e-05 -3.84877e-07
7.97292e-07 -3.84877e-07 -4.18241e-07
0.000885033 3.83314e-05 -1.99019e-07
3.83314e-05 4.27205e-05 -5.63472e-07
-1.99019e-07 -5.63472e-07 -2.10313e-05
0.000929117 2.88936e-05 -7.14914e-07
2.88936e-05 5.53146e-05 -8.31302e-07
-7.14914e-07 -8.31302e-07 -9.88745e-06
0.000976831 3.34433e-05 -2.25935e-07
3.34433e-05 8.4477e-05 -1.79321e-07
-2.25935e-07 -1.79321e-07 1.65026e-05
0.000886793 3.15421e-05 2.60353e-07
3.15421e-05 4.78278e-05 3.48969e-07
2.60353e-07 3.48969e-07 -1.82365e-05
0.000921702 3.45e-05 5.63663e-08
3.45e-05 5.52725e-05 -1.89929e-07
5.63663e-08 -1.89929e-07 -1.27915e-05
0.000878533 1.5806e-05 1.03006e-06
1.5806e-05 4.09458e-05 1.24671e-06
1.03006e-06 1.24671e-06 -3.1461e-05
0.000948189 2.2278e-05 2.45308e-07
2.2278e-05 6.14153e-05 7.53248e-07
2.45308e-07 7.53248e-07 -5.94624e-06
0.000919197 -4.53846e-05 7.80392e-08
-4.53846e-05 7.95168e-05 6.42811e-07
7.80392e-08 6.42811e-07 -7.23003e-06
0.000980123 -6.84886e-06 -2.78074e-07
-6.84886e-06 9.89624e-05 -4.125e-08
-2.78074e-07 -4.125e-08 1.81463e-05
0.000787926 -4.10436e-05 -1.01066e-07
-4.10436e-05 2.14592e-05 2.43463e-06
-1.01066e-07 2.43463e-06 -7.22898e-05
0.00102494 -9.21365e-05 -1.88781e-06
-9.21365e-05 0.000132812 3.27848e-06
-1.88781e-06 3.27848e-06 2.26708e-05
0.00107153 -3.38223e-05 4.07853e-07
-3.38223e-05 0.000154201 -1.50112e-07
4.07853e-07 -1.50112e-07 7.06632e-05
0.000811466 -5.37829e-05 3.78426e-07
-5.37829e-05 3.66095e-05 -1.83248e-06
3.78426e-07 -1.83248e-06 -5.82462e-05
0.000916645 -9.5708e-07 -1.9278e-07
-9.5708e-07 6.96595e-05 -5.81193e-07
-1.9278e-07 -5.81193e-07 -5.39042e-06
0.000776922 7.42876e-06 2.18768e-07
7.42876e-06 -1.38132e-05 1.15959e-06
2.18768e-07 1.15959e-06 -7.88259e-05
0.000920545 1.18493e-05 -2.31517e-07
1.18493e-05 6.98923e-05 -7.25277e-07
-2.31517e-07 -7.25277e-07 -7.1359e-07
0.000900583 6.97049e-06 1.91154e-08
6.97049e-06 5.05267e-05 3.59749e-07
1.91154e-08 3.59749e-07 -9.17933e-06
0.000869342 1.87576e-05 -5.39056e-07
1.87576e-05 2.65908e-05 9.37849e-07
-5.39056e-07 9.37849e-07 -2.07557e-05
0.000902607 -5.77964e-06 1.86141e-07
-5.77964e-06 5.31559e-05 -6.46106e-07
1.86141e-07 -6.46106e-07 -5.83669e-06
0.000874776 3.45841e-06 -2.71359e-07
3.45841e-06 2.83739e-05 5.76832e-09
-2.71359e-07 5.76832e-09 -1.78501e-05
0.000840259 1.93569e-05 -9.21165e-07
1.93569e-05 4.37446e-06 1.72079e-06
-9.21165e-07 1.72079e-06 -2.51129e-05
0.00089283 -4.55063e-06 9.31721e-07
-4.55063e-06 3.61196e-05 -7.78776e-07
9.31721e-07 -7.78776e-07 -9.6268e-06
0.000847153 1.17911e-05 -1.45866e-07
1.17911e-05 4.40875e-06 1.1959e-09
-1.45866e-07 1.1959e-09 -2.40776e-05
0.00136891 2.09161e-05 -6.07777e-06
2.09161e-05 0.000277983 4.29294e-06
-6.07777e-06 4.29294e-06 0.000278942
0.000844388 3.36907e-06 9.49245e-07
3.36907e-06 1.11316e-06 -1.66768e-06
9.49245e-07 -1.66768e-06 -2.68482e-05
0.00107986 1.52651e-05 -2.51917e-06
1.52651e-05 0.000120416 5.83561e-07
-2.51917e-06 5.83561e-07 0.000120585
0.000952744 1.4208e-05 -1.1952e-06
1.4208e-05 5.3311e-05 1.57016e-06
-1.1952e-06 1.57016e-06 6.96008e-05
0.000789598 9.51313e-06 5.19137e-07
9.51313e-06 -3.74667e-05 -3.10978e-06
5.19137e-07 -3.10978e-06 -3.82642e-05
0.0015473 1.15048e-05 3.8744e-06
1.15048e-05 0.000367451 -1.19234e-06
3.8744e-06 -1.19234e-06 0.00038711
0.00213597 6.62647e-06 4.5629e-06
6.62647e-06 0.000680662 -3.99417e-06
4.5629e-06 -3.99417e-06 0.000703354
0.000934968 -2.43294e-05 6.92681e-07
-2.43294e-05 6.216e-05 -3.82984e-07
6.92681e-07 -3.82984e-07 1.7439e-05
0.000853888 -7.75987e-06 -2.65667e-07
-7.75987e-06 5.10903e-06 -1.44278e-06
-2.65667e-07 -1.44278e-06 -1.93346e-05
0.000920997 -7.22999e-06 4.4202e-07
-7.22999e-06 5.48807e-05 1.47823e-07
4.4202e-07 1.47823e-07 1.2086e-05
0.000807799 -5.32663e-06 -3.44412e-07
-5.32663e-06 -3.04781e-05 -3.01702e-06
-3.44412e-07 -3.01702e-06 -2.80998e-05
0.00085771 -4.74974e-06 -3.23134e-08
-4.74974e-06 5.17842e-06 -5.3854e-09
-3.23134e-08 -5.3854e-09 -1.81652e-05
0.000891138 -2.60488e-05 -8.86747e-07
-2.60488e-05 3.75544e-05 1.06226e-06
-8.86747e-07 1.06226e-06 -3.83507e-06
0.00201853 -4.33825e-07 -7.28636e-07
-4.33825e-07 0.000617238 -3.95092e-06
-7.28636e-07 -3.95092e-06 0.000641391
0.000802492 -2.28201e-07 -7.48988e-08
-2.28201e-07 -3.42858e-05 7.42044e-10
-7.48988e-08 7.42044e-10 -3.15645e-05
0.000858197 -1.62618e-06 3.19027e-08
-1.62618e-06 4.44187e-06 1.59426e-06
3.19027e-08 1.59426e-06 -1.85782e-05
0.000804341 4.93484e-06 -2.32756e-07
4.93484e-06 -3.28103e-05 3.07794e-06
-2.32756e-07 3.07794e-06 -3.05824e-05
0.00203351 6.43492e-06 -1.90152e-06
6.43492e-06 0.000625651 -1.39518e-08
-1.90152e-06 -1.39518e-08 0.000649557
0.00206239 1.26427e-05 -8.65766e-06
1.26427e-05 0.000642522 3.9228e-06
-8.65766e-06 3.9228e-06 0.000665875
-0.00107733 7.6716e-05 -2.301e-05
7.6716e-05 -0.000498734 1.6286e-06
-2.301e-05 1.6286e-06 -0.000642569
-0.00106317 0.000227069 9.81386e-06
0.000227069 -0.000424274 2.13496e-06
9.81386e-06 2.13496e-06 -0.000439774
0.0017146 4.60672e-05 -4.11323e-05
4.60672e-05 -7.82853e-07 2.21259e-05
-4.11323e-05 2.21259e-05 -3.84362e-05
-0.00125268 0.000247494 2.66108e-05
0.000247494 -0.000864003 -9.15252e-06
2.66108e-05 -9.15252e-06 -0.00063279
0.00192278 3.03216e-05 -7.88304e-05
3.03216e-05 0.000228461 1.47091e-07
-7.88304e-05 1.47091e-07 -8.11495e-05
0.00183454 3.55766e-05 2.57461e-05
3.55766e-05 0.000173824 -4.09136e-06
2.57461e-05 -4.09136e-06 9.01246e-05
0.00128006 -7.88774e-05 -4.90247e-05
-7.88774e-05 -0.000392393 -3.68137e-06
-4.90247e-05 -3.68137e-06 -0.000938431
0.00517533 0.000404668 8.04904e-05
0.000404668 0.00248845 -2.6197e-05
8.04904e-05 -2.6197e-05 0.0025948
-0.00144143 0.000500487 1.49257e-05
0.000500487 -0.00212468 1.51667e-05
1.49257e-05 1.51667e-05 -0.000880059
0.00129589 6.8152e-05 -2.18967e-06
6.8152e-05 -8.70286e-05 2.93113e-06
-2.18967e-06 2.93113e-06 -0.000299602
0.00263877 0.00028536 8.14356e-06
0.00028536 0.000212441 -1.5297e-05
8.14356e-06 -1.5297e-05 -0.000875682
0.00397161 0.000609586 -4.70702e-06
0.000609586 0.00110466 -4.51276e-06
-4.70702e-06 -4.51276e-06 0.00141639
0.0020919 0.000257024 -2.63871e-06
0.000257024 -0.000527816 4.0137e-06
-2.63871e-06 4.0137e-06 9.38108e-05
0.00171236 9.34755e-06 -1.64975e-05
9.34755e-06 -0.000233548 -1.54458e-06
-1.64975e-05 -1.54458e-06 -0.000435351
0.00309675 0.000397714 5.45355e-05
0.000397714 0.000584849 -3.63629e-05
5.45355e-05 -3.63629e-05 -0.000604741
-0.00350748 0.000248135 -7.86352e-05
0.000248135 -0.00290266 2.63894e-05
-7.86352e-05 2.63894e-05 -0.00274544
0.00106278 0.000136016 -1.03041e-05
0.000136016 -0.00126796 1.55167e-05
-1.03041e-05 1.55167e-05 -0.000758167
0.000985814 -1.38186e-05 1.07627e-06
-1.38186e-05 0.000108923 2.48545e-07
1.07627e-06 2.48545e-07 3.2556e-05
0.000925643 3.08175e-05 -1.23115e-06
3.08175e-05 7.62295e-05 -3.60061e-07
-1.23115e-06 -3.60061e-07 8.40825e-06
0.000880173 3.86975e-06 7.49208e-07
3.86975e-06 4.4403e-05 -1.4594e-07
7.49208e-07 -1.4594e-07 -1.02896e-05
0.000922293 4.98038e-05 1.71302e-06
4.98038e-05 7.78414e-05 7.78826e-07
1.71302e-06 7.78826e-07 1.3528e-05
0.000851125 1.09878e-05 -1.92295e-07
1.09878e-05 3.64449e-05 5.97694e-07
-1.92295e-07 5.97694e-07 -3.89089e-05
0.00097079 2.99279e-05 1.62984e-07
2.99279e-05 0.000100403 5.24371e-07
1.62984e-07 5.24371e-07 3.23941e-05
0.000873236 -4.63534e-06 -3.0843e-07
-4.63534e-06 4.51234e-05 1.13502e-06
-3.0843e-07 1.13502e-06 -1.84431e-05
0.000986168 5.33757e-05 -7.60887e-07
5.33757e-05 0.000105274 1.76874e-07
-7.60887e-07 1.76874e-07 3.85825e-05
0.000967666 2.06385e-05 -3.42178e-07
2.06385e-05 9.53566e-05 3.54862e-07
-3.42178e-07 3.54862e-07 3.20696e-05
0.000803224 -2.23594e-05 -8.30974e-07
-2.23594e-05 7.68908e-06 -3.0417e-07
-8.30974e-07 -3.0417e-07 -5.20534e-05
0.00119 -5.36367e-05 4.87975e-06
-5.36367e-05 -0.000243791 -1.20595e-06
4.87975e-06 -1.20595e-06 -0.000321944
0.00170139 -0.000177351 1.44229e-07
-0.000177351 6.96247e-05 4.23483e-06
1.44229e-07 4.23483e-06 -3.5528e-05
0.000689878 -0.000114844 9.93909e-06
-0.000114844 -5.40151e-05 7.9155e-07
9.93909e-06 7.9155e-07 -0.00017845
0.00100347 -7.32381e-05 4.10771e-06
-7.32381e-05 0.000124764 -1.38281e-06
4.10771e-06 -1.38281e-06 -9.06905e-06
0.00107109 -2.25232e-05 2.97116e-07
-2.25232e-05 0.000152818 -9.08195e-07
2.97116e-07 -9.08195e-07 4.99803e-05
0.000833078 -4.92693e-05 -5.82959e-07
-4.92693e-05 2.33824e-05 -5.33957e-07
-5.82959e-07 -5.33957e-07 -6.04974e-05
0.000865128 3.71387e-05 -7.75501e-08
3.71387e-05 4.36445e-05 -1.08423e-07
-7.75501e-08 -1.08423e-07 -3.41061e-05
0.000921409 -2.11037e-05 2.22318e-08
-2.11037e-05 7.55171e-05 5.78846e-07
2.22318e-08 5.78846e-07 -3.39463e-06
0.00172133 -0.000162256 5.0866e-07
-0.000162256 0.000152854 -2.83768e-07
5.0866e-07 -2.83768e-07 9.53107e-05
0.000978808 -2.66976e-06 -1.9544e-07
-2.66976e-06 9.92516e-05 -3.86214e-07
-1.9544e-07 -3.86214e-07 1.45928e-05
0.0010838 -3.63382e-05 -4.55228e-07
-3.63382e-05 0.00014106 -1.18691e-07
-4.55228e-07 -1.18691e-07 5.23667e-05
0.00155155 -0.000179525 -2.41033e-07
-0.000179525 0.000260004 -1.95841e-06
-2.41033e-07 -1.95841e-06 0.000132115
0.00108717 -2.75764e-05 -8.62896e-07
-2.75764e-05 0.000179507 9.31505e-07
-8.62896e-07 9.31505e-07 5.1671e-05
-0.000236827 -0.000182854 -1.62521e-06
-0.000182854 -0.000861266 -7.05593e-06
-1.62521e-06 -7.05593e-06 -0.000790722
0.00181429 -7.79666e-05 -2.88023e-06
-7.79666e-05 0.000568041 8.86251e-06
-2.88023e-06 8.86251e-06 0.000402294
0.000561389 2.02342e-05 -2.11043e-06
2.02342e-05 -0.000127612 4.74201e-06
-2.11043e-06 4.74201e-06 -0.000216227
0.000929654 9.46165e-06 3.31048e-07
9.46165e-06 6.50225e-05 7.25609e-07
3.31048e-07 7.25609e-07 -1.41856e-05
0.000915025 2.12403e-05 -6.10993e-07
2.12403e-05 5.25465e-05 1.00037e-06
-6.10993e-07 1.00037e-06 -3.71952e-05
0.00163153 -3.80567e-06 -6.07135e-06
-3.80567e-06 0.000233582 8.73852e-07
-6.07135e-06 8.73852e-07 0.00012759
2.3272e-05 -3.84605e-06 -4.00946e-06
-3.84605e-06 0.000157734 -9.39401e-07
-4.00946e-06 -9.39401e-07 2.78416e-05
-0.00476989 -4.68792e-05 1.17974e-05
-4.68792e-05 -0.002513 4.00739e-06
1.17974e-05 4.00739e-06 -0.0024114
0.000922847 6.77653e-05 1.69105e-06
6.77653e-05 8.74504e-05 8.86834e-07
1.69105e-06 8.86834e-07 5.76186e-07
0.000120551 1.86456e-05 3.18712e-06
1.86456e-05 -0.0002022 5.5282e-07
3.18712e-06 5.5282e-07 -0.000365409
0.00133798 8.63818e-05 7.04319e-06
8.63818e-05 0.000173057 -7.89867e-07
7.04319e-06 -7.89867e-07 7.33391e-05
-0.00130567 -4.94445e-05 1.58304e-05
-4.94445e-05 -0.000682725 2.25613e-06
1.58304e-05 2.25613e-06 -0.000838844
0.0028729 -0.000386422 1.33931e-05
-0.000386422 0.000442109 6.45082e-06
1.33931e-05 6.45082e-06 -0.000838568
0.00514839 0.000427259 8.54402e-05
0.000427259 0.00139544 -3.23028e-05
8.54402e-05 -3.23028e-05 0.000945526
-0.000228796 4.67649e-05 -1.24421e-05
4.67649e-05 -0.000424099 9.58865e-06
-1.24421e-05 9.58865e-06 -0.000433307
0.00513746 -0.000519616 4.35142e-05
-0.000519616 0.0014102 4.19631e-05
4.35142e-05 4.19631e-05 0.00148172
0.00199157 -2.05649e-05 2.34215e-05
-2.05649e-05 0.000210571 1.13039e-05
2.34215e-05 1.13039e-05 0.000125609
0.00271425 -0.000138523 1.45299e-05
-0.000138523 -4.45143e-05 1.20485e-05
1.45299e-05 1.20485e-05 0.000508478
0.00115624 9.1017e-05 8.25064e-07
9.1017e-05 0.000240635 -7.31885e-07
8.25064e-07 -7.31885e-07 0.000169952
0.00155104 2.06042e-07 1.15564e-07
2.06042e-07 0.000168003 -2.80276e-06
1.15564e-07 -2.80276e-06 7.1321e-05
0.00145101 -6.98765e-06 -2.8981e-06
-6.98765e-06 6.55246e-05 -1.95959e-06
-2.8981e-06 -1.95959e-06 1.01036e-05
-7.06224e-05 1.2072e-05 1.91292e-06
1.2072e-05 -0.000201446 3.09143e-07
1.91292e-06 3.09143e-07 -0.000321744
0.00298687 0.000315321 -2.56053e-05
0.000315321 0.000791491 -2.27352e-05
-2.56053e-05 -2.27352e-05 0.000483027
0.00456727 8.11514e-05 3.38935e-05
8.11514e-05 0.000827907 8.75026e-06
3.38935e-05 8.75026e-06 -0.000622618
0.00230174 1.62323e-05 1.27766e-06
1.62323e-05 -0.000440073 -6.65095e-06
1.27766e-06 -6.65095e-06 0.000121603
0.00105704 -0.000215268 -8.0472e-06
-0.000215268 -0.000631862 2.05145e-05
-8.0472e-06 2.05145e-05 -0.000685287
0.00110138 4.32602e-05 -2.13077e-06
4.32602e-05 0.000277498 -8.86744e-06
-2.13077e-06 -8.86744e-06 0.000235991
0.000849307 5.09369e-06 5.05384e-06
5.09369e-06 1.70858e-05 5.15194e-06
5.05384e-06 5.15194e-06 -4.31836e-05
0.00148606 2.50411e-06 -4.12243e-06
2.50411e-06 0.000143749 -6.17733e-06
-4.12243e-06 -6.17733e-06 6.45225e-05
0.00110902 0.000125275 9.86705e-06
0.000125275 -0.00115084 -1.68715e-05
9.86705e-06 -1.68715e-05 -0.000708424
-0.00123628 6.86227e-05 9.02063e-06
6.86227e-05 -0.000631851 -5.55722e-06
9.02063e-06 -5.55722e-06 -0.000849179
0.00734025 -1.58234e-05 4.3888e-05
-1.58234e-05 0.00209791 9.63846e-06
4.3888e-05 9.63846e-06 0.000901636
-0.000832767 -2.55626e-05 1.24245e-05
-2.55626e-05 -0.00100163 -5.71331e-05
1.24245e-05 -5.71331e-05 -0.000974189
0.00124275 8.85799e-05 1.86204e-06
8.85799e-05 0.000239651 2.87279e-06
1.86204e-06 2.87279e-06 0.000165937
0.000759639 5.75277e-05 -8.92063e-07
5.75277e-05 -9.68346e-06 1.57635e-06
-8.92063e-07 1.57635e-06 -7.67725e-05
0.000753167 2.68289e-05 -8.91785e-07
2.68289e-05 1.31369e-05 -2.83538e-06
-8.91785e-07 -2.83538e-06 -4.72913e-05
0.000968078 6.06719e-05 -2.96089e-07
6.06719e-05 7.99212e-05 -3.02592e-07
-2.96089e-07 -3.02592e-07 1.37215e-05
0.000940324 3.97835e-06 -4.90168e-07
3.97835e-06 5.99526e-05 -3.37407e-07
-4.90168e-07 -3.37407e-07 -6.17006e-06
0.000785581 -2.62594e-05 -1.23702e-06
-2.62594e-05 -7.78681e-06 1.83189e-06
-1.23702e-06 1.83189e-06 -7.9053e-05
0.000957342 3.75675e-05 1.50135e-07
3.75675e-05 7.15238e-05 2.88751e-08
1.50135e-07 2.88751e-08 3.96574e-06
0.000896085 -4.94309e-05 -2.76178e-08
-4.94309e-05 2.84295e-05 -3.20154e-07
-2.76178e-08 -3.20154e-07 -3.69503e-05
0.00105685 -5.45751e-05 2.26579e-06
-5.45751e-05 0.000130185 1.39604e-06
2.26579e-06 1.39604e-06 6.66527e-05
0.000806408 -1.15065e-05 6.81661e-07
-1.15065e-05 1.72128e-05 1.3861e-06
6.81661e-07 1.3861e-06 -2.96703e-05
0.000937873 -1.04474e-05 5.54591e-07
-1.04474e-05 4.37502e-05 7.08304e-08
5.54591e-07 7.08304e-08 -2.06076e-05
0.000957103 3.29504e-05 -6.67402e-07
3.29504e-05 7.22878e-05 -4.1938e-07
-6.67402e-07 -4.1938e-07 5.7023e-06
0.000906788 3.47671e-05 -1.48872e-07
3.47671e-05 5.99059e-05 -4.70356e-07
-1.48872e-07 -4.70356e-07 -6.90915e-06
0.000904782 3.76044e-05 -5.7207e-07
3.76044e-05 4.61087e-05 -1.02096e-06
-5.7207e-07 -1.02096e-06 -2.17897e-05
0.000933014 1.72327e-05 3.47497e-08
1.72327e-05 5.33148e-05 2.67463e-07
3.47497e-08 2.67463e-07 -1.40689e-05
0.000941252 1.72072e-05 5.43334e-07
1.72072e-05 7.23839e-05 3.42553e-07
5.43334e-07 3.42553e-07 6.27212e-07
0.000845608 -3.9121e-05 2.01771e-07
-3.9121e-05 4.32303e-05 1.3336e-06
2.01771e-07 1.3336e-06 -3.41376e-05
0.000868861 -2.9742e-05 -1.13356e-07
-2.9742e-05 5.43899e-05 -7.13988e-07
-1.13356e-07 -7.13988e-07 -2.93963e-05
0.000788222 -4.85363e-05 9.24578e-07
-4.85363e-05 3.13804e-05 1.89093e-06
9.24578e-07 1.89093e-06 -7.7613e-05
0.00107697 -1.31264e-05 -5.70612e-07
-1.31264e-05 0.000149217 -1.12089e-06
-5.70612e-07 -1.12089e-06 6.85889e-05
0.00103375 -5.25525e-05 -3.0145e-07
-5.25525e-05 0.000143257 7.69073e-07
-3.0145e-07 7.69073e-07 4.83345e-05
0.00058226 -7.50023e-05 -1.63335e-06
-7.50023e-05 -9.44261e-05 3.15057e-06
-1.63335e-06 3.15057e-06 -0.000212697
0.000943351 -8.89914e-05 -3.11226e-06
-8.89914e-05 9.31005e-05 7.82579e-07
-3.11226e-06 7.82579e-07 -1.91605e-05
0.00097658 -6.55862e-05 -1.03634e-06
-6.55862e-05 0.000109637 1.4421e-06
-1.03634e-06 1.4421e-06 1.71721e-05
0.000909973 -8.63978e-05 3.89824e-08
-8.63978e-05 7.59579e-05 1.89232e-07
3.89824e-08 1.89232e-07 -3.39437e-05
0.000920461 -8.17515e-06 7.83022e-08
-8.17515e-06 6.35591e-05 1.23277e-06
7.83022e-08 1.23277e-06 -6.96389e-06
0.00100525 -3.559e-05 -5.17233e-07
-3.559e-05 0.000119033 -5.0838e-07
-5.17233e-07 -5.0838e-07 3.43373e-05
0.000813468 -5.60238e-05 8.61973e-07
-5.60238e-05 3.90061e-05 -3.14033e-06
8.61973e-07 -3.14033e-06 -5.35719e-05
0.00107747 -2.04073e-06 -4.7115e-07
-2.04073e-06 0.000153799 -1.5901e-06
-4.7115e-07 -1.5901e-06 7.99668e-05
0.000852711 7.43458e-06 6.66054e-08
7.43458e-06 2.60498e-05 -2.89043e-08
6.66054e-08 -2.89043e-08 -3.7881e-05
0.000870037 2.57716e-05 -2.92183e-07
2.57716e-05 2.86465e-05 1.14205e-06
-2.92183e-07 1.14205e-06 -2.18053e-05
0.000917447 1.88513e-06 2.01401e-07
1.88513e-06 6.02766e-05 -4.84784e-07
2.01401e-07 -4.84784e-07 -1.22716e-07
0.000875151 1.41789e-05 -2.93204e-07
1.41789e-05 2.98153e-05 -5.9968e-08
-2.93204e-07 -5.9968e-08 -1.76752e-05
0.000832562 2.35378e-05 -1.11284e-06
2.35378e-05 4.19927e-06 1.75407e-06
-1.11284e-06 1.75407e-06 -2.66187e-05
0.000882791 -2.53401e-06 7.84775e-07
-2.53401e-06 3.24483e-05 -8.82954e-07
7.84775e-07 -8.82954e-07 -1.38353e-05
0.000840831 1.82689e-05 -8.56275e-08
1.82689e-05 4.20907e-06 9.13281e-10
-8.56275e-08 9.13281e-10 -2.5187e-05
0.00133969 2.60896e-05 -6.85478e-06
2.60896e-05 0.000267993 3.08841e-06
-6.85478e-06 3.08841e-06 0.000267853
0.000846504 8.02356e-06 1.03779e-06
8.02356e-06 3.66595e-06 -1.67168e-06
1.03779e-06 -1.67168e-06 -2.46981e-05
0.0010762 2.01881e-05 -3.11719e-06
2.01881e-05 0.00012221 5.5459e-07
-3.11719e-06 5.5459e-07 0.000121659
0.000943573 1.90076e-05 -1.74415e-06
1.90076e-05 5.29203e-05 1.57914e-06
-1.74415e-06 1.57914e-06 6.83547e-05
0.000788391 1.41423e-05 8.00955e-07
1.41423e-05 -3.54494e-05 -3.14587e-06
8.00955e-07 -3.14587e-06 -3.66813e-05
0.00154227 1.73119e-05 5.15832e-06
1.73119e-05 0.000367813 -1.14105e-06
5.15832e-06 -1.14105e-06 0.000386955
0.00213176 1.33199e-05 7.91442e-06
1.33199e-05 0.000680373 -3.93003e-06
7.91442e-06 -3.93003e-06 0.000702747
0.000729209 -1.28993e-06 -2.85364e-07
-1.28993e-06 -4.26159e-05 -1.05929e-06
-2.85364e-07 -1.05929e-06 -9.45566e-05
0.000624804 -1.18898e-05 -2.08502e-07
-1.18898e-05 -0.000112434 -1.84178e-06
-2.08502e-07 -1.84178e-06 -0.000140557
0.000955081 -1.08201e-05 -1.77292e-08
-1.08201e-05 7.40533e-05 2.70287e-08
-1.77292e-08 2.70287e-08 2.82591e-05
0.000808838 -1.01188e-05 -4.65179e-07
-1.01188e-05 -2.75532e-05 -3.0106e-06
-4.65179e-07 -3.0106e-06 -2.6319e-05
0.000735187 -8.22132e-06 3.76777e-08
-8.22132e-06 -5.72032e-05 1.34044e-08
3.76777e-08 1.34044e-08 -8.25316e-05
0.000731067 -3.44045e-05 5.19462e-08
-3.44045e-05 -4.41184e-05 6.51194e-07
5.19462e-08 6.51194e-07 -8.85262e-05
0.00202339 -6.84313e-06 -4.53005e-06
-6.84313e-06 0.000620812 -3.94164e-06
-4.53005e-06 -3.94164e-06 0.000644704
0.000802001 -5.13892e-06 -1.47744e-07
-5.13892e-06 -3.36458e-05 -8.95072e-09
-1.47744e-07 -8.95072e-09 -3.12127e-05
0.000857131 -5.36414e-06 4.20941e-08
-5.36414e-06 4.83185e-06 1.54026e-06
4.20941e-08 1.54026e-06 -1.8505e-05
0.00201749 -6.93979e-08 -1.85934e-06
-6.93979e-08 0.000616662 -9.83491e-10
-1.85934e-06 -9.83491e-10 0.000640818
0.000802873 -3.1837e-09 3.49897e-08
-3.1837e-09 -3.4133e-05 3.05915e-06
3.49897e-08 3.05915e-06 -3.14156e-05
0.00203672 6.78248e-06 -4.36097e-06
6.78248e-06 0.000627534 3.96832e-06
-4.36097e-06 3.96832e-06 0.000651364
0.00105575 5.45581e-06 -2.04944e-05
5.45581e-06 -0.000122744 6.29197e-06
-2.04944e-05 6.29197e-06 -0.000235538
0.00114367 0.000117408 1.35729e-06
0.000117408 0.000680503 -2.5492e-06
1.35729e-06 -2.5492e-06 0.000697407
0.00056221 1.1066e-05 6.36529e-05
1.1066e-05 0.000335247 -1.32655e-05
6.36529e-05 -1.32655e-05 0.000173495
0.00090896 1.8046e-05 -8.90097e-08
1.8046e-05 5.77123e-05 2.12744e-08
-8.90097e-08 2.12744e-08 -9.60838e-06
0.00145538 2.59428e-05 -2.69691e-06
2.59428e-05 8.4678e-05 1.16846e-05
-2.69691e-06 1.16846e-05 3.47198e-05
0.00141931 3.78114e-05 -1.31661e-05
3.78114e-05 -0.000174481 4.57547e-06
-1.31661e-05 4.57547e-06 -0.000241857
0.00120421 0.000286584 4.4903e-05
0.000286584 0.000337205 -2.43853e-05
4.4903e-05 -2.43853e-05 0.000744009
0.00331442 7.35459e-05 -3.73204e-05
7.35459e-05 0.000704209 7.98052e-06
-3.73204e-05 7.98052e-06 0.000476364
0.0083989 0.000513913 1.85017e-05
0.000513913 0.00291624 -1.11461e-05
1.85017e-05 -1.11461e-05 0.00196346
-0.00240349 0.000390668 4.7001e-05
0.000390668 -0.00191585 -1.27044e-05
4.7001e-05 -1.27044e-05 -0.00150421
0.00295527 0.000269838 2.72918e-05
0.000269838 3.98661e-05 -2.18596e-05
2.72918e-05 -2.18596e-05 0.000635113
0.00221771 2.167e-05 -4.06822e-05
2.167e-05 -0.00030387 4.26609e-06
-4.06822e-05 4.26609e-06 -0.000626589
0.00686952 0.000384003 3.57461e-05
0.000384003 0.00237779 -1.31427e-05
3.57461e-05 -1.31427e-05 0.00126558
0.00341521 0.000414973 -4.64469e-06
0.000414973 0.00011658 4.34851e-06
-4.64469e-06 4.34851e-06 0.00022909
0.00291714 0.000151625 -3.50335e-06
0.000151625 -0.000203489 1.89344e-06
-3.50335e-06 1.89344e-06 0.000344016
0.00479342 -0.000189322 5.00906e-05
-0.000189322 0.000930217 -2.77275e-05
5.00906e-05 -2.77275e-05 0.000517125
0.00688732 0.000402215 2.54861e-05
0.000402215 0.00222949 -6.54459e-06
2.54861e-05 -6.54459e-06 0.000698152
0.00221555 0.000291651 9.64801e-06
0.000291651 -0.000439554 4.76503e-05
9.64801e-06 4.76503e-05 -0.0004633
0.00369631 4.67879e-05 -9.26972e-08
4.67879e-05 0.000334627 1.03609e-05
-9.26972e-08 1.03609e-05 0.000924775
0.000919647 -1.71139e-05 4.29869e-07
-1.71139e-05 6.79359e-05 3.63891e-07
4.29869e-07 3.63891e-07 -1.16958e-05
0.000951678 -2.81342e-05 4.49757e-07
-2.81342e-05 9.24822e-05 7.43937e-09
4.49757e-07 7.43937e-09 1.49108e-05
0.00098198 3.71625e-05 -8.79532e-07
3.71625e-05 0.000107292 7.19733e-08
-8.79532e-07 7.19733e-08 3.94079e-05
0.000917416 -8.60226e-06 -2.37523e-07
-8.60226e-06 6.23454e-05 -1.13376e-07
-2.37523e-07 -1.13376e-07 -9.27483e-06
0.000944854 3.77496e-05 -4.99016e-07
3.77496e-05 8.61352e-05 3.39719e-07
-4.99016e-07 3.39719e-07 1.19906e-05
0.000996835 1.5759e-05 5.39532e-07
1.5759e-05 0.000115158 9.22997e-07
5.39532e-07 9.22997e-07 4.71341e-05
0.0010394 4.99913e-05 -4.75937e-07
4.99913e-05 0.000132216 1.18113e-07
-4.75937e-07 1.18113e-07 6.61267e-05
0.00107464 5.46894e-05 7.09368e-07
5.46894e-05 0.000153748 8.4533e-07
7.09368e-07 8.4533e-07 8.96883e-05
0.00107221 -0.000145249 1.46211e-05
-0.000145249 -0.000170979 -7.72922e-06
1.46211e-05 -7.72922e-06 -0.000213088
0.00108123 -0.000155607 4.16421e-06
-0.000155607 3.60167e-05 -9.92615e-07
4.16421e-06 -9.92615e-07 -9.71082e-05
0.000936162 -8.93067e-05 -1.93123e-06
-8.93067e-05 8.82306e-05 -1.5171e-08
-1.93123e-06 -1.5171e-08 5.78952e-06
0.00144449 -4.83332e-05 1.98812e-06
-4.83332e-05 0.000348678 -1.81332e-06
1.98812e-06 -1.81332e-06 0.000225151
0.00111555 -4.55399e-05 -1.16856e-06
-4.55399e-05 0.000156612 -9.20547e-07
-1.16856e-06 -9.20547e-07 6.72077e-05
0.00106724 -1.16482e-05 -8.85477e-07
-1.16482e-05 0.000142369 -4.69112e-07
-8.85477e-07 -4.69112e-07 6.09685e-05
0.000991794 1.25259e-05 2.85324e-08
1.25259e-05 0.000101291 -6.85617e-08
2.85324e-08 -6.85617e-08 2.02432e-05
0.00144636 -0.000250489 -4.2184e-06
-0.000250489 -3.21183e-05 -5.53569e-07
-4.2184e-06 -5.53569e-07 8.70753e-06
0.00100924 1.03555e-05 1.22885e-07
1.03555e-05 0.000107326 -6.22688e-07
1.22885e-07 -6.22688e-07 1.6728e-05
0.00106198 -2.09358e-05 -1.06996e-06
-2.09358e-05 0.000133973 1.07549e-07
-1.06996e-06 1.07549e-07 3.8771e-05
0.00106128 -6.57311e-05 -4.43986e-07
-6.57311e-05 0.000182781 1.46505e-06
-4.43986e-07 1.46505e-06 1.62653e-05
0.0010887 -1.27563e-06 7.36746e-08
-1.27563e-06 0.000141616 9.36865e-07
7.36746e-08 9.36865e-07 6.64348e-05
-0.00184783 -0.000213535 1.51967e-06
-0.000213535 -0.00138492 -9.03011e-06
1.51967e-06 -9.03011e-06 -0.00136204
0.00156606 2.94369e-05 -6.81635e-06
2.94369e-05 0.000576099 1.365e-05
-6.81635e-06 1.365e-05 0.00041784
0.00054823 5.16407e-06 -9.80673e-07
5.16407e-06 -0.000148607 3.42059e-06
-9.80673e-07 3.42059e-06 -0.00022595
0.00100993 7.40076e-05 2.55056e-07
7.40076e-05 0.000107466 1.28587e-06
2.55056e-07 1.28587e-06 2.33932e-05
0.00124878 -6.66533e-07 1.12427e-05
-6.66533e-07 0.000297713 1.72249e-06
1.12427e-05 1.72249e-06 0.000224648
0.00141964 -6.91385e-06 1.01341e-05
-6.91385e-06 0.000128027 4.76961e-07
1.01341e-05 4.76961e-07 1.90577e-05
-0.00109037 -4.6464e-06 1.63969e-05
-4.6464e-06 -0.000438063 -5.07773e-07
1.63969e-05 -5.07773e-07 -0.000621814
0.000816114 7.38351e-05 4.60805e-06
7.38351e-05 6.92262e-05 2.15416e-06
4.60805e-06 2.15416e-06 2.45661e-07
-0.000283342 2.42477e-05 -3.15414e-06
2.42477e-05 -0.00029489 5.38215e-06
-3.15414e-06 5.38215e-06 -0.00041877
0.00123691 4.12242e-07 1.47679e-05
4.12242e-07 4.05542e-06 -1.94226e-06
1.47679e-05 -1.94226e-06 -7.53217e-05
0.00558258 -0.000458714 6.00343e-05
-0.000458714 0.00154309 1.93847e-05
6.00343e-05 1.93847e-05 0.000159162
0.00578015 0.000442957 -2.52599e-05
0.000442957 0.00188752 -6.8178e-05
-2.52599e-05 -6.8178e-05 0.0012921
0.00304855 -0.000324959 9.90598e-06
-0.000324959 -2.70785e-05 7.46196e-05
9.90598e-06 7.46196e-05 -5.17901e-05
0.0015689 -9.09179e-06 -3.07443e-06
-9.09179e-06 0.000129831 9.48064e-06
-3.07443e-06 9.48064e-06 7.61132e-05
0.00104251 1.40532e-05 1.17666e-07
1.40532e-05 -0.00126572 4.00485e-06
1.17666e-07 4.00485e-06 -0.000690087
0.000914214 5.941e-05 1.75874e-07
5.941e-05 0.000176578 1.12225e-07
1.75874e-07 1.12225e-07 0.000126056
0.000936344 4.93026e-06 -1.24372e-06
4.93026e-06 7.53665e-05 3.5036e-07
-1.24372e-06 3.5036e-07 1.61664e-05
0.00131414 1.35129e-06 -2.44817e-06
1.35129e-06 0.000107855 2.37305e-07
-2.44817e-06 2.37305e-07 3.28188e-05
-0.000448343 7.43709e-05 2.63832e-06
7.43709e-05 -0.000160362 -1.27897e-06
2.63832e-06 -1.27897e-06 -0.000305276
0.00289012 0.000146093 3.05626e-06
0.000146093 -0.000145909 -2.37911e-06
3.05626e-06 -2.37911e-06 0.000352781
0.00519719 0.000224911 3.67424e-05
0.000224911 0.000854075 3.96145e-07
3.67424e-05 3.96145e-07 -0.000167245
0.00325912 0.000114681 -4.57911e-05
0.000114681 0.000600577 -3.4955e-06
-4.57911e-05 -3.4955e-06 0.00053475
-0.000259899 4.62047e-05 1.09566e-06
4.62047e-05 -0.000241017 -1.14421e-05
1.09566e-06 -1.14421e-05 -0.00032024
0.00103837 -1.12791e-07 -5.7913e-06
-1.12791e-07 0.000177503 1.0106e-05
-5.7913e-06 1.0106e-05 9.47239e-05
0.00143091 1.84872e-05 5.32331e-06
1.84872e-05 7.16419e-05 -1.12793e-05
5.32331e-06 -1.12793e-05 1.27404e-05
0.00292753 0.000263276 3.70139e-05
0.000263276 5.41151e-06 -2.08618e-05
3.70139e-05 -2.08618e-05 0.000636125
0.00184184 0.000334605 -8.45902e-06
0.000334605 -0.000554231 -5.39907e-05
-8.45902e-06 -5.39907e-05 -0.000574725
0.00132387 0.000205897 1.89277e-05
0.000205897 0.000286006 -1.18994e-05
1.89277e-05 -1.18994e-05 0.000315291
0.00281705 -0.000187297 8.97672e-05
-0.000187297 0.000358072 6.5705e-06
8.97672e-05 6.5705e-06 -0.000889969
0.000929975 7.61599e-05 -9.99089e-07
7.61599e-05 7.31354e-05 5.81697e-06
-9.99089e-07 5.81697e-06 2.25182e-06
0.00101096 1.77573e-05 1.27293e-06
1.77573e-05 0.000139178 2.45182e-06
1.27293e-06 2.45182e-06 8.34259e-05
0.000238224 -3.0209e-05 5.43935e-06
-3.0209e-05 -9.49802e-05 -4.90596e-06
5.43935e-06 -4.90596e-06 -0.000197513
0.00102245 1.61051e-05 -5.98954e-07
1.61051e-05 0.000102048 -3.76104e-07
-5.98954e-07 -3.76104e-07 3.65166e-05
0.000830008 -5.16884e-05 -1.00038e-06
-5.16884e-05 -4.72195e-06 1.17948e-07
-1.00038e-06 1.17948e-07 -7.07729e-05
0.000959987 -5.1991e-05 -7.70426e-07
-5.1991e-05 7.44427e-05 1.0425e-06
-7.70426e-07 1.0425e-06 8.08364e-06
0.000970716 -2.27207e-05 1.08445e-08
-2.27207e-05 6.511e-05 -2.59915e-07
1.08445e-08 -2.59915e-07 -4.59381e-07
0.000794121 -2.01391e-05 -8.09001e-07
-2.01391e-05 -3.23464e-06 1.81785e-06
-8.09001e-07 1.81785e-06 -4.81222e-05
0.00068691 -4.07122e-05 1.52517e-06
-4.07122e-05 1.67476e-06 -8.76395e-08
1.52517e-06 -8.76395e-08 -9.66841e-05
0.00092452 8.55504e-06 -3.44973e-07
8.55504e-06 4.96102e-05 -2.87923e-07
-3.44973e-07 -2.87923e-07 -1.81914e-05
0.00101398 2.93202e-05 -1.5206e-07
2.93202e-05 0.000108933 -3.53941e-07
-1.5206e-07 -3.53941e-07 3.76927e-05
0.00101489 -3.5703e-05 2.88069e-07
-3.5703e-05 0.000124483 3.52684e-07
2.88069e-07 3.52684e-07 4.57569e-05
0.000685011 -4.971e-05 2.04631e-06
-4.971e-05 1.87888e-05 2.10305e-06
2.04631e-06 2.10305e-06 -9.88504e-05
0.000827203 -1.62498e-05 -1.95856e-06
-1.62498e-05 3.40066e-05 -1.3475e-06
-1.95856e-06 -1.3475e-06 -4.71243e-05
0.000713799 -5.41276e-05 2.59245e-07
-5.41276e-05 -2.16819e-06 -1.4066e-07
2.59245e-07 -1.4066e-07 -0.000107913
0.00103406 -0.000101922 6.61145e-07
-0.000101922 0.000149727 1.68995e-06
6.61145e-07 1.68995e-06 1.34622e-05
0.001134 -0.000105596 -4.0612e-06
-0.000105596 0.000151035 2.82082e-06
-4.0612e-06 2.82082e-06 2.30679e-05
0.0012826 -6.52127e-05 -2.43945e-07
-6.52127e-05 0.000266619 -1.38544e-06
-2.43945e-07 -1.38544e-06 0.000170411
0.000783968 -8.46164e-05 -6.40919e-07
-8.46164e-05 3.92183e-06 3.94799e-07
-6.40919e-07 3.94799e-07 -0.000117618
0.00134828 -0.000109248 -6.22527e-07
-0.000109248 0.000295694 -2.88686e-07
-6.22527e-07 -2.88686e-07 0.000188061
0.000713344 -6.64331e-05 -1.52694e-06
-6.64331e-05 -1.67541e-05 5.54919e-07
-1.52694e-06 5.54919e-07 -0.0001164
0.000948307 -8.88509e-05 2.62146e-07
-8.88509e-05 9.52368e-05 -3.44286e-07
2.62146e-07 -3.44286e-07 -1.49403e-05
0.000950762 -1.4931e-05 -6.20878e-07
-1.4931e-05 8.19386e-05 9.87315e-07
-6.20878e-07 9.87315e-07 6.41029e-06
0.00103756 -6.66261e-05 -1.07255e-06
-6.66261e-05 0.000139379 8.55798e-07
-1.07255e-06 8.55798e-07 4.67447e-05
0.000792419 -8.05643e-05 4.46661e-07
-8.05643e-05 1.77376e-05 -1.90722e-06
4.46661e-07 -1.90722e-06 -9.19183e-05
0.000889639 2.28224e-05 -3.06263e-07
2.28224e-05 4.14452e-05 1.30749e-06
-3.06263e-07 1.30749e-06 -1.40314e-05
0.000850994 -6.45635e-06 3.82922e-07
-6.45635e-06 2.70614e-05 7.16933e-08
3.82922e-07 7.16933e-08 -4.36787e-05
0.000942524 -3.7291e-05 1.09389e-06
-3.7291e-05 8.56657e-05 -1.95988e-06
1.09389e-06 -1.95988e-06 -1.96871e-07
0.000928047 6.58205e-06 5.17329e-08
6.58205e-06 6.56689e-05 -1.08061e-06
5.17329e-08 -1.08061e-06 2.81115e-06
0.00087336 2.08373e-05 -1.21712e-07
2.08373e-05 3.02827e-05 -1.04298e-07
-1.21712e-07 -1.04298e-07 -2.0109e-05
0.000827722 2.88552e-05 -1.15566e-06
2.88552e-05 6.13382e-06 1.80293e-06
-1.15566e-06 1.80293e-06 -2.67999e-05
0.000875904 7.69199e-06 4.89734e-07
7.69199e-06 3.03038e-05 -1.0592e-06
4.89734e-07 -1.0592e-06 -1.72461e-05
0.000833642 2.45024e-05 -3.42598e-09
2.45024e-05 4.52136e-06 -5.11292e-09
-3.42598e-09 -5.11292e-09 -2.63269e-05
0.000756259 2.66932e-05 -1.55944e-06
2.66932e-05 -3.72557e-05 3.30239e-06
-1.55944e-06 3.30239e-06 -4.18866e-05
0.000843562 1.66465e-05 9.6503e-07
1.66465e-05 5.17e-06 -1.70848e-06
9.6503e-07 -1.70848e-06 -2.41234e-05
0.00077488 2.29369e-05 1.35628e-07
2.29369e-05 -3.34904e-05 1.37917e-08
1.35628e-07 1.37917e-08 -3.66333e-05
0.00207255 3.50625e-05 -4.82994e-06
3.50625e-05 0.000661093 1.54187e-06
-4.82994e-06 1.54187e-06 0.000680967
0.000787581 1.87309e-05 1.07666e-06
1.87309e-05 -3.21032e-05 -3.17692e-06
1.07666e-06 -3.17692e-06 -3.40805e-05
0.0015359 2.29368e-05 6.32636e-06
2.29368e-05 0.000368617 -1.0844e-06
6.32636e-06 -1.0844e-06 0.000386977
0.00212532 1.98311e-05 1.11584e-05
1.98311e-05 0.000680082 -3.84654e-06
1.11584e-05 -3.84654e-06 0.000701919
0.000750029 -2.15079e-05 9.39688e-08
-2.15079e-05 -3.70726e-05 -9.56501e-07
9.39688e-08 -9.56501e-07 -8.8924e-05
0.000596469 -1.5008e-05 -2.83609e-07
-1.5008e-05 -0.000124185 -1.9164e-06
-2.83609e-07 -1.9164e-06 -0.000155508
0.000852074 -3.07484e-06 -2.21698e-07
-3.07484e-06 2.1491e-05 -5.48603e-07
-2.21698e-07 -5.48603e-07 -2.97273e-05
0.000805264 -1.49401e-05 -5.50234e-07
-1.49401e-05 -2.57393e-05 -3.06217e-06
-5.50234e-07 -3.06217e-06 -2.63394e-05
0.000610445 -1.19697e-05 1.97845e-08
-1.19697e-05 -0.000119807 -5.75601e-07
1.97845e-08 -5.75601e-07 -0.000148246
0.000970261 -7.63472e-07 -1.41448e-07
-7.63472e-07 8.37903e-05 4.93176e-07
-1.41448e-07 4.93176e-07 3.66265e-05
0.00205166 -1.33533e-05 -7.9491e-06
-1.33533e-05 0.000638138 -3.93871e-06
-7.9491e-06 -3.93871e-06 0.000661281
0.000798335 -9.92863e-06 -1.12813e-07
-9.92863e-06 -3.31834e-05 -1.93671e-08
-1.12813e-07 -1.93671e-08 -3.18564e-05
0.000610965 -8.5093e-06 1.20722e-07
-8.5093e-06 -0.000122321 1.39345e-06
1.20722e-07 1.39345e-06 -0.000148528
0.00202116 -6.52589e-06 -1.9811e-06
-6.52589e-06 0.000619429 1.33853e-08
-1.9811e-06 1.33853e-08 0.000643386
0.000796796 -4.95682e-06 1.63363e-07
-4.95682e-06 -3.6481e-05 3.02752e-06
1.63363e-07 3.02752e-06 -3.39996e-05
0.0020189 2.99556e-07 -6.22411e-07
2.99556e-07 0.000617397 3.96244e-06
-6.22411e-07 3.96244e-06 0.000641538
0.00100496 -3.81051e-07 5.82704e-06
-3.81051e-07 7.17765e-05 -1.69678e-06
5.82704e-06 -1.69678e-06 -1.89487e-06
0.00115385 2.52221e-06 -1.53851e-06
2.52221e-06 -6.10444e-05 8.56361e-07
-1.53851e-06 8.56361e-07 -0.000170144
0.000991613 8.97198e-05 3.26402e-05
8.97198e-05 0.000663635 -5.88665e-06
3.26402e-05 -5.88665e-06 0.000635945
0.000937219 1.88482e-05 1.24062e-07
1.88482e-05 7.09455e-05 6.48084e-08
1.24062e-07 6.48084e-08 5.4486e-06
0.000860693 -2.81424e-06 3.3214e-08
-2.81424e-06 2.56006e-05 -4.54386e-08
3.3214e-08 -4.54386e-08 -3.99912e-05
0.00100018 2.99814e-05 -3.54541e-07
2.99814e-05 0.000108446 6.55126e-07
-3.54541e-07 6.55126e-07 3.62217e-05
0.00147159 1.4052e-05 4.39604e-06
1.4052e-05 0.000139066 1.33423e-05
4.39604e-06 1.33423e-05 6.38542e-05
0.00129652 2.18828e-05 -3.66326e-06
2.18828e-05 -1.51957e-05 2.89322e-06
-3.66326e-06 2.89322e-06 -7.00887e-05
0.00105027 3.10313e-05 1.58482e-05
3.10313e-05 -0.000384998 -1.67084e-05
1.58482e-05 -1.67084e-05 -0.000494332
0.00271411 -9.20042e-07 -4.54238e-05
-9.20042e-07 -7.82911e-06 1.38013e-05
-4.54238e-05 1.38013e-05 -0.000239501
0.00117751 0.00031541 -2.64748e-06
0.00031541 -0.000122208 7.50612e-06
-2.64748e-06 7.50612e-06 -0.00136057
0.00464975 0.000502523 5.57584e-05
0.000502523 0.00105018 -2.63938e-05
5.57584e-05 -2.63938e-05 0.00108379
0.00159318 0.000117576 6.06888e-06
0.000117576 -0.00105035 -1.50782e-05
6.06888e-06 -1.50782e-05 -0.000483577
0.00262818 -0.000127523 -4.1031e-06
-0.000127523 3.50475e-05 6.35796e-06
-4.1031e-06 6.35796e-06 -7.26072e-05
0.00545834 0.000198076 3.43304e-05
0.000198076 0.00153229 -3.30111e-05
3.43304e-05 -3.30111e-05 0.000163489
0.000848987 8.92913e-05 -8.92161e-06
8.92913e-05 -0.000706204 8.49555e-06
-8.92161e-06 8.49555e-06 -0.000661993
0.00244701 3.28355e-05 -7.7112e-07
3.28355e-05 -0.000429642 1.32741e-06
-7.7112e-07 1.32741e-06 0.000166432
0.00584192 -0.000453121 8.01289e-06
-0.000453121 0.00156458 -6.09203e-05
8.01289e-06 -6.09203e-05 0.001323
0.00800935 0.000206786 4.44536e-05
0.000206786 0.002826 -2.19432e-05
4.44536e-05 -2.19432e-05 0.00140927
-0.000419039 5.12243e-05 1.41052e-05
5.12243e-05 -0.000892039 4.71866e-05
1.41052e-05 4.71866e-05 -0.000941156
0.000646851 -9.26475e-05 5.65067e-06
-9.26475e-05 -0.00142579 7.02287e-06
5.65067e-06 7.02287e-06 -0.000899673
0.000977709 -8.02201e-07 1.7593e-08
-8.02201e-07 8.99363e-05 8.09684e-07
1.7593e-08 8.09684e-07 1.19767e-05
0.000914819 -1.0859e-05 -9.86208e-09
-1.0859e-05 6.7223e-05 -1.53255e-07
-9.86208e-09 -1.53255e-07 -1.36892e-05
0.000931047 -3.63179e-05 -3.16176e-07
-3.63179e-05 8.19134e-05 -1.61107e-07
-3.16176e-07 -1.61107e-07 3.8799e-06
0.000922616 1.0331e-05 -3.25901e-07
1.0331e-05 6.54755e-05 -4.32512e-07
-3.25901e-07 -4.32512e-07 -6.50546e-06
0.00104223 7.03177e-05 1.19347e-06
7.03177e-05 0.000137603 1.28737e-07
1.19347e-06 1.28737e-07 6.47483e-05
0.00108775 5.30025e-05 -4.3148e-10
5.30025e-05 0.000158286 2.39178e-07
-4.3148e-10 2.39178e-07 9.16702e-05
0.0027608 -0.000300918 5.60732e-06
-0.000300918 0.000635162 -5.24378e-06
5.60732e-06 -5.24378e-06 0.00062604
-0.000129118 -4.38097e-05 4.88829e-06
-4.38097e-05 -0.000405917 -1.23658e-06
4.88829e-06 -1.23658e-06 -0.000585485
0.00107327 3.65477e-05 2.64514e-07
3.65477e-05 0.000148433 -5.304e-07
2.64514e-07 -5.304e-07 6.5221e-05
0.00131763 -6.129e-05 1.68899e-06
-6.129e-05 0.000266293 -4.55589e-06
1.68899e-06 -4.55589e-06 0.000164527
0.00116371 1.40731e-06 -1.55128e-07
1.40731e-06 0.000189697 -1.88837e-06
-1.55128e-07 -1.88837e-06 0.000101353
0.000981074 -5.11329e-06 4.05103e-07
-5.11329e-06 8.43628e-05 -1.38759e-07
4.05103e-07 -1.38759e-07 8.26168e-06
0.000979579 3.81349e-05 1.74049e-07
3.81349e-05 9.07353e-05 -7.43503e-08
1.74049e-07 -7.43503e-08 8.91965e-06
0.000740759 -0.000256083 -7.17998e-06
-0.000256083 -8.83952e-05 2.63955e-06
-7.17998e-06 2.63955e-06 -9.43168e-05
0.000944258 -1.73591e-05 8.78491e-07
-1.73591e-05 6.0223e-05 -1.20805e-06
8.78491e-07 -1.20805e-06 -1.60894e-05
0.000988608 2.33671e-05 -1.40132e-06
2.33671e-05 0.000323986 -1.95281e-06
-1.40132e-06 -1.95281e-06 0.000176715
0.00096275 -7.01533e-08 8.40426e-07
-7.01533e-08 7.95098e-05 8.02143e-07
8.40426e-07 8.02143e-07 7.20261e-06
-0.00188386 -0.000110621 1.02089e-07
-0.000110621 -0.000938376 -1.12105e-05
1.02089e-07 -1.12105e-05 -0.00117343
0.000712995 -1.09467e-07 -5.87725e-07
-1.09467e-07 0.000132492 1.98651e-05
-5.87725e-07 1.98651e-05 0.000100695
0.00100401 -1.82485e-05 4.09209e-07
-1.82485e-05 9.95325e-05 2.52781e-06
4.09209e-07 2.52781e-06 2.2704e-05
0.00113688 1.42599e-06 -3.61827e-07
1.42599e-06 0.000292596 4.45941e-07
-3.61827e-07 4.45941e-07 0.000197499
0.000932601 2.81625e-07 1.42806e-06
2.81625e-07 0.00011378 9.23001e-07
1.42806e-06 9.23001e-07 3.54845e-05
0.00123354 -8.98693e-06 2.69409e-05
-8.98693e-06 4.0062e-05 1.96746e-07
2.69409e-05 1.96746e-07 -7.24633e-05
0.000788785 7.38843e-05 4.98804e-06
7.38843e-05 0.0001036 6.86787e-06
4.98804e-06 6.86787e-06 4.42175e-05
0.000708608 0.00014294 1.07688e-05
0.00014294 0.000237798 -1.51184e-05
1.07688e-05 -1.51184e-05 0.00011085
0.00101924 4.8968e-06 -8.16311e-06
4.8968e-06 0.000131074 -4.17119e-06
-8.16311e-06 -4.17119e-06 7.29372e-05
0.00308224 8.50489e-05 -2.76072e-05
8.50489e-05 0.000381245 -2.62325e-06
-2.76072e-05 -2.62325e-06 -0.000611706
-0.00304279 2.70564e-05 -1.7416e-05
2.70564e-05 -0.00248391 6.05461e-05
-1.7416e-05 6.05461e-05 -0.00255319
0.00105722 1.09158e-06 -4.97635e-06
1.09158e-06 1.54481e-05 4.24453e-06
-4.97635e-06 4.24453e-06 -5.76319e-05
0.00162865 0.000109484 -5.26001e-06
0.000109484 -0.000946655 1.50895e-05
-5.26001e-06 1.50895e-05 -0.000443894
0.00045468 4.05117e-05 -4.35582e-06
4.05117e-05 9.8006e-05 -3.09671e-06
-4.35582e-06 -3.09671e-06 3.08351e-05
0.00094869 -6.12521e-07 -3.48938e-06
-6.12521e-07 0.000140946 3.22295e-06
-3.48938e-06 3.22295e-06 5.1162e-05
0.00129804 1.3968e-05 4.09082e-06
1.3968e-05 -9.67291e-06 -2.77405e-06
4.09082e-06 -2.77405e-06 -7.5282e-05
0.00177606 0.000259491 4.61656e-05
0.000259491 0.000222576 1.44308e-06
4.61656e-05 1.44308e-06 0.000122185
0.00202918 0.000261127 2.18526e-06
0.000261127 -0.000580224 -5.35387e-06
2.18526e-06 -5.35387e-06 5.68222e-05
0.000906334 0.000119482 9.27912e-06
0.000119482 -0.000684548 -9.70028e-06
9.27912e-06 -9.70028e-06 -0.000609667
0.00730701 0.000148254 1.27281e-05
0.000148254 0.00257944 -1.89961e-05
1.27281e-05 -1.89961e-05 0.00130298
-0.000551346 -1.5524e-06 -2.35805e-05
-1.5524e-06 -0.000111063 -1.39433e-05
-2.35805e-05 -1.39433e-05 -0.000249829
0.00100257 -3.15256e-06 -4.61144e-06
-3.15256e-06 7.29912e-05 2.09583e-06
-4.61144e-06 2.09583e-06 -2.11943e-06
0.00168909 4.03966e-05 4.05575e-05
4.03966e-05 -2.59387e-06 -2.01936e-05
4.05575e-05 -2.01936e-05 -7.21505e-05
0.00140767 0.000458259 1.78969e-05
0.000458259 7.03398e-06 -2.74495e-06
1.78969e-05 -2.74495e-06 0.000856484
-0.00415629 0.000280416 6.72603e-05
0.000280416 -0.00307123 -2.50028e-05
6.72603e-05 -2.50028e-05 -0.00289092
0.00801544 0.00025617 1.95832e-05
0.00025617 0.00265587 -4.36604e-05
1.95832e-05 -4.36604e-05 0.00115406
0.00240522 -6.64566e-05 -1.61971e-06
-6.64566e-05 0.000368383 9.79731e-05
-1.61971e-06 9.79731e-05 0.000248838
0.0013719 1.03741e-05 -2.34099e-06
1.03741e-05 0.00031848 8.36432e-06
-2.34099e-06 8.36432e-06 0.000268371
0.000226136 -2.66939e-05 2.4851e-08
-2.66939e-05 -0.000101141 9.38361e-07
2.4851e-08 9.38361e-07 -0.000217698
0.000345954 -5.38478e-05 3.29185e-06
-5.38478e-05 4.1574e-05 -3.95024e-06
3.29185e-06 -3.95024e-06 -0.000131771
0.000953724 -3.07847e-05 -1.8056e-07
-3.07847e-05 6.06023e-05 -8.77268e-07
-1.8056e-07 -8.77268e-07 -6.46546e-06
0.000733807 -2.46081e-05 -2.42199e-07
-2.46081e-05 -4.83631e-05 2.80153e-06
-2.42199e-07 2.80153e-06 -9.14098e-05
0.000762718 -1.0765e-05 2.02434e-07
-1.0765e-05 4.19361e-05 9.02863e-08
2.02434e-07 9.02863e-08 -4.70529e-05
0.000937929 -9.46032e-05 5.06868e-06
-9.46032e-05 0.000210574 -1.92979e-07
5.06868e-06 -1.92979e-07 3.20479e-05
0.00121437 -3.70577e-05 -7.03325e-07
-3.70577e-05 0.000220511 -5.69921e-07
-7.03325e-07 -5.69921e-07 0.000140999
0.00116522 -8.5212e-05 4.9113e-07
-8.5212e-05 0.000249885 3.95098e-07
4.9113e-07 3.95098e-07 0.000127504
0.00104552 -0.000105436 1.73044e-06
-0.000105436 0.000196375 3.02304e-06
1.73044e-06 3.02304e-06 1.65599e-05
0.00060518 -5.28941e-05 -2.76791e-07
-5.28941e-05 -5.43573e-05 -1.9301e-06
-2.76791e-07 -1.9301e-06 -0.000155672
0.00110825 -0.000104053 -4.73405e-07
-0.000104053 0.000187352 -2.82157e-08
-4.73405e-07 -2.82157e-08 4.78265e-05
0.00163196 -0.000139311 -1.53123e-06
-0.000139311 0.000405851 2.11713e-06
-1.53123e-06 2.11713e-06 0.000244604
0.00151839 -0.000133921 -4.03798e-06
-0.000133921 0.000310554 2.84626e-06
-4.03798e-06 2.84626e-06 0.000167338
0.000742207 -8.60976e-05 -1.72241e-06
-8.60976e-05 -3.61001e-05 2.27719e-06
-1.72241e-06 2.27719e-06 -0.000147442
0.00105385 -0.000103159 -1.12532e-06
-0.000103159 0.000109081 8.17737e-07
-1.12532e-06 8.17737e-07 -2.04281e-05
0.00097678 -9.38165e-05 -3.49456e-07
-9.38165e-05 9.77845e-05 -1.45231e-06
-3.49456e-07 -1.45231e-06 -2.7013e-05
0.00116523 -9.87291e-05 3.20699e-07
-9.87291e-05 0.000199846 -8.85267e-07
3.20699e-07 -8.85267e-07 9.96714e-05
0.00107917 -9.60428e-05 1.73256e-06
-9.60428e-05 0.000158348 -7.72089e-07
1.73256e-06 -7.72089e-07 5.39363e-05
0.000782447 -3.83523e-05 -3.76498e-07
-3.83523e-05 6.27704e-06 1.41458e-06
-3.76498e-07 1.41458e-06 -8.0748e-05
0.000907708 -7.20641e-05 4.31824e-07
-7.20641e-05 8.26723e-05 -1.36566e-07
4.31824e-07 -1.36566e-07 -1.6146e-05
0.000951741 -8.85925e-05 3.68479e-06
-8.85925e-05 9.65605e-05 -2.3044e-06
3.68479e-06 -2.3044e-06 -1.15138e-05
0.000898782 2.56693e-05 -4.50131e-07
2.56693e-05 4.96591e-05 1.4194e-06
-4.50131e-07 1.4194e-06 -1.30133e-05
0.000961381 -2.35174e-05 -1.46047e-07
-2.35174e-05 8.87177e-05 -3.4837e-08
-1.46047e-07 -3.4837e-08 1.22136e-05
0.00109817 -6.7293e-05 3.65366e-07
-6.7293e-05 0.000168798 -6.88104e-07
3.65366e-07 -6.88104e-07 7.61175e-05
0.000819289 3.28233e-05 -1.08799e-06
3.28233e-05 6.81897e-06 1.9357e-06
-1.08799e-06 1.9357e-06 -2.96064e-05
0.000876882 2.15217e-05 3.82897e-08
2.15217e-05 3.45108e-05 -9.40166e-08
3.82897e-08 -9.40166e-08 -2.07594e-05
0.000783777 -5.58485e-06 5.86925e-07
-5.58485e-06 -8.22561e-06 -1.13222e-06
5.86925e-07 -1.13222e-06 -7.92023e-05
0.00087647 1.88558e-05 3.93785e-07
1.88558e-05 3.19247e-05 -1.30451e-06
3.93785e-07 -1.30451e-06 -1.84726e-05
0.000825799 3.12264e-05 2.9809e-08
3.12264e-05 5.28117e-06 -2.81717e-08
2.9809e-08 -2.81717e-08 -2.7868e-05
0.000743673 3.06843e-05 -1.89282e-06
3.06843e-05 -3.69656e-05 3.34307e-06
-1.89282e-06 3.34307e-06 -4.35908e-05
0.000835104 2.56106e-05 8.99137e-07
2.56106e-05 5.00646e-06 -1.8189e-06
8.99137e-07 -1.8189e-06 -2.58652e-05
0.000770605 2.71076e-05 9.43567e-08
2.71076e-05 -2.99127e-05 -1.14187e-09
9.43567e-08 -1.14187e-09 -3.4583e-05
0.00212782 3.78663e-05 -1.86039e-05
3.78663e-05 0.000695636 3.57197e-06
-1.86039e-05 3.57197e-06 0.000714514
0.000787755 2.32144e-05 1.38503e-06
2.32144e-05 -2.70823e-05 -3.22025e-06
1.38503e-06 -3.22025e-06 -3.02127e-05
0.00153076 2.8577e-05 7.46695e-06
2.8577e-05 0.000371716 -1.01345e-06
7.46695e-06 -1.01345e-06 0.000388894
0.0021182 2.61422e-05 1.4168e-05
2.61422e-05 0.000680548 -3.74838e-06
1.4168e-05 -3.74838e-06 0.000701602
0.000875362 1.3867e-05 -5.49316e-07
1.3867e-05 2.96689e-05 -5.83125e-07
-5.49316e-07 -5.83125e-07 -2.35884e-05
0.000819487 -1.71296e-05 -6.79923e-07
-1.71296e-05 -5.085e-06 -1.46831e-06
-6.79923e-07 -1.46831e-06 -3.7329e-05
0.00079991 9.12252e-06 -6.41532e-07
9.12252e-06 -7.35151e-06 -5.047e-07
-6.41532e-07 -5.047e-07 -6.04449e-05
0.000798526 -1.96559e-05 -6.32086e-07
-1.96559e-05 -2.42582e-05 -3.17108e-06
-6.32086e-07 -3.17108e-06 -2.71803e-05
0.000718141 -1.52772e-05 -1.20639e-07
-1.52772e-05 -6.01807e-05 -6.03611e-07
-1.20639e-07 -6.03611e-07 -9.09293e-05
0.000979224 -4.44572e-06 1.14318e-08
-4.44572e-06 8.78955e-05 9.89248e-09
1.14318e-08 9.89248e-09 3.7397e-05
0.00209544 -1.99175e-05 -1.11625e-05
-1.99175e-05 0.000664913 -3.9306e-06
-1.11625e-05 -3.9306e-06 0.000686904
0.000791619 -1.47049e-05 -1.22384e-07
-1.47049e-05 -3.29132e-05 -2.06371e-08
-1.22384e-07 -2.06371e-08 -3.34096e-05
0.000601477 -1.20029e-05 5.96406e-08
-1.20029e-05 -0.000124336 7.36595e-07
5.96406e-08 7.36595e-07 -0.000153108
0.00204381 -1.30129e-05 -1.80302e-06
-1.30129e-05 0.000633598 2.80141e-08
-1.80302e-06 2.80141e-08 0.00065689
0.000788035 -9.74544e-06 3.787e-07
-9.74544e-06 -3.86962e-05 3.01746e-06
3.787e-07 3.01746e-06 -3.72798e-05
0.00201722 -6.19499e-06 2.98485e-06
-6.19499e-06 0.000617113 3.93593e-06
2.98485e-06 3.93593e-06 0.000641141
0.000953372 1.0917e-06 5.76402e-06
1.0917e-06 0.000125014 -9.48408e-06
5.76402e-06 -9.48408e-06 3.7054e-05
0.00108127 -1.17544e-06 -2.65911e-06
-1.17544e-06 0.000130559 5.49564e-07
-2.65911e-06 5.49564e-07 5.82283e-05
0.00121994 -1.14553e-06 1.77176e-05
-1.14553e-06 -2.08843e-05 2.36007e-06
1.77176e-05 2.36007e-06 -0.000124015
0.000852193 -2.88395e-05 4.84563e-08
-2.88395e-05 1.79541e-05 -3.53114e-07
4.84563e-08 -3.53114e-07 -4.6744e-05
0.000993528 -8.02604e-06 -1.43672e-07
-8.02604e-06 9.83754e-05 -3.45698e-07
-1.43672e-07 -3.45698e-07 2.76487e-05
0.000968291 1.78331e-05 1.06479e-06
1.78331e-05 8.59588e-05 2.30577e-08
1.06479e-06 2.30577e-08 2.21076e-05
0.000860179 -1.42846e-05 2.60962e-08
-1.42846e-05 2.33425e-05 2.43104e-08
2.60962e-08 2.43104e-08 -4.09875e-05
0.000941678 1.06102e-05 4.34605e-08
1.06102e-05 7.4761e-05 3.28278e-07
4.34605e-08 3.28278e-07 3.29738e-06
0.000967752 6.07199e-06 -6.28504e-07
6.07199e-06 8.6267e-05 2.22379e-07
-6.28504e-07 2.22379e-07 1.56518e-05
0.000938853 8.20711e-05 1.62004e-07
8.20711e-05 8.0148e-05 8.61326e-07
1.62004e-07 8.61326e-07 9.33557e-07
0.00137599 1.80931e-07 2.52228e-06
1.80931e-07 5.96131e-05 2.11611e-05
2.52228e-06 2.11611e-05 -9.23634e-07
0.00125738 1.1695e-05 1.66923e-06
1.1695e-05 7.29317e-05 5.50814e-06
1.66923e-06 5.50814e-06 -1.66598e-07
0.00115507 1.776e-05 -4.13739e-06
1.776e-05 -0.000108297 -7.39328e-06
-4.13739e-06 -7.39328e-06 -0.000162755
0.00108324 2.1672e-05 2.63144e-06
2.1672e-05 -0.00128705 -1.07061e-05
2.63144e-06 -1.07061e-05 -0.000687824
-6.66394e-05 -0.000110585 -4.86458e-05
-0.000110585 -0.00153055 6.08263e-05
-4.86458e-05 6.08263e-05 -0.00179129
0.00240406 9.46684e-05 4.06414e-05
9.46684e-05 0.000287625 -3.62403e-05
4.06414e-05 -3.62403e-05 -0.00100845
0.00521595 0.000380203 2.80727e-05
0.000380203 0.00148949 -2.30557e-05
2.80727e-05 -2.30557e-05 0.00123002
0.00193473 -0.000294484 -2.36542e-05
-0.000294484 -0.000326423 8.69495e-06
-2.36542e-05 8.69495e-06 -0.000742594
0.00239131 -9.4309e-05 3.52884e-05
-9.4309e-05 8.88129e-06 -4.09805e-05
3.52884e-05 -4.09805e-05 -0.00133978
0.0036053 1.41652e-05 -1.69719e-05
1.41652e-05 0.000628599 1.81299e-06
-1.69719e-05 1.81299e-06 0.000498754
0.00326617 -0.00012872 -1.61101e-06
-0.00012872 0.00017565 -8.38481e-06
-1.61101e-06 -8.38481e-06 0.000736105
0.00367113 -0.000269519 2.53459e-06
-0.000269519 0.00086354 -1.19745e-05
2.53459e-06 -1.19745e-05 0.000782144
0.00300766 -0.000376477 2.20898e-06
-0.000376477 -0.000460236 -8.90242e-05
2.20898e-06 -8.90242e-05 -0.00113191
-0.000955473 -0.000152174 3.85205e-05
-0.000152174 -0.00191332 3.13258e-05
3.85205e-05 3.13258e-05 -0.00207004
0.000175668 -0.000179369 2.43476e-05
-0.000179369 -0.00158532 5.75389e-06
2.43476e-05 5.75389e-06 -0.000988065
0.00107297 -3.55615e-05 -1.09521e-07
-3.55615e-05 0.00013365 1.47842e-06
-1.09521e-07 1.47842e-06 6.10993e-05
0.000888944 1.32468e-06 7.50222e-08
1.32468e-06 4.42096e-05 -6.82785e-08
7.50222e-08 -6.82785e-08 -3.41038e-05
0.000876189 -1.95251e-06 -4.04709e-07
-1.95251e-06 4.89269e-05 -1.10326e-06
-4.04709e-07 -1.10326e-06 -3.3039e-05
0.000926508 2.17372e-05 -5.4897e-08
2.17372e-05 6.83416e-05 -1.1528e-06
-5.4897e-08 -1.1528e-06 -4.24509e-06
0.00413016 -0.000306417 1.08608e-05
-0.000306417 0.00161343 2.18772e-06
1.08608e-05 2.18772e-06 0.00158711
0.000885928 1.02791e-05 4.87711e-06
1.02791e-05 0.000304603 -7.49049e-06
4.87711e-06 -7.49049e-06 0.000178189
0.000864422 -2.04421e-05 1.15044e-07
-2.04421e-05 1.98154e-05 -1.43526e-06
1.15044e-07 -1.43526e-06 -5.57357e-05
0.000931695 3.61713e-05 7.04449e-07
3.61713e-05 6.9572e-05 -1.41078e-06
7.04449e-07 -1.41078e-06 -1.35272e-05
0.00144648 -4.48234e-06 1.28591e-06
-4.48234e-06 0.0003287 -5.37041e-06
1.28591e-06 -5.37041e-06 0.000251208
0.000926566 2.17731e-06 -6.71737e-08
2.17731e-06 5.82126e-05 5.03823e-08
-6.71737e-08 5.03823e-08 -1.38943e-05
0.000913706 -8.63406e-06 -1.48207e-06
-8.63406e-06 5.61772e-05 1.04562e-07
-1.48207e-06 1.04562e-07 -2.322e-05
0.000392828 -0.000126102 -2.9494e-06
-0.000126102 0.000216505 -4.23232e-06
-2.9494e-06 -4.23232e-06 -1.07399e-06
0.000976254 -8.32265e-06 3.61119e-06
-8.32265e-06 0.000273092 5.94273e-06
3.61119e-06 5.94273e-06 0.000247683
0.000926235 -1.12479e-05 8.60937e-07
-1.12479e-05 6.91338e-05 -1.54258e-07
8.60937e-07 -1.54258e-07 -4.52474e-06
-8.964e-05 2.80284e-05 -7.60471e-06
2.80284e-05 0.000438153 -2.05935e-05
-7.60471e-06 -2.05935e-05 -0.000191037
0.00152543 -4.00839e-05 3.50642e-06
-4.00839e-05 0.000541387 1.18564e-05
3.50642e-06 1.18564e-05 0.000458713
0.00127873 -1.44075e-07 -1.0965e-05
-1.44075e-07 0.000317913 -1.69457e-06
-1.0965e-05 -1.69457e-06 0.000241248
0.000948082 7.30288e-07 2.26186e-08
7.30288e-07 0.000153003 2.39888e-07
2.26186e-08 2.39888e-07 4.65608e-05
0.000608692 1.32556e-06 -8.45802e-06
1.32556e-06 -7.54987e-05 1.48287e-06
-8.45802e-06 1.48287e-06 -0.000159436
0.00120549 3.88027e-05 1.56541e-06
3.88027e-05 0.000449488 4.64248e-06
1.56541e-06 4.64248e-06 0.000395111
0.0015262 0.000164766 -5.94605e-05
0.000164766 0.000410019 1.17258e-05
-5.94605e-05 1.17258e-05 0.00044227
0.000890449 -1.14001e-06 -4.62546e-06
-1.14001e-06 0.000124583 -5.40621e-06
-4.62546e-06 -5.40621e-06 2.81721e-05
0.00319207 0.000218231 4.63177e-05
0.000218231 0.00047591 -7.74101e-05
4.63177e-05 -7.74101e-05 -0.000758538
0.00500154 0.000391161 -3.33969e-05
0.000391161 0.00139761 2.99504e-05
-3.33969e-05 2.99504e-05 0.0011872
0.00117603 9.44887e-06 2.70768e-06
9.44887e-06 -9.03518e-05 7.53496e-06
2.70768e-06 7.53496e-06 -0.000155498
0.00313604 0.000268267 -2.87221e-05
0.000268267 0.000177418 1.90256e-05
-2.87221e-05 1.90256e-05 0.000753263
-0.000316587 -1.9041e-05 1.98185e-05
-1.9041e-05 -9.86857e-06 -2.64539e-06
1.98185e-05 -2.64539e-06 -0.000150732
0.0010726 -3.18706e-06 3.03846e-06
-3.18706e-06 0.000127693 -7.062e-07
3.03846e-06 -7.062e-07 5.41673e-05
0.00141771 3.11089e-05 1.1819e-05
3.11089e-05 -0.000163387 -4.56355e-06
1.1819e-05 -4.56355e-06 -0.000259663
0.00172926 -2.97376e-05 -1.31676e-05
-2.97376e-05 0.000159103 2.14472e-05
-1.31676e-05 2.14472e-05 0.000183686
-3.14086e-05 0.00048294 -4.09108e-06
0.00048294 -0.00103881 4.88111e-06
-4.09108e-06 4.88111e-06 6.67833e-06
0.00296308 0.000449404 2.63873e-06
0.000449404 2.99254e-05 -7.8204e-07
2.63873e-06 -7.8204e-07 0.000187701
0.00258072 -3.36786e-05 3.55193e-05
-3.36786e-05 0.000257596 -1.66557e-05
3.55193e-05 -1.66557e-05 -0.00133624
0.000616451 -6.63821e-05 2.56974e-05
-6.63821e-05 0.000273752 -7.08275e-06
2.56974e-05 -7.08275e-06 0.000188507
0.00102983 2.30992e-07 1.87839e-05
2.30992e-07 -0.000135746 -5.43653e-06
1.87839e-05 -5.43653e-06 -0.00025718
-0.00107546 0.000220131 9.3575e-06
0.000220131 -0.000757838 -1.06105e-05
9.3575e-06 -1.06105e-05 -0.000588775
-8.01978e-05 0.000448099 4.51005e-05
0.000448099 -0.000257066 -4.83085e-06
4.51005e-05 -4.83085e-06 8.04584e-05
0.00869931 0.000534582 2.56366e-05
0.000534582 0.0029445 -5.03282e-05
2.56366e-05 -5.03282e-05 0.0016177
0.00284647 -0.000272665 -6.13945e-05
-0.000272665 0.00029808 8.88893e-05
-6.13945e-05 8.88893e-05 -0.000156857
0.000394999 -3.15243e-05 -3.00031e-06
-3.15243e-05 -2.36077e-05 6.98021e-06
-3.00031e-06 6.98021e-06 -0.000150494
0.0004071 -2.66994e-05 5.49319e-07
-2.66994e-05 7.9368e-05 -6.90094e-07
5.49319e-07 -6.90094e-07 -9.63455e-05
0.00160594 -0.000158525 1.15211e-05
-0.000158525 0.000532011 -3.1998e-06
1.15211e-05 -3.1998e-06 0.000397387
0.00081816 1.15738e-05 -2.30769e-06
1.15738e-05 7.40351e-05 -1.49321e-06
-2.30769e-06 -1.49321e-06 -6.70196e-06
0.000421311 -5.65618e-05 9.27416e-07
-5.65618e-05 -2.88238e-05 -4.85744e-07
9.27416e-07 -4.85744e-07 -0.000212979
0.00115142 -0.000121975 4.14646e-06
-0.000121975 0.000229291 5.36151e-06
4.14646e-06 5.36151e-06 3.82989e-05
0.00162876 -0.00012403 -1.3406e-06
-0.00012403 0.000472852 -8.49332e-07
-1.3406e-06 -8.49332e-07 0.000344031
0.00124478 -0.000113847 1.52431e-07
-0.000113847 0.000284378 9.62852e-07
1.52431e-07 9.62852e-07 0.000105299
0.00121352 -0.000133682 -8.41816e-07
-0.000133682 0.000172996 9.74437e-07
-8.41816e-07 9.74437e-07 -9.17953e-06
0.00120247 -0.000107046 -6.3987e-07
-0.000107046 0.000234932 -1.85697e-06
-6.3987e-07 -1.85697e-06 9.19244e-05
0.00158166 -0.000137384 1.15651e-07
-0.000137384 0.000371982 5.03362e-07
1.15651e-07 5.03362e-07 0.000211253
0.00123141 -0.000130803 -1.32299e-06
-0.000130803 0.00013951 -1.7079e-07
-1.32299e-06 -1.7079e-07 -2.48653e-05
0.00142032 -0.000131792 -3.06866e-06
-0.000131792 0.000196265 -1.05773e-06
-3.06866e-06 -1.05773e-06 5.39903e-05
0.00165008 -0.000133438 -4.42352e-06
-0.000133438 0.00038374 3.89942e-06
-4.42352e-06 3.89942e-06 0.000255678
0.00140766 -0.000130352 -7.7013e-07
-0.000130352 0.000249656 6.32844e-07
-7.7013e-07 6.32844e-07 0.000103578
0.000654461 -7.92456e-05 -2.42239e-07
-7.92456e-05 -8.24569e-05 -3.80201e-07
-2.42239e-07 -3.80201e-07 -0.000183301
0.000876536 -9.15677e-05 1.46435e-06
-9.15677e-05 3.34297e-05 -4.32123e-07
1.46435e-06 -4.32123e-07 -7.72372e-05
0.000990919 -0.000101457 1.77604e-06
-0.000101457 7.58443e-05 -1.88447e-06
1.77604e-06 -1.88447e-06 -5.52025e-05
0.00103072 -8.7339e-05 -3.50596e-07
-8.7339e-05 0.000127875 5.00096e-07
-3.50596e-07 5.00096e-07 3.19077e-05
0.00112192 -9.6263e-05 -1.43839e-07
-9.6263e-05 0.000178634 -3.53916e-07
-1.43839e-07 -3.53916e-07 7.81388e-05
0.00081973 -8.33287e-05 3.42403e-06
-8.33287e-05 2.61258e-05 -1.67493e-07
3.42403e-06 -1.67493e-07 -7.5128e-05
0.000862176 1.10472e-05 4.29322e-08
1.10472e-05 3.65781e-05 1.42771e-06
4.29322e-08 1.42771e-06 -3.66337e-05
0.000876721 -4.11608e-05 5.06744e-08
-4.11608e-05 5.50346e-05 4.67061e-07
5.06744e-08 4.67061e-07 -3.13311e-05
0.0011014 -7.80868e-05 1.2638e-06
-7.80868e-05 0.000181929 -1.23403e-06
1.2638e-06 -1.23403e-06 8.38133e-05
0.000803481 4.17201e-05 -1.06591e-06
4.17201e-05 3.55603e-06 2.20433e-06
-1.06591e-06 2.20433e-06 -3.90201e-05
0.000877281 1.52756e-05 -1.49336e-07
1.52756e-05 3.94638e-05 -7.40947e-08
-1.49336e-07 -7.40947e-08 -2.39406e-05
0.000968152 -2.94283e-05 4.84726e-07
-2.94283e-05 9.32103e-05 -1.02594e-06
4.84726e-07 -1.02594e-06 1.59106e-05
0.000756562 3.46492e-05 -3.21569e-06
3.46492e-05 -2.35667e-05 4.61807e-06
-3.21569e-06 4.61807e-06 -3.25283e-05
0.000812975 3.75615e-05 1.60059e-07
3.75615e-05 4.29483e-06 -7.61484e-08
1.60059e-07 -7.61484e-08 -3.26982e-05
0.000863517 2.00554e-05 5.47826e-07
2.00554e-05 2.73176e-05 -1.36174e-06
5.47826e-07 -1.36174e-06 -2.77892e-05
0.000822664 3.35972e-05 7.47375e-07
3.35972e-05 3.75886e-06 -1.96582e-06
7.47375e-07 -1.96582e-06 -2.95806e-05
0.000762526 3.1305e-05 5.43802e-08
3.1305e-05 -2.72643e-05 -1.96451e-08
5.43802e-08 -1.96451e-08 -3.39713e-05
0.002146 4.37954e-05 -2.11267e-05
4.37954e-05 0.000712336 3.45638e-06
-2.11267e-05 3.45638e-06 0.000729608
0.000786296 2.75567e-05 1.70302e-06
2.75567e-05 -2.18692e-05 -3.27231e-06
1.70302e-06 -3.27231e-06 -2.6583e-05
0.00212874 3.80727e-05 1.02533e-06
3.80727e-05 0.000697016 6.39683e-08
1.02533e-06 6.39683e-08 0.000715738
0.00211794 3.22574e-05 1.70607e-05
3.22574e-05 0.00068578 -3.65391e-06
1.70607e-05 -3.65391e-06 0.00070575
0.000923906 1.09343e-05 -1.98641e-07
1.09343e-05 6.00426e-05 -5.73711e-07
-1.98641e-07 -5.73711e-07 -7.4708e-06
0.000875079 2.29124e-05 -8.82213e-07
2.29124e-05 3.1775e-05 -9.93303e-07
-8.82213e-07 -9.93303e-07 -2.52605e-05
0.000813991 -2.40209e-05 -7.05743e-07
-2.40209e-05 -5.39489e-06 -1.63356e-06
-7.05743e-07 -1.63356e-06 -3.98574e-05
0.000878122 1.10106e-05 -1.37944e-07
1.10106e-05 3.03384e-05 -4.62041e-08
-1.37944e-07 -4.62041e-08 -2.25231e-05
0.000784565 -2.35622e-05 -1.05873e-06
-2.35622e-05 -2.60547e-05 -3.27026e-06
-1.05873e-06 -3.27026e-06 -3.13167e-05
0.000827736 -1.86401e-05 -1.06297e-07
-1.86401e-05 -3.11608e-07 4.54935e-09
-1.06297e-07 4.54935e-09 -3.26794e-05
0.000847312 6.08091e-06 1.4942e-07
6.08091e-06 1.42915e-05 7.87226e-08
1.4942e-07 7.87226e-08 -3.55959e-05
0.00215346 -2.64364e-05 -1.43614e-05
-2.64364e-05 0.000700328 -3.92182e-06
-1.43614e-05 -3.92182e-06 0.000720847
0.000781101 -1.93095e-05 -1.19671e-07
-1.93095e-05 -3.34148e-05 -2.23244e-08
-1.19671e-07 -2.23244e-08 -3.62153e-05
0.000837009 -1.57636e-05 8.78635e-08
-1.57636e-05 2.26188e-06 8.60388e-07
8.78635e-08 8.60388e-07 -2.78992e-05
0.00208738 -1.96146e-05 -1.67203e-06
-1.96146e-05 0.00066015 4.38205e-08
-1.67203e-06 4.38205e-08 0.000682326
0.000776454 -1.4466e-05 4.50166e-07
-1.4466e-05 -4.08725e-05 3.06031e-06
4.50166e-07 3.06031e-06 -4.12641e-05
0.00203692 -1.26471e-05 6.71618e-06
-1.26471e-05 0.000629548 3.9068e-06
6.71618e-06 3.9068e-06 0.000652985
0.000845056 3.46103e-06 -5.21244e-06
3.46103e-06 2.64256e-05 -4.98541e-06
-5.21244e-06 -4.98541e-06 -4.27456e-05
0.000931499 6.60586e-07 3.51648e-06
6.60586e-07 0.000132837 -3.22107e-06
3.51648e-06 -3.22107e-06 3.79043e-05
0.00115466 -2.02059e-06 -1.05914e-05
-2.02059e-06 0.000187765 6.80856e-06
-1.05914e-05 6.80856e-06 0.000116397
0.000886006 -1.9413e-08 -2.36622e-07
-1.9413e-08 3.95973e-05 -6.09353e-09
-2.36622e-07 -6.09353e-09 -2.71728e-05
0.000945603 -1.00537e-05 -6.90756e-08
-1.00537e-05 7.28584e-05 2.46865e-07
-6.90756e-08 2.46865e-07 1.63138e-06
0.000885417 -8.23249e-06 4.21183e-08
-8.23249e-06 4.48672e-05 -1.3586e-06
4.21183e-08 -1.3586e-06 -3.08637e-05
0.000850029 -1.70054e-05 -7.32854e-08
-1.70054e-05 2.3349e-05 -5.74929e-07
-7.32854e-08 -5.74929e-07 -4.73507e-05
0.00103501 3.11661e-05 -4.51647e-07
3.11661e-05 0.000127736 -1.05426e-07
-4.51647e-07 -1.05426e-07 4.9371e-05
0.000843758 -1.99989e-05 -9.74064e-08
-1.99989e-05 1.33667e-05 1.82578e-07
-9.74064e-08 1.82578e-07 -5.01914e-05
0.000873796 -7.96501e-06 1.82131e-07
-7.96501e-06 3.60928e-05 -2.7592e-07
1.82131e-07 -2.7592e-07 -3.45101e-05
0.000933698 1.78496e-05 -1.81253e-07
1.78496e-05 7.054e-05 -4.58807e-08
-1.81253e-07 -4.58807e-08 -6.28483e-07
0.000954605 2.50743e-05 2.63798e-07
2.50743e-05 7.99879e-05 3.90521e-07
2.63798e-07 3.90521e-07 4.0586e-06
0.00101343 1.91393e-05 -1.84892e-07
1.91393e-05 0.000116925 4.61132e-07
-1.84892e-07 4.61132e-07 4.14467e-05
0.00147798 -2.64822e-05 2.78615e-05
-2.64822e-05 1.31373e-06 2.98043e-05
2.78615e-05 2.98043e-05 -0.00012224
0.00144341 -5.47891e-07 2.25319e-06
-5.47891e-07 8.7866e-05 9.36773e-06
2.25319e-06 9.36773e-06 3.04495e-05
0.00113595 1.01784e-05 3.49706e-06
1.01784e-05 6.92251e-05 1.01222e-06
3.49706e-06 1.01222e-06 -1.80998e-07
0.00282876 -0.000114526 -1.13622e-05
-0.000114526 4.03158e-06 -2.22255e-05
-1.13622e-05 -2.22255e-05 0.000558166
-0.00262482 9.26578e-05 -8.86212e-06
9.26578e-05 -0.00230928 -4.92858e-05
-8.86212e-06 -4.92858e-05 -0.00245024
0.00160232 -0.000309356 -0.000103646
-0.000309356 -0.000584309 8.30699e-05
-0.000103646 8.30699e-05 -0.00108696
0.00788328 0.000202309 -3.19533e-05
0.000202309 0.00221149 -4.20286e-05
-3.19533e-05 -4.20286e-05 0.00126362
0.00219127 -0.000270908 -3.82646e-05
-0.000270908 -1.93468e-05 4.04688e-05
-3.82646e-05 4.04688e-05 -0.00043978
0.00805968 -0.000144172 4.0671e-05
-0.000144172 0.0025839 -8.38471e-07
4.0671e-05 -8.38471e-07 0.00143882
0.000902577 -0.000189217 1.52319e-05
-0.000189217 -0.000812326 -1.54106e-05
1.52319e-05 -1.54106e-05 -0.000887876
0.000637038 -0.000218453 -7.61379e-06
-0.000218453 -0.00143353 -2.18092e-05
-7.61379e-06 -2.18092e-05 -0.000692649
0.00219306 -7.54025e-05 -7.45201e-05
-7.54025e-05 0.000291318 -4.68106e-05
-7.45201e-05 -4.68106e-05 -0.000176259
0.00811349 -0.00041878 -2.62755e-05
-0.00041878 0.0021756 4.85437e-05
-2.62755e-05 4.85437e-05 0.00132401
0.00759978 -0.000596516 3.09376e-05
-0.000596516 0.00223439 1.39548e-05
3.09376e-05 1.39548e-05 0.00245224
0.0024962 -0.000372867 1.28273e-05
-0.000372867 0.000207329 1.09413e-06
1.28273e-05 1.09413e-06 0.0011322
0.000840992 1.71174e-05 5.66585e-07
1.71174e-05 3.83525e-05 1.5861e-06
5.66585e-07 1.5861e-06 -2.87746e-05
0.00101419 -2.57008e-05 -1.20032e-07
-2.57008e-05 0.000107068 2.36476e-07
-1.20032e-07 2.36476e-07 3.30588e-05
0.00084395 1.80218e-06 2.08961e-07
1.80218e-06 2.01994e-05 -9.38707e-07
2.08961e-07 -9.38707e-07 -5.80537e-05
0.00198858 -0.000127943 1.87732e-05
-0.000127943 0.00100119 -1.38095e-06
1.87732e-05 -1.38095e-06 0.000820976
0.00100313 -2.80791e-05 -6.99561e-06
-2.80791e-05 0.000294206 -5.9727e-06
-6.99561e-06 -5.9727e-06 0.000273404
0.000884397 -6.67616e-06 -4.13657e-07
-6.67616e-06 3.49979e-05 -4.91941e-07
-4.13657e-07 -4.91941e-07 -3.7647e-05
0.000888728 -4.11963e-05 -1.2924e-06
-4.11963e-05 4.25401e-05 -2.13019e-06
-1.2924e-06 -2.13019e-06 -3.62261e-05
0.000882771 -1.40377e-05 -4.44562e-07
-1.40377e-05 4.80646e-05 -2.11531e-07
-4.44562e-07 -2.11531e-07 -2.4972e-05
0.000589117 -3.80717e-05 1.16805e-06
-3.80717e-05 6.84046e-05 4.40322e-06
1.16805e-06 4.40322e-06 -1.76625e-05
-0.000396831 -2.57469e-06 1.95176e-05
-2.57469e-06 0.000185917 -2.10512e-05
1.95176e-05 -2.10512e-05 -0.000410153
-5.06503e-05 -8.95736e-06 -1.40075e-06
-8.95736e-06 -0.000272075 5.83964e-06
-1.40075e-06 5.83964e-06 -0.000375315
0.00166388 0.000124449 2.12444e-05
0.000124449 0.000731217 -7.27145e-06
2.12444e-05 -7.27145e-06 0.000441865
0.00157931 -1.90925e-06 1.29064e-05
-1.90925e-06 0.000226563 -6.31498e-07
1.29064e-05 -6.31498e-07 0.000111168
0.000913752 9.83681e-07 -1.24416e-06
9.83681e-07 0.000103204 -9.50005e-07
-1.24416e-06 -9.50005e-07 2.15748e-05
0.000758253 5.28715e-08 2.00999e-07
5.28715e-08 1.42252e-05 -2.81923e-07
2.00999e-07 -2.81923e-07 -0.000103499
-0.000636215 -2.08846e-05 -1.92562e-05
-2.08846e-05 -0.000140216 1.11986e-05
-1.92562e-05 1.11986e-05 -0.000289854
0.00129107 3.25566e-05 2.97387e-05
3.25566e-05 -0.000229875 -4.35304e-05
2.97387e-05 -4.35304e-05 -0.000494706
0.0011536 -3.24692e-06 1.02216e-05
-3.24692e-06 0.000190218 -7.14996e-06
1.02216e-05 -7.14996e-06 0.000117711
0.00924125 0.000212023 5.67946e-05
0.000212023 0.00297814 7.30261e-06
5.67946e-05 7.30261e-06 0.00150898
0.00524114 0.000607394 -4.8784e-05
0.000607394 0.00138326 3.12727e-05
-4.8784e-05 3.12727e-05 0.00144558
0.00107246 2.26077e-05 -1.81939e-05
2.26077e-05 -0.000363635 1.52656e-05
-1.81939e-05 1.52656e-05 -0.000496381
-0.0015005 0.000510502 -1.51145e-05
0.000510502 -0.0021054 -1.68973e-05
-1.51145e-05 -1.68973e-05 -0.00087214
0.000172571 -3.95445e-05 -7.22099e-06
-3.95445e-05 9.68641e-05 -7.5159e-07
-7.22099e-06 -7.5159e-07 -8.19082e-06
0.00112897 -2.07361e-06 9.53979e-07
-2.07361e-06 -7.29883e-05 -8.07898e-07
9.53979e-07 -8.07898e-07 -0.000191392
-0.00128137 0.000251298 -2.53395e-05
0.000251298 -0.000822499 8.24407e-06
-2.53395e-05 8.24407e-06 -0.0006135
0.00212096 -0.000241776 -6.29257e-06
-0.000241776 9.92409e-05 2.91464e-05
-6.29257e-06 2.91464e-05 -0.000205373
0.00374542 0.000630118 6.75736e-06
0.000630118 0.00104111 5.12341e-06
6.75736e-06 5.12341e-06 0.00134273
0.00549637 0.00016045 3.43137e-05
0.00016045 0.00134681 -1.88833e-05
3.43137e-05 -1.88833e-05 -0.000139977
0.00244445 -0.00019134 2.50365e-05
-0.00019134 0.000708512 1.00327e-05
2.50365e-05 1.00327e-05 0.000792883
-0.0010975 7.25094e-05 2.21454e-05
7.25094e-05 -0.000505243 -1.37964e-06
2.21454e-05 -1.37964e-06 -0.000644808
0.00295424 0.000467824 2.3112e-05
0.000467824 0.00134581 -6.20788e-06
2.3112e-05 -6.20788e-06 0.00149405
0.00484964 0.000469998 -4.02851e-05
0.000469998 0.00118706 3.71661e-05
-4.02851e-05 3.71661e-05 -6.79162e-05
0.00208026 -0.000336589 -1.51984e-05
-0.000336589 9.73114e-05 2.69897e-05
-1.51984e-05 2.69897e-05 -0.000414423
0.000649197 -2.85578e-06 -3.28158e-06
-2.85578e-06 0.000197449 4.52911e-06
-3.28158e-06 4.52911e-06 2.72114e-05
0.000772255 -0.000123066 1.38433e-06
-0.000123066 0.00013491 -2.67909e-06
1.38433e-06 -2.67909e-06 -2.78078e-05
0.00201546 -0.000168482 8.10174e-06
-0.000168482 0.000413798 8.26454e-07
8.10174e-06 8.26454e-07 0.000347984
-8.34462e-05 -1.77613e-05 -1.25295e-06
-1.77613e-05 -0.000264506 -1.05979e-07
-1.25295e-06 -1.05979e-07 -0.000452271
0.000795491 -0.000104059 2.67365e-06
-0.000104059 6.38776e-05 8.8273e-08
2.67365e-06 8.8273e-08 -0.000124831
0.00114369 -0.000151607 7.72699e-08
-0.000151607 3.6574e-05 8.52606e-07
7.72699e-08 8.52606e-07 -0.000117752
0.00142442 -0.000120996 -1.33774e-06
-0.000120996 0.000362819 -1.13015e-06
-1.33774e-06 -1.13015e-06 0.000185596
0.00117773 -0.000130764 -7.19431e-07
-0.000130764 0.000146892 -7.31908e-07
-7.19431e-07 -7.31908e-07 -3.08774e-05
0.00176321 -0.000162407 -2.11185e-06
-0.000162407 0.000316602 -2.01405e-06
-2.11185e-06 -2.01405e-06 0.000171768
0.00151362 -0.000134759 1.05533e-06
-0.000134759 0.000329778 -1.47663e-06
1.05533e-06 -1.47663e-06 0.000169459
0.00127 -0.000129687 4.85273e-07
-0.000129687 0.000156882 -8.60957e-07
4.85273e-07 -8.60957e-07 -3.30278e-06
0.00146906 -0.000134936 -2.69975e-06
-0.000134936 0.000159371 -3.23075e-06
-2.69975e-06 -3.23075e-06 2.42558e-05
0.00142233 -0.00012232 -2.51415e-06
-0.00012232 0.000127389 -2.45297e-06
-2.51415e-06 -2.45297e-06 3.92263e-06
0.0011371 -0.000113966 -2.82637e-06
-0.000113966 7.58681e-05 3.80508e-07
-2.82637e-06 3.80508e-07 -5.53678e-05
0.00129122 -0.000125298 3.97077e-07
-0.000125298 0.000127866 -8.26247e-07
3.97077e-07 -8.26247e-07 -1.29974e-05
0.00131386 -0.000113007 -2.16695e-06
-0.000113007 0.000225824 2.43157e-06
-2.16695e-06 2.43157e-06 0.000112311
0.0013075 -0.000119265 -1.98651e-07
-0.000119265 0.000208264 7.13799e-07
-1.98651e-07 7.13799e-07 7.8429e-05
0.00128262 -0.000126126 1.88964e-06
-0.000126126 0.000181677 -1.03887e-06
1.88964e-06 -1.03887e-06 3.27157e-05
0.00096327 -8.93097e-05 -7.33061e-07
-8.93097e-05 7.73827e-05 -6.87528e-07
-7.33061e-07 -6.87528e-07 -1.73068e-05
0.000768891 -8.37404e-05 -2.60553e-07
-8.37404e-05 -2.14175e-05 -1.13029e-06
-2.60553e-07 -1.13029e-06 -0.000121155
0.00100723 -9.69218e-05 4.66308e-06
-9.69218e-05 0.000100963 -3.08098e-06
4.66308e-06 -3.08098e-06 -9.0093e-06
0.000913806 -4.0504e-05 -4.33526e-07
-4.0504e-05 6.18917e-05 1.30583e-06
-4.33526e-07 1.30583e-06 -1.96965e-05
0.00101311 -8.09298e-05 2.60767e-07
-8.09298e-05 0.000118765 4.92787e-07
2.60767e-07 4.92787e-07 2.40249e-05
0.00107308 -9.35639e-05 1.0133e-06
-9.35639e-05 0.000154534 6.83389e-07
1.0133e-06 6.83389e-07 5.37406e-05
0.000814765 5.89401e-05 -5.93542e-07
5.89401e-05 1.57955e-05 2.5857e-06
-5.93542e-07 2.5857e-06 -3.67103e-05
0.000892007 1.82596e-06 -8.60376e-09
1.82596e-06 5.31763e-05 -2.7548e-08
-8.60376e-09 -2.7548e-08 -2.11197e-05
0.000975599 -4.77477e-05 1.11524e-07
-4.77477e-05 0.000106591 -5.12069e-07
1.11524e-07 -5.12069e-07 2.06432e-05
0.00136939 4.51038e-05 -1.25656e-05
4.51038e-05 0.000310721 3.14661e-06
-1.25656e-05 3.14661e-06 0.000301568
0.000794146 4.068e-05 2.15985e-08
4.068e-05 -1.5204e-06 -1.58777e-07
2.15985e-08 -1.58777e-07 -4.40066e-05
0.000859916 6.02996e-06 6.43215e-07
6.02996e-06 3.13935e-05 -1.47872e-06
6.43215e-07 -1.47872e-06 -3.27087e-05
0.000922652 3.01419e-05 -1.97744e-05
3.01419e-05 6.93127e-05 3.54214e-06
-1.97744e-05 3.54214e-06 7.8753e-05
0.00108123 3.89179e-05 -5.2167e-06
3.89179e-05 0.000149525 3.73468e-07
-5.2167e-06 3.73468e-07 0.000141761
0.000805315 4.21041e-05 5.77283e-07
4.21041e-05 8.96098e-07 -2.13948e-06
5.77283e-07 -2.13948e-06 -3.65481e-05
0.000782717 3.20106e-05 1.92595e-06
3.20106e-05 -1.68709e-05 -3.34138e-06
1.92595e-06 -3.34138e-06 -2.36662e-05
0.00215297 4.39679e-05 8.09699e-07
4.39679e-05 0.000717037 6.59101e-08
8.09699e-07 6.59101e-08 0.000734091
0.00213035 3.82033e-05 1.98433e-05
3.82033e-05 0.000698797 -3.55105e-06
1.98433e-05 -3.55105e-06 0.000717363
0.000863532 -6.63994e-06 -6.74905e-08
-6.63994e-06 2.88647e-05 -1.19911e-06
-6.74905e-08 -1.19911e-06 -4.11989e-05
0.000882838 2.05148e-06 -4.39479e-07
2.05148e-06 3.49947e-05 -1.32241e-06
-4.39479e-07 -1.32241e-06 -2.39755e-05
0.000916881 -6.89278e-06 -2.13157e-08
-6.89278e-06 5.49262e-05 -1.72901e-08
-2.13157e-08 -1.72901e-08 -1.20617e-05
0.000808296 -3.49567e-05 -5.55559e-07
-3.49567e-05 -3.70966e-06 -1.92134e-06
-5.55559e-07 -1.92134e-06 -4.06601e-05
0.000891604 -8.65866e-07 4.61192e-07
-8.65866e-07 3.87875e-05 -8.85081e-08
4.61192e-07 -8.85081e-08 -1.70208e-05
0.000771156 -2.70757e-05 -1.42223e-06
-2.70757e-05 -2.73584e-05 -3.38609e-06
-1.42223e-06 -3.38609e-06 -3.47293e-05
0.000823776 -2.03264e-05 -1.99817e-07
-2.03264e-05 1.59943e-07 1.19974e-08
-1.99817e-07 1.19974e-08 -3.42946e-05
0.00089733 2.93051e-05 9.63935e-07
2.93051e-05 4.44302e-05 7.72121e-07
9.63935e-07 7.72121e-07 -1.11313e-05
0.00220941 -3.26097e-05 -1.79888e-05
-3.26097e-05 0.000735387 -3.86328e-06
-1.79888e-05 -3.86328e-06 0.000754348
0.000770037 -2.32358e-05 -2.389e-07
-2.32358e-05 -3.35823e-05 -5.45724e-09
-2.389e-07 -5.45724e-09 -3.87648e-05
0.000841816 -1.84451e-05 3.615e-07
-1.84451e-05 7.51848e-06 1.48276e-06
3.615e-07 1.48276e-06 -2.49389e-05
0.00214029 -2.62007e-05 -1.50541e-06
-2.62007e-05 0.000692757 5.67327e-08
-1.50541e-06 5.67327e-08 0.000713498
0.000764997 -1.89946e-05 5.45177e-07
-1.89946e-05 -4.18501e-05 3.15904e-06
5.45177e-07 3.15904e-06 -4.45388e-05
0.00207434 -1.92432e-05 9.93914e-06
-1.92432e-05 0.000652713 3.88038e-06
9.93914e-06 3.88038e-06 0.000675102
0.00142222 -1.63126e-06 1.71423e-05
-1.63126e-06 0.000170518 4.53608e-06
1.71423e-05 4.53608e-06 8.18926e-05
0.000910476 3.99064e-06 1.14298e-06
3.99064e-06 6.84491e-05 -3.63418e-07
1.14298e-06 -3.63418e-07 2.24222e-07
0.000947293 1.9298e-07 4.7778e-06
1.9298e-07 0.000164964 4.82372e-06
4.7778e-06 4.82372e-06 6.35984e-05
0.000960344 3.50534e-05 -6.89879e-07
3.50534e-05 9.39965e-05 -1.65857e-08
-6.89879e-07 -1.65857e-08 1.29676e-05
0.000953358 -3.53237e-06 1.25853e-07
-3.53237e-06 7.52537e-05 3.51424e-07
1.25853e-07 3.51424e-07 8.84344e-06
0.000928886 -1.36971e-05 1.05029e-07
-1.36971e-05 6.32279e-05 4.59604e-07
1.05029e-07 4.59604e-07 -8.53448e-06
0.00094405 -1.87522e-05 1.09877e-07
-1.87522e-05 7.2458e-05 -1.76371e-07
1.09877e-07 -1.76371e-07 2.12471e-06
0.000951196 8.55638e-06 9.4546e-08
8.55638e-06 7.99319e-05 -3.53935e-07
9.4546e-08 -3.53935e-07 3.7553e-06
0.000966928 2.01501e-05 -4.60301e-08
2.01501e-05 9.00033e-05 4.62827e-07
-4.60301e-08 4.62827e-07 1.24388e-05
0.000973688 2.89781e-05 -3.76861e-07
2.89781e-05 9.6187e-05 -1.13761e-06
-3.76861e-07 -1.13761e-06 1.43406e-05
0.000828423 2.39294e-06 1.52719e-07
2.39294e-06 1.90477e-05 -2.22074e-08
1.52719e-07 -2.22074e-08 -5.67891e-05
0.000903686 3.77505e-05 3.78961e-07
3.77505e-05 5.82162e-05 -1.95244e-07
3.78961e-07 -1.95244e-07 -1.43052e-05
0.000943753 -3.16208e-05 3.41034e-07
-3.16208e-05 6.72568e-05 -3.67364e-07
3.41034e-07 -3.67364e-07 -5.94599e-06
0.00096791 1.14993e-05 -8.48919e-08
1.14993e-05 9.25072e-05 9.00934e-08
-8.48919e-08 9.00934e-08 1.76121e-05
0.00142681 1.49665e-05 2.47102e-06
1.49665e-05 0.000337681 5.75442e-07
2.47102e-06 5.75442e-07 0.00026111
0.00154214 -0.000242736 3.3121e-05
-0.000242736 0.000485075 2.31928e-05
3.3121e-05 2.31928e-05 0.000759363
0.00172897 -2.40562e-05 2.79857e-06
-2.40562e-05 0.000147363 8.23904e-06
2.79857e-06 8.23904e-06 2.59726e-05
0.00147633 -1.76178e-06 2.56572e-06
-1.76178e-06 9.00939e-05 -2.0455e-06
2.56572e-06 -2.0455e-06 3.42178e-05
0.00312158 -0.000273457 -3.16647e-05
-0.000273457 1.04611e-05 -2.62873e-05
-3.16647e-05 -2.62873e-05 0.000857621
0.00406965 -0.000320312 4.48815e-06
-0.000320312 0.000272931 -6.28362e-05
4.48815e-06 -6.28362e-05 0.000187044
0.0029481 9.96522e-06 -8.73794e-05
9.96522e-06 -0.000454761 9.09185e-05
-8.73794e-05 9.09185e-05 -0.0010987
0.00209639 -0.000285903 -5.67297e-05
-0.000285903 0.000172308 8.74572e-05
-5.67297e-05 8.74572e-05 -0.000218381
0.00269303 -0.000141472 -1.02622e-05
-0.000141472 0.000691166 1.60011e-05
-1.02622e-05 1.60011e-05 0.000396528
0.000491024 -0.000399623 -1.29153e-05
-0.000399623 -0.000887151 -3.37351e-06
-1.29153e-05 -3.37351e-06 0.000126811
0.00487483 -0.000128426 1.29458e-05
-0.000128426 0.000990638 4.63158e-05
1.29458e-05 4.63158e-05 -0.000248983
-7.60673e-05 -0.000309119 -3.03201e-06
-0.000309119 -0.00116599 -2.24755e-06
-3.03201e-06 -2.24755e-06 -0.0009092
0.00319268 0.000160171 -6.9558e-05
0.000160171 0.000703883 -4.28087e-05
-6.9558e-05 -4.28087e-05 0.000498797
0.00849699 -0.000405435 2.16571e-06
-0.000405435 0.00283151 3.66911e-05
2.16571e-06 3.66911e-05 0.00171715
-6.80662e-05 -0.000375407 1.29521e-05
-0.000375407 -0.000210722 -7.32999e-06
1.29521e-05 -7.32999e-06 9.33111e-05
0.000681086 9.97919e-05 -1.47489e-06
9.97919e-05 -3.03269e-05 -5.03987e-07
-1.47489e-06 -5.03987e-07 -9.5817e-05
0.00107461 1.79099e-05 2.22572e-06
1.79099e-05 0.000154485 1.02439e-07
2.22572e-06 1.02439e-07 8.8712e-05
0.00095354 -7.09051e-06 -5.02401e-07
-7.09051e-06 7.99192e-05 -7.77272e-07
-5.02401e-07 -7.77272e-07 4.28595e-06
-0.000717304 -2.11201e-05 -1.84603e-05
-2.11201e-05 -7.65462e-05 -2.15929e-05
-1.84603e-05 -2.15929e-05 -0.00063436
-4.11941e-05 -1.96093e-05 -8.88232e-07
-1.96093e-05 -0.000257037 -4.67339e-06
-8.88232e-07 -4.67339e-06 -0.000347445
0.000771385 6.49586e-06 1.09506e-06
6.49586e-06 -6.44014e-06 5.60314e-07
1.09506e-06 5.60314e-07 -7.92177e-05
0.000790557 4.32764e-05 1.38622e-06
4.32764e-05 0.000125561 5.92366e-07
1.38622e-06 5.92366e-07 2.07756e-05
0.000731312 7.73802e-05 1.34759e-06
7.73802e-05 0.000211857 -1.1834e-05
1.34759e-06 -1.1834e-05 -1.82834e-05
-0.000658071 8.32693e-05 1.14225e-05
8.32693e-05 -0.000627955 1.20766e-05
1.14225e-05 1.20766e-05 -0.000766453
0.00144404 -9.29135e-06 3.88987e-05
-9.29135e-06 0.000887897 -1.73149e-06
3.88987e-05 -1.73149e-06 0.00077255
0.00115968 -1.87912e-06 -1.60539e-06
-1.87912e-06 3.30413e-05 -7.04699e-07
-1.60539e-06 -7.04699e-07 -6.7429e-05
0.000547883 2.21949e-06 8.78141e-06
2.21949e-06 -0.000112473 -1.80762e-06
8.78141e-06 -1.80762e-06 -0.000199458
6.88408e-05 -3.48096e-05 3.02544e-06
-3.48096e-05 6.47522e-05 4.56177e-06
3.02544e-06 4.56177e-06 -5.00102e-05
0.0016572 -0.000226518 2.38423e-05
-0.000226518 -0.000122079 -3.52705e-05
2.38423e-05 -3.52705e-05 -0.000331857
0.00123286 -5.13111e-06 -1.66588e-05
-5.13111e-06 -6.64091e-06 -2.99374e-06
-1.66588e-05 -2.99374e-06 -0.000120525
0.00194297 0.000156643 -1.18857e-06
0.000156643 -0.000176034 1.65071e-05
-1.18857e-06 1.65071e-05 -0.00145766
-0.00236461 0.000408031 -4.65895e-05
0.000408031 -0.00182913 9.08657e-06
-4.65895e-05 9.08657e-06 -0.001435
0.00121166 0.000294644 -4.44322e-05
0.000294644 0.000369875 2.1201e-05
-4.44322e-05 2.1201e-05 0.000780363
0.00162178 -0.000154649 -4.9288e-06
-0.000154649 0.000260145 4.36855e-06
-4.9288e-06 4.36855e-06 0.000394337
0.00112479 0.000114061 -2.2175e-06
0.000114061 0.00066852 2.75106e-06
-2.2175e-06 2.75106e-06 0.000703494
-0.00352414 0.000233131 8.45894e-06
0.000233131 -0.00135719 7.79676e-07
8.45894e-06 7.79676e-07 -0.00141611
0.00305478 -0.000353075 -6.90375e-06
-0.000353075 0.00049437 1.57504e-05
-6.90375e-06 1.57504e-05 -0.000290338
0.00695311 0.000405417 -1.65618e-05
0.000405417 0.00211245 2.14448e-06
-1.65618e-05 2.14448e-06 0.000982865
0.000201276 -0.000159507 -3.14146e-06
-0.000159507 -0.000460844 4.82366e-06
-3.14146e-06 4.82366e-06 -0.000414763
-0.00445605 0.000116617 1.80768e-05
0.000116617 -0.00225221 -1.07421e-05
1.80768e-05 -1.07421e-05 -0.00216902
0.00654334 0.000374856 1.72022e-06
0.000374856 0.00212364 2.96156e-06
1.72022e-06 2.96156e-06 0.00112674
0.00320086 -0.000153662 -2.08884e-05
-0.000153662 -4.83012e-05 2.88974e-05
-2.08884e-05 2.88974e-05 -0.000573006
-0.000178248 -8.17015e-05 -7.16205e-06
-8.17015e-05 -0.000302483 -1.71736e-06
-7.16205e-06 -1.71736e-06 -0.000505126
0.00129486 -0.000141397 -1.09598e-06
-0.000141397 9.22356e-05 -1.79274e-07
-1.09598e-06 -1.79274e-07 4.02536e-05
0.0016272 -0.000159062 3.86972e-06
-0.000159062 3.01086e-05 -3.57677e-06
3.86972e-06 -3.57677e-06 1.11772e-05
0.000419567 -8.53714e-05 -1.26421e-06
-8.53714e-05 -0.000109699 -4.11624e-06
-1.26421e-06 -4.11624e-06 -0.000298249
0.00123237 -0.000152419 -9.4505e-07
-0.000152419 7.50895e-05 -1.68839e-06
-9.4505e-07 -1.68839e-06 -7.82929e-05
0.00158912 -0.000169952 -3.78806e-06
-0.000169952 6.55349e-05 -2.8567e-06
-3.78806e-06 -2.8567e-06 -4.41229e-05
0.00114184 -0.000127989 -4.79941e-09
-0.000127989 0.00012063 -2.2905e-06
-4.79941e-09 -2.2905e-06 -5.28316e-05
0.00137228 -0.000145438 5.88251e-07
-0.000145438 0.000119396 -9.69827e-07
5.88251e-07 -9.69827e-07 -2.54048e-05
0.00174763 -0.000145106 -2.90085e-06
-0.000145106 0.000183204 -3.88053e-06
-2.90085e-06 -3.88053e-06 7.39383e-05
0.00130374 -0.000128347 1.16916e-06
-0.000128347 0.000171432 -8.68034e-07
1.16916e-06 -8.68034e-07 1.56002e-05
0.00135768 -0.000129076 -3.38341e-07
-0.000129076 9.92103e-05 -8.54506e-07
-3.38341e-07 -8.54506e-07 -3.43683e-05
0.00164633 -0.000123642 -2.73704e-06
-0.000123642 0.000158786 -3.92383e-06
-2.73704e-06 -3.92383e-06 5.64666e-05
0.00160007 -0.000114261 -2.29491e-06
-0.000114261 0.000172284 -3.05238e-06
-2.29491e-06 -3.05238e-06 7.33579e-05
0.00134144 -0.000118102 -2.99553e-06
-0.000118102 0.000121066 -1.31086e-06
-2.99553e-06 -1.31086e-06 -1.72432e-07
0.00141688 -0.000119482 8.40104e-07
-0.000119482 0.000125148 9.3429e-08
8.40104e-07 9.3429e-08 3.97431e-06
0.000712283 -9.09606e-05 -2.55087e-06
-9.09606e-05 -0.000120253 1.33143e-06
-2.55087e-06 1.33143e-06 -0.000238404
0.00131431 -0.000120022 1.11508e-06
-0.000120022 0.000167027 -1.06864e-06
1.11508e-06 -1.06864e-06 3.70622e-05
0.00114777 -0.000118213 2.89343e-06
-0.000118213 5.22674e-05 -4.4971e-07
2.89343e-06 -4.4971e-07 -8.7151e-05
0.00101911 -9.56753e-05 -8.77031e-07
-9.56753e-05 9.2254e-05 1.02976e-06
-8.77031e-07 1.02976e-06 -7.70363e-06
0.00101134 -9.95213e-05 4.36425e-07
-9.95213e-05 7.37362e-05 -2.03894e-07
4.36425e-07 -2.03894e-07 -3.90559e-05
0.000961526 -0.000104883 2.37886e-06
-0.000104883 3.10945e-05 -2.02998e-06
2.37886e-06 -2.02998e-06 -0.000100505
0.000978899 -7.47803e-05 -1.80923e-06
-7.47803e-05 8.51554e-05 4.17477e-07
-1.80923e-06 4.17477e-07 9.96595e-07
0.00104409 -9.24374e-05 -2.30663e-07
-9.24374e-05 0.000117773 -4.41546e-07
-2.30663e-07 -4.41546e-07 2.28863e-05
0.000886215 -8.83667e-05 5.81497e-07
-8.83667e-05 4.10815e-05 -1.67834e-06
5.81497e-07 -1.67834e-06 -5.7553e-05
0.000876141 1.62251e-05 -7.88093e-07
1.62251e-05 4.91872e-05 2.81172e-06
-7.88093e-07 2.81172e-06 -1.13242e-05
0.000955292 -3.58845e-05 6.95878e-07
-3.58845e-05 8.28148e-05 3.62184e-07
6.95878e-07 3.62184e-07 1.48032e-06
0.000990986 -7.31376e-05 1.10286e-06
-7.31376e-05 0.000107222 4.96125e-07
1.10286e-06 4.96125e-07 1.37851e-05
0.000691853 4.30652e-05 -3.00561e-06
4.30652e-05 -4.16513e-05 3.83992e-06
-3.00561e-06 3.83992e-06 -5.88591e-05
0.000794825 2.82065e-05 -2.43632e-07
2.82065e-05 2.30459e-06 -2.079e-07
-2.43632e-07 -2.079e-07 -4.84113e-05
0.000917719 -8.30487e-06 3.67616e-07
-8.30487e-06 6.75497e-05 -1.60305e-06
3.67616e-07 -1.60305e-06 -7.77806e-06
0.00224185 6.14041e-05 -9.43566e-06
6.14041e-05 0.000780771 1.38996e-06
-9.43566e-06 1.38996e-06 0.000792594
0.000735944 3.92736e-05 1.54042e-07
3.92736e-05 -2.59251e-05 -7.83429e-09
1.54042e-07 -7.83429e-09 -3.90527e-05
0.000783926 3.968e-05 1.01651e-06
3.968e-05 -6.62883e-06 -2.31143e-06
1.01651e-06 -2.31143e-06 -4.93136e-05
0.0021942 4.94465e-05 8.38041e-07
4.94465e-05 0.000746079 5.86437e-08
8.38041e-07 5.86437e-08 0.000761347
0.000777695 3.64276e-05 2.28136e-06
3.64276e-05 -1.19843e-05 -3.48122e-06
2.28136e-06 -3.48122e-06 -2.16127e-05
0.0021621 4.40159e-05 2.26507e-05
4.40159e-05 0.0007229 -3.4564e-06
2.26507e-05 -3.4564e-06 0.000739744
0.000990042 3.12619e-05 -4.20917e-07
3.12619e-05 0.000104307 -1.77071e-07
-4.20917e-07 -1.77071e-07 2.92587e-05
0.000886672 1.46486e-06 6.20615e-08
1.46486e-06 4.14838e-05 -3.042e-07
6.20615e-08 -3.042e-07 -2.92269e-05
0.000880012 -8.26464e-06 -4.11452e-07
-8.26464e-06 3.7684e-05 -1.53215e-06
-4.11452e-07 -1.53215e-06 -2.60028e-05
0.000799496 -3.97682e-05 -7.70531e-07
-3.97682e-05 -4.34465e-06 -2.18683e-06
-7.70531e-07 -2.18683e-06 -4.35894e-05
0.000868511 -1.06528e-05 4.81266e-07
-1.06528e-05 2.82022e-05 -4.91853e-08
4.81266e-07 -4.91853e-08 -3.09263e-05
0.000874741 5.45759e-06 5.05405e-07
5.45759e-06 3.52282e-05 7.36786e-07
5.05405e-07 7.36786e-07 -3.36411e-05
0.000765486 -3.02809e-05 -2.06218e-06
-3.02809e-05 -2.46424e-05 -3.49206e-06
-2.06218e-06 -3.49206e-06 -3.38491e-05
0.000814118 -2.76147e-05 -2.20628e-07
-2.76147e-05 -1.39482e-06 8.43486e-09
-2.20628e-07 8.43486e-09 -3.78533e-05
0.000877854 -8.22302e-06 9.35148e-07
-8.22302e-06 3.15669e-05 9.82921e-07
9.35148e-07 9.82921e-07 -2.41533e-05
0.0022499 -3.85349e-05 -2.12027e-05
-3.85349e-05 0.00076282 -3.78131e-06
-2.12027e-05 -3.78131e-06 0.000780237
0.000756702 -2.66159e-05 -1.54035e-07
-2.66159e-05 -3.47476e-05 1.03443e-09
-1.54035e-07 1.03443e-09 -4.20672e-05
0.000832414 -1.90749e-05 8.32107e-07
-1.90749e-05 4.85606e-06 1.59131e-06
8.32107e-07 1.59131e-06 -2.95439e-05
0.00219863 -3.2507e-05 -1.56768e-06
-3.2507e-05 0.000729066 6.99779e-08
-1.56768e-06 6.99779e-08 0.000748209
0.000753277 -2.28883e-05 7.32604e-07
-2.28883e-05 -4.22694e-05 3.29729e-06
7.32604e-07 3.29729e-06 -4.73675e-05
0.00212845 -2.58823e-05 1.29749e-05
-2.58823e-05 0.000685879 3.86285e-06
1.29749e-05 3.86285e-06 0.000706845
-0.000741933 -9.26881e-05 2.71374e-05
-9.26881e-05 -0.000355228 7.23041e-06
2.71374e-05 7.23041e-06 -0.000523284
0.00136598 -4.93246e-06 1.76276e-06
-4.93246e-06 0.000122597 2.49441e-06
1.76276e-06 2.49441e-06 3.55534e-05
0.000978005 4.488e-06 8.26065e-06
4.488e-06 0.000111512 4.06197e-06
8.26065e-06 4.06197e-06 4.4251e-05
0.000945709 2.00496e-05 -4.95074e-07
2.00496e-05 8.48998e-05 5.44512e-07
-4.95074e-07 5.44512e-07 4.67731e-06
0.00108053 8.03112e-05 -1.6671e-07
8.03112e-05 0.000165587 9.80562e-07
-1.6671e-07 9.80562e-07 7.67513e-05
0.000967609 3.86972e-05 -3.8654e-07
3.86972e-05 9.93959e-05 2.87596e-07
-3.8654e-07 2.87596e-07 1.44747e-05
0.00102936 -2.32648e-05 1.05002e-07
-2.32648e-05 0.000116944 -3.52813e-07
1.05002e-07 -3.52813e-07 4.70199e-05
0.000983825 1.588e-05 3.81514e-07
1.588e-05 9.52647e-05 4.89749e-07
3.81514e-07 4.89749e-07 2.05871e-05
0.000853746 -8.25598e-06 -5.672e-07
-8.25598e-06 2.79501e-05 1.15379e-06
-5.672e-07 1.15379e-06 -4.77325e-05
0.000857206 1.27619e-05 -4.11186e-07
1.27619e-05 3.60926e-05 -1.65702e-09
-4.11186e-07 -1.65702e-09 -4.19621e-05
0.000924114 1.67207e-05 2.03006e-07
1.67207e-05 6.95416e-05 -7.42091e-09
2.03006e-07 -7.42091e-09 -1.14505e-05
0.00101785 4.67709e-05 5.38237e-07
4.67709e-05 0.000135059 -8.71554e-07
5.38237e-07 -8.71554e-07 4.55865e-05
0.000827079 4.5254e-05 1.72187e-06
4.5254e-05 1.42099e-05 -1.76653e-06
1.72187e-06 -1.76653e-06 -6.60603e-05
0.000935964 3.41399e-05 -8.16762e-08
3.41399e-05 7.83045e-05 -5.6516e-07
-8.16762e-08 -5.6516e-07 1.69837e-06
0.0011007 2.94197e-05 4.73489e-07
2.94197e-05 0.000170544 2.41205e-07
4.73489e-07 2.41205e-07 9.37923e-05
-0.00218125 -0.00026182 1.67441e-05
-0.00026182 -0.00111733 2.43862e-05
1.67441e-05 2.43862e-05 -0.00108301
0.000342657 -0.00023928 9.02092e-06
-0.00023928 -0.000104709 2.36096e-06
9.02092e-06 2.36096e-06 9.05443e-05
0.0018469 -2.17349e-05 -1.99925e-05
-2.17349e-05 0.00020879 -1.25953e-05
-1.99925e-05 -1.25953e-05 8.80097e-05
-0.00139551 -0.000421815 -1.05392e-05
-0.000421815 -0.0019326 1.16112e-05
-1.05392e-05 1.16112e-05 -0.00081636
0.00435095 -0.000475624 -2.41791e-05
-0.000475624 0.00117346 -4.27198e-05
-2.41791e-05 -4.27198e-05 0.00127319
0.00417033 -1.88046e-05 5.26074e-05
-1.88046e-05 0.000718496 2.43692e-05
5.26074e-05 2.43692e-05 -0.000434676
0.00181489 -0.000132498 -7.43941e-05
-0.000132498 0.000230463 7.83937e-05
-7.43941e-05 7.83937e-05 -0.000419785
0.00270563 0.00011645 -4.2592e-05
0.00011645 0.000325543 -1.59077e-05
-4.2592e-05 -1.59077e-05 -1.64363e-05
0.00302374 -0.000504921 -7.28193e-06
-0.000504921 0.000976955 8.18236e-06
-7.28193e-06 8.18236e-06 0.00113125
0.00242023 -8.2451e-05 2.17587e-05
-8.2451e-05 8.46424e-06 3.55172e-05
2.17587e-05 3.55172e-05 -0.00118115
0.00152464 0.000217264 -8.51371e-05
0.000217264 -7.2942e-05 -8.84159e-05
-8.51371e-05 -8.84159e-05 -0.000664574
0.003182 9.28909e-05 -8.93277e-05
9.28909e-05 0.000596112 -3.04718e-05
-8.93277e-05 -3.04718e-05 -0.000608668
0.00238507 0.000232706 1.1084e-05
0.000232706 0.000706975 -6.25691e-06
1.1084e-05 -6.25691e-06 0.000578998
0.000882212 9.89631e-05 -1.00794e-06
9.89631e-05 6.31435e-05 -1.29679e-07
-1.00794e-06 -1.29679e-07 -3.26681e-07
0.00125553 2.22923e-05 -5.29953e-10
2.22923e-05 0.000245368 -2.05048e-06
-5.29953e-10 -2.05048e-06 0.000179483
-0.000447257 2.75747e-05 -2.09455e-05
2.75747e-05 -0.000420111 -1.3966e-05
-2.09455e-05 -1.3966e-05 -0.000595195
0.00154943 8.27554e-05 -1.65882e-06
8.27554e-05 0.00047916 -5.19836e-06
-1.65882e-06 -5.19836e-06 0.000373729
0.00102474 0.000158006 1.07034e-05
0.000158006 0.000140503 2.26145e-07
1.07034e-05 2.26145e-07 2.36156e-05
0.000660187 0.000183984 3.51046e-05
0.000183984 -0.000333922 2.43085e-05
3.51046e-05 2.43085e-05 -0.000396973
-0.00261716 -1.31146e-05 3.85859e-06
-1.31146e-05 -0.00141378 -8.35371e-06
3.85859e-06 -8.35371e-06 -0.00114558
0.000124408 1.08277e-07 3.92061e-06
1.08277e-07 0.00019193 1.0462e-06
3.92061e-06 1.0462e-06 4.48841e-05
0.000725875 -2.24463e-06 -1.16025e-05
-2.24463e-06 -0.000170191 -1.31405e-06
-1.16025e-05 -1.31405e-06 -0.000255087
0.000709049 -0.000136681 -3.12865e-05
-0.000136681 -0.000184996 -7.07802e-06
-3.12865e-05 -7.07802e-06 -6.69315e-05
0.00342117 -0.00039906 -5.06497e-05
-0.00039906 0.000654255 -3.07488e-06
-5.06497e-05 -3.07488e-06 6.66151e-05
0.000995882 9.14803e-05 -3.17174e-05
9.14803e-05 0.00064329 6.8592e-06
-3.17174e-05 6.8592e-06 0.000639596
0.00113209 0.000280463 2.30269e-05
0.000280463 -0.000269966 -4.29599e-05
2.30269e-05 -4.29599e-05 -0.00160441
0.00616648 0.00043081 -9.29271e-05
0.00043081 0.00305302 1.59999e-05
-9.29271e-05 1.59999e-05 0.00310908
0.0012123 -0.000218179 9.18534e-06
-0.000218179 -1.99359e-05 1.66824e-07
9.18534e-06 1.66824e-07 -8.83505e-06
-0.000934922 0.000201255 -1.83191e-05
0.000201255 -0.000395272 -1.68988e-06
-1.83191e-05 -1.68988e-06 -0.00040447
0.00255923 0.000249556 -6.66572e-06
0.000249556 0.000230325 1.27657e-05
-6.66572e-06 1.27657e-05 -0.000955609
0.0036947 -0.000123281 2.26841e-06
-0.000123281 0.000578159 5.75865e-06
2.26841e-06 5.75865e-06 0.000158921
0.000469373 -0.000127669 -3.47367e-06
-0.000127669 -0.000292104 -8.05083e-06
-3.47367e-06 -8.05083e-06 -0.000362807
0.00625941 8.66401e-05 2.90041e-05
8.66401e-05 0.00198837 3.00021e-06
2.90041e-05 3.00021e-06 0.00115073
0.00136922 6.01913e-05 1.88065e-06
6.01913e-05 -0.000517942 -7.4587e-06
1.88065e-06 -7.4587e-06 -0.000778215
0.000673424 -0.000123543 -5.02554e-06
-0.000123543 -0.000179485 -7.06541e-07
-5.02554e-06 -7.06541e-07 -0.000220721
0.00141708 -0.000159852 -3.17589e-07
-0.000159852 -5.38022e-05 -3.30712e-07
-3.17589e-07 -3.30712e-07 -8.56762e-05
0.00201309 -0.000188484 -5.94528e-06
-0.000188484 8.08549e-05 1.52932e-06
-5.94528e-06 1.52932e-06 5.1791e-05
0.00131521 -0.000152918 -2.65198e-06
-0.000152918 0.000111388 -2.985e-06
-2.65198e-06 -2.985e-06 -4.04388e-05
0.00158082 -0.000166677 -2.86784e-06
-0.000166677 5.73105e-05 9.09471e-07
-2.86784e-06 9.09471e-07 -5.12052e-05
0.00168128 -0.000145806 -7.20929e-06
-0.000145806 -7.30924e-06 1.03404e-06
-7.20929e-06 1.03404e-06 -7.6876e-05
0.00098786 -0.000128787 2.33476e-06
-0.000128787 -7.39677e-05 3.65572e-07
2.33476e-06 3.65572e-07 -0.000219074
0.00150023 -0.000134466 -8.10321e-07
-0.000134466 5.40474e-05 1.03835e-07
-8.10321e-07 1.03835e-07 -5.38511e-05
0.00163226 -0.00011895 -2.59358e-06
-0.00011895 1.84121e-05 -7.25464e-07
-2.59358e-06 -7.25464e-07 -5.69406e-05
0.00124251 -0.000123354 2.27933e-06
-0.000123354 3.70527e-05 1.45434e-06
2.27933e-06 1.45434e-06 -9.49657e-05
0.0014649 -0.00011736 -3.74662e-07
-0.00011736 6.48537e-05 5.72416e-07
-3.74662e-07 5.72416e-07 -3.68871e-05
0.00159059 -0.000107608 -2.04595e-06
-0.000107608 8.37555e-05 -9.21529e-07
-2.04595e-06 -9.21529e-07 5.87998e-06
0.00186319 -0.000107789 -7.72876e-07
-0.000107789 0.000278082 -1.82592e-06
-7.72876e-07 -1.82592e-06 0.000193646
0.00154264 -0.000110347 -1.07543e-06
-0.000110347 0.000142537 1.43688e-06
-1.07543e-06 1.43688e-06 4.61119e-05
0.00142315 -0.000108883 -1.31334e-06
-0.000108883 0.000117151 -3.44151e-06
-1.31334e-06 -3.44151e-06 1.39033e-05
0.00132485 -0.000112361 -2.86546e-06
-0.000112361 0.000137283 -1.89562e-07
-2.86546e-06 -1.89562e-07 2.2524e-05
0.00145332 -0.000120948 1.01471e-06
-0.000120948 0.000179644 -3.81282e-07
1.01471e-06 -3.81282e-07 5.84501e-05
0.00140323 -0.000116535 3.30044e-06
-0.000116535 0.000118464 2.55708e-06
3.30044e-06 2.55708e-06 -3.73228e-07
0.000792024 -8.93599e-05 -2.67507e-06
-8.93599e-05 -5.90004e-05 2.08577e-06
-2.67507e-06 2.08577e-06 -0.000166476
0.00103727 -0.000103052 1.5178e-07
-0.000103052 4.81646e-05 -5.25081e-08
1.5178e-07 -5.25081e-08 -6.89737e-05
0.00148989 -0.000125993 4.28848e-06
-0.000125993 0.000257372 -2.30434e-06
4.28848e-06 -2.30434e-06 0.000128694
0.000951926 -8.03828e-05 -1.62114e-06
-8.03828e-05 6.23522e-05 6.26096e-07
-1.62114e-06 6.26096e-07 -2.54517e-05
0.00107518 -9.74555e-05 1.34635e-07
-9.74555e-05 0.000119545 -2.0256e-07
1.34635e-07 -2.0256e-07 1.94103e-05
0.000745954 -8.77184e-05 1.37621e-06
-8.77184e-05 -5.95475e-05 -2.75565e-06
1.37621e-06 -2.75565e-06 -0.000171725
0.000832347 -1.44518e-05 -2.51977e-06
-1.44518e-05 2.48519e-05 2.47206e-06
-2.51977e-06 2.47206e-06 -4.22317e-05
0.00101757 -7.69741e-05 -2.04065e-08
-7.69741e-05 0.000104004 -4.08133e-08
-2.04065e-08 -4.08133e-08 1.98451e-05
0.00111786 -9.52096e-05 1.1408e-06
-9.52096e-05 0.000154482 -6.11739e-07
1.1408e-06 -6.11739e-07 5.94384e-05
0.00063548 5.11961e-05 -2.30697e-06
5.11961e-05 -6.32493e-05 4.44696e-06
-2.30697e-06 4.44696e-06 -8.69328e-05
0.000821881 6.0494e-06 -2.84448e-08
6.0494e-06 2.04456e-05 3.43326e-08
-2.84448e-08 3.43326e-08 -4.06928e-05
0.000994997 -4.08364e-05 1.6105e-06
-4.08364e-05 0.000103515 -5.46397e-07
1.6105e-06 -5.46397e-07 2.18465e-05
0.00239328 6.22508e-05 -3.02799e-05
6.22508e-05 0.0008657 3.13533e-06
-3.02799e-05 3.13533e-06 0.000876318
0.000713352 4.57453e-05 -1.03299e-07
4.57453e-05 -2.94524e-05 -1.04204e-07
-1.03299e-07 -1.04204e-07 -4.73286e-05
0.000769402 9.92365e-06 2.27779e-06
9.92365e-06 -1.16032e-05 -2.63824e-06
2.27779e-06 -2.63824e-06 -6.22223e-05
0.00162135 4.82468e-05 1.16672e-05
4.82468e-05 0.000449825 -7.70524e-07
1.16672e-05 -7.70524e-07 0.000459136
0.000765646 4.10704e-05 2.64541e-06
4.10704e-05 -1.05339e-05 -3.73457e-06
2.64541e-06 -3.73457e-06 -2.3869e-05
0.00222664 4.97682e-05 2.60114e-05
4.97682e-05 0.000764678 -3.3819e-06
2.60114e-05 -3.3819e-06 0.000779472
0.000970881 4.75836e-05 9.13266e-08
4.75836e-05 9.68788e-05 7.49324e-07
9.13266e-08 7.49324e-07 1.60795e-05
0.000954174 9.80233e-06 -1.20071e-07
9.80233e-06 8.27967e-05 5.08046e-07
-1.20071e-07 5.08046e-07 9.12187e-06
0.000896462 -2.24767e-05 -4.4554e-07
-2.24767e-05 5.21967e-05 -1.28243e-06
-4.4554e-07 -1.28243e-06 -1.55898e-05
0.000933395 1.32134e-05 2.94509e-07
1.32134e-05 6.67237e-05 5.93217e-07
2.94509e-07 5.93217e-07 -4.92384e-06
0.000878387 -2.65749e-05 1.46571e-07
-2.65749e-05 3.47711e-05 -3.9024e-08
1.46571e-07 -3.9024e-08 -2.7426e-05
0.000780918 -3.78986e-05 -1.15114e-06
-3.78986e-05 -8.90001e-06 -2.34389e-06
-1.15114e-06 -2.34389e-06 -5.13471e-05
0.000759424 -3.39915e-05 -2.53995e-06
-3.39915e-05 -2.20888e-05 -3.58247e-06
-2.53995e-06 -3.58247e-06 -3.30116e-05
0.000802678 -3.56678e-05 -1.57427e-07
-3.56678e-05 -3.2995e-06 -1.74991e-08
-1.57427e-07 -1.74991e-08 -4.21114e-05
0.000876528 -3.9172e-05 -4.72027e-08
-3.9172e-05 3.08302e-05 1.34833e-06
-4.72027e-08 1.34833e-06 -2.68515e-05
0.00227186 -4.41482e-05 -2.41741e-05
-4.41482e-05 0.000780988 -3.64044e-06
-2.41741e-05 -3.64044e-06 0.000796907
0.000747003 -2.9743e-05 -2.13058e-07
-2.9743e-05 -3.4095e-05 1.93041e-08
-2.13058e-07 1.93041e-08 -4.32447e-05
0.000821247 -1.95362e-05 1.48553e-06
-1.95362e-05 1.68812e-06 1.80996e-06
1.48553e-06 1.80996e-06 -3.43122e-05
0.00224753 -3.85335e-05 -1.22539e-06
-3.85335e-05 0.000760911 7.84484e-08
-1.22539e-06 7.84484e-08 0.000778453
0.00074225 -2.62017e-05 1.23251e-06
-2.62017e-05 -4.20841e-05 3.41838e-06
1.23251e-06 3.41838e-06 -4.93644e-05
0.00218516 -3.23617e-05 1.60037e-05
-3.23617e-05 0.000721295 3.83269e-06
1.60037e-05 3.83269e-06 0.000740637
0.00106611 8.06732e-05 9.76033e-05
8.06732e-05 0.000515403 2.48716e-05
9.76033e-05 2.48716e-05 0.000271373
0.000421296 -0.000105588 5.79595e-06
-0.000105588 0.000219606 3.1829e-06
5.79595e-06 3.1829e-06 0.000120372
0.00131802 -7.52522e-06 -1.27099e-05
-7.52522e-06 7.93859e-05 2.97347e-07
-1.27099e-05 2.97347e-07 -6.20043e-06
0.000940543 9.71686e-06 4.04968e-07
9.71686e-06 8.14593e-05 5.66017e-07
4.04968e-07 5.66017e-07 1.59713e-06
0.000938123 2.16271e-05 1.14343e-07
2.16271e-05 8.32826e-05 4.11226e-07
1.14343e-07 4.11226e-07 -1.36425e-06
0.000978543 7.9196e-05 -9.7485e-08
7.9196e-05 0.000115733 4.30698e-08
-9.7485e-08 4.30698e-08 2.72273e-05
0.00109388 9.66312e-05 6.41733e-07
9.66312e-05 0.000168438 9.64363e-07
6.41733e-07 9.64363e-07 7.54957e-05
0.00100099 6.88143e-05 -8.68404e-07
6.88143e-05 0.000129527 5.53817e-07
-8.68404e-07 5.53817e-07 3.72721e-05
0.000889968 2.04814e-05 1.3973e-07
2.04814e-05 5.27448e-05 7.43239e-07
1.3973e-07 7.43239e-07 -2.5828e-05
0.000902943 1.54548e-05 2.23315e-07
1.54548e-05 5.80578e-05 7.643e-07
2.23315e-07 7.643e-07 -2.26792e-05
0.000844029 4.94851e-05 -4.88671e-07
4.94851e-05 4.48092e-05 -5.71845e-07
-4.88671e-07 -5.71845e-07 -4.34696e-05
0.000303791 5.99477e-05 -4.02819e-07
5.99477e-05 -0.000228833 1.30604e-06
-4.02819e-07 1.30604e-06 -0.000322252
0.000837025 8.02925e-05 -3.64898e-08
8.02925e-05 1.97031e-05 -1.42908e-06
-3.64898e-08 -1.42908e-06 -7.06381e-05
0.00191972 0.000167356 3.03955e-06
0.000167356 0.000465613 -4.2372e-06
3.03955e-06 -4.2372e-06 0.000354721
0.000927066 5.24046e-05 -1.68513e-06
5.24046e-05 8.1276e-05 -2.52944e-07
-1.68513e-06 -2.52944e-07 -7.38821e-07
0.000881203 1.31764e-05 -1.24989e-07
1.31764e-05 5.3475e-05 -2.90638e-07
-1.24989e-07 -2.90638e-07 -2.10251e-05
0.00892731 -0.000139106 -2.90209e-05
-0.000139106 0.00269305 -1.36686e-05
-2.90209e-05 -1.36686e-05 0.00176668
-0.00155746 -0.000267933 -1.53473e-05
-0.000267933 -0.000727646 1.94146e-06
-1.53473e-05 1.94146e-06 -0.000872175
0.00160191 -0.000243728 -3.111e-05
-0.000243728 0.000567563 -1.85142e-05
-3.111e-05 -1.85142e-05 0.000752707
-0.00227491 -0.000311548 -2.70727e-05
-0.000311548 -0.00149115 -9.55506e-06
-2.70727e-05 -9.55506e-06 -0.00126463
0.00900616 -0.000365088 5.51065e-05
-0.000365088 0.00302652 2.85833e-05
5.51065e-05 2.85833e-05 0.00153722
0.00203922 7.39838e-05 1.69938e-05
7.39838e-05 0.00017613 1.50697e-05
1.69938e-05 1.50697e-05 -1.33498e-06
0.00197786 0.000235514 -3.53578e-05
0.000235514 7.0458e-05 -2.34979e-05
-3.53578e-05 -2.34979e-05 -0.000393823
0.00627178 -0.000279864 4.08148e-05
-0.000279864 0.00168499 1.76133e-05
4.08148e-05 1.76133e-05 0.000681011
0.00223473 0.000160662 -1.09043e-05
0.000160662 -4.56157e-05 -4.35195e-05
-1.09043e-05 -4.35195e-05 -0.000451474
0.00222657 0.000263652 1.63436e-05
0.000263652 0.000412344 1.10889e-05
1.63436e-05 1.10889e-05 0.000267702
0.000891042 0.000152383 4.41184e-07
0.000152383 2.3817e-05 -4.61205e-06
4.41184e-07 -4.61205e-06 -0.000117723
0.00094644 8.01956e-05 -2.36494e-06
8.01956e-05 8.90224e-05 1.77452e-06
-2.36494e-06 1.77452e-06 2.98901e-05
0.00198037 0.000205405 -3.55386e-05
0.000205405 0.000586798 -1.8973e-05
-3.55386e-05 -1.8973e-05 0.000478825
0.000450607 0.000187467 -1.14729e-05
0.000187467 -0.000423524 1.34154e-05
-1.14729e-05 1.34154e-05 -0.000497846
0.000206539 -2.3123e-05 7.96518e-07
-2.3123e-05 -0.00104196 -6.43793e-06
7.96518e-07 -6.43793e-06 -0.00150808
0.00161073 1.59193e-05 -4.99187e-06
1.59193e-05 0.000674766 3.52604e-07
-4.99187e-06 3.52604e-07 0.000681299
-0.00117902 7.24666e-06 -1.36599e-05
7.24666e-06 -0.000485184 6.16421e-07
-1.36599e-05 6.16421e-07 -0.000677511
0.00218091 -0.000260176 -3.69535e-05
-0.000260176 0.000397116 1.06409e-05
-3.69535e-05 1.06409e-05 0.000400156
0.00333007 -0.000153315 1.33522e-06
-0.000153315 0.000221316 -2.10764e-05
1.33522e-06 -2.10764e-05 -0.00044992
0.000143288 -6.47913e-07 -7.74935e-05
-6.47913e-07 0.000128415 2.33039e-05
-7.74935e-05 2.33039e-05 -5.88844e-05
0.00752747 0.000432852 -2.77584e-05
0.000432852 0.00269323 1.71082e-05
-2.77584e-05 1.71082e-05 0.0015799
0.000812605 -0.00013708 1.40959e-06
-0.00013708 -0.000156342 -1.73937e-06
1.40959e-06 -1.73937e-06 -0.000188011
0.00519469 0.000202666 2.26071e-05
0.000202666 0.00140099 8.11574e-06
2.26071e-05 8.11574e-06 0.000682063
0.0031388 6.89168e-05 3.8268e-05
6.89168e-05 0.000133579 -2.88094e-06
3.8268e-05 -2.88094e-06 -0.000284207
0.00311246 -0.000145797 -5.31263e-06
-0.000145797 0.000927013 2.29087e-07
-5.31263e-06 2.29087e-07 0.000850142
0.00144576 3.47696e-05 -5.36884e-05
3.47696e-05 0.000106655 -2.72574e-07
-5.36884e-05 -2.72574e-07 -0.000164245
0.00125073 -0.000156225 4.8522e-06
-0.000156225 -0.000126248 -2.30918e-06
4.8522e-06 -2.30918e-06 -0.00016166
0.00177834 -0.000181925 -1.26233e-06
-0.000181925 -1.18983e-05 2.64393e-06
-1.26233e-06 2.64393e-06 -4.92531e-05
0.00233291 -0.000131164 -1.0031e-05
-0.000131164 0.000192974 6.02244e-07
-1.0031e-05 6.02244e-07 0.000151621
0.00158449 -0.00016365 4.28565e-06
-0.00016365 5.52841e-05 1.63503e-06
4.28565e-06 1.63503e-06 -5.13742e-05
0.00179972 -0.000144054 1.66116e-07
-0.000144054 6.51556e-05 1.30528e-06
1.66116e-07 1.30528e-06 -4.68794e-06
0.00178447 -9.90987e-05 -1.99156e-06
-9.90987e-05 1.37205e-05 2.09959e-06
-1.99156e-06 2.09959e-06 -4.60369e-05
0.00126606 -0.000124469 3.22542e-06
-0.000124469 -6.90673e-05 3.04566e-06
3.22542e-06 3.04566e-06 -0.000175541
0.00164488 -0.000119149 -2.10624e-07
-0.000119149 3.06079e-05 1.61305e-06
-2.10624e-07 1.61305e-06 -4.65981e-05
0.00171708 -9.8523e-05 -6.05569e-07
-9.8523e-05 5.40763e-05 2.18168e-06
-6.05569e-07 2.18168e-06 -1.7536e-05
0.00129151 -0.000111483 3.80543e-06
-0.000111483 -2.47039e-05 3.65549e-06
3.80543e-06 3.65549e-06 -0.000125927
0.00152868 -0.000106907 -5.37594e-08
-0.000106907 5.63745e-05 1.34309e-06
-5.37594e-08 1.34309e-06 -2.28164e-05
0.00170624 -9.75277e-05 2.1875e-07
-9.75277e-05 0.00013981 -1.62317e-07
2.1875e-07 -1.62317e-07 6.31476e-05
0.00158278 -0.000101622 -2.11784e-06
-0.000101622 0.000137115 1.09788e-06
-2.11784e-06 1.09788e-06 5.52745e-05
0.00175148 -0.000104614 1.50546e-06
-0.000104614 0.000243685 -2.46312e-06
1.50546e-06 -2.46312e-06 0.000151375
0.00150003 -0.00010698 2.19272e-06
-0.00010698 0.000120659 4.73817e-06
2.19272e-06 4.73817e-06 2.66567e-05
0.00142258 -0.00010781 2.30634e-07
-0.00010781 0.0001163 -5.62321e-07
2.30634e-07 -5.62321e-07 1.2705e-05
0.00140234 -0.000105217 -1.44052e-06
-0.000105217 0.000128869 -1.46524e-06
-1.44052e-06 -1.46524e-06 2.35775e-05
0.000926038 -9.3346e-05 -3.12314e-06
-9.3346e-05 -3.96104e-05 9.93981e-07
-3.12314e-06 9.93981e-07 -0.000147899
0.00131138 -0.000110921 7.42784e-08
-0.000110921 0.000130837 -2.08694e-07
7.42784e-08 -2.08694e-07 1.57403e-05
0.00156916 -0.00012401 3.77467e-06
-0.00012401 0.000240345 3.63858e-07
3.77467e-06 3.63858e-07 0.000119162
0.000996988 -8.78524e-05 -2.25076e-06
-8.78524e-05 6.76735e-05 1.17977e-06
-2.25076e-06 1.17977e-06 -2.59907e-05
0.000890062 -9.27603e-05 -6.26837e-07
-9.27603e-05 -6.58281e-06 7.24282e-07
-6.26837e-07 7.24282e-07 -0.000113172
0.00132485 -0.000113478 3.02677e-06
-0.000113478 0.000197673 -1.68566e-06
3.02677e-06 -1.68566e-06 8.1638e-05
0.000752974 -2.68703e-05 -2.4663e-06
-2.68703e-05 -2.00543e-05 1.78806e-06
-2.4663e-06 1.78806e-06 -8.98224e-05
0.00103509 -8.44631e-05 6.3977e-08
-8.44631e-05 0.000103802 -1.96216e-07
6.3977e-08 -1.96216e-07 1.55964e-05
0.00113954 -9.96556e-05 1.52889e-06
-9.96556e-05 0.000151193 -1.49583e-06
1.52889e-06 -1.49583e-06 5.08331e-05
0.000596777 5.80566e-05 -1.43012e-06
5.80566e-05 -7.82941e-05 4.93716e-06
-1.43012e-06 4.93716e-06 -0.000109158
0.000841812 -1.75282e-05 -3.93456e-08
-1.75282e-05 2.83656e-05 2.3345e-07
-3.93456e-08 2.3345e-07 -3.84403e-05
0.00106265 -7.02313e-05 1.81323e-06
-7.02313e-05 0.000125596 -4.61507e-07
1.81323e-06 -4.61507e-07 4.1976e-05
0.00258605 7.05751e-05 -3.34681e-05
7.05751e-05 0.000972609 3.08272e-06
-3.34681e-05 3.08272e-06 0.000980412
0.000671076 5.37748e-05 3.82224e-08
5.37748e-05 -4.31265e-05 -1.30232e-07
3.82224e-08 -1.30232e-07 -6.76141e-05
0.000788252 -1.63139e-05 2.38028e-06
-1.63139e-05 6.2573e-08 -2.4076e-06
2.38028e-06 -2.4076e-06 -5.99539e-05
0.00243906 6.27162e-05 4.62577e-07
6.27162e-05 0.000890045 8.60457e-08
4.62577e-07 8.60457e-08 0.000900309
0.000740014 4.83088e-05 1.79093e-06
4.83088e-05 -1.44861e-05 -4.20721e-06
1.79093e-06 -4.20721e-06 -3.30552e-05
0.00232941 5.5872e-05 2.96818e-05
5.5872e-05 0.000826243 -3.28036e-06
2.96818e-05 -3.28036e-06 0.000838755
0.00101642 8.56214e-05 8.00251e-08
8.56214e-05 0.000119919 4.57468e-07
8.00251e-08 4.57468e-07 3.05011e-05
0.000925483 5.91209e-05 3.51085e-07
5.91209e-05 7.5033e-05 1.35438e-07
3.51085e-07 1.35438e-07 -6.73045e-06
0.000825231 -1.34478e-05 -8.80707e-07
-1.34478e-05 1.83076e-05 -6.18015e-07
-8.80707e-07 -6.18015e-07 -5.66945e-05
0.000904076 -2.07527e-06 1.98526e-07
-2.07527e-06 5.59037e-05 9.3924e-07
1.98526e-07 9.3924e-07 -1.79608e-05
0.000865785 -3.04078e-05 -1.32359e-08
-3.04078e-05 3.57412e-05 1.20092e-07
-1.32359e-08 1.20092e-07 -3.24547e-05
0.00077316 -3.38737e-05 -1.35145e-06
-3.38737e-05 -8.13784e-06 -2.28038e-06
-1.35145e-06 -2.28038e-06 -5.6353e-05
0.000861126 -3.63405e-05 2.00869e-07
-3.63405e-05 2.56137e-05 1.5138e-06
2.00869e-07 1.5138e-06 -3.63889e-05
0.000794371 -3.77027e-05 -2.45399e-08
-3.77027e-05 -2.68159e-06 -1.0318e-07
-2.45399e-08 -1.0318e-07 -4.48929e-05
0.000751601 -3.97464e-05 -2.63212e-06
-3.97464e-05 -1.83137e-05 -3.71555e-06
-2.63212e-06 -3.71555e-06 -3.18455e-05
0.00227934 -4.96405e-05 -2.65247e-05
-4.96405e-05 0.000792158 -3.44899e-06
-2.65247e-05 -3.44899e-06 0.000806533
0.000743561 -3.31935e-05 -6.40523e-08
-3.31935e-05 -3.0083e-05 1.96866e-08
-6.40523e-08 1.96866e-08 -4.0932e-05
0.000803427 -3.14436e-05 1.47576e-06
-3.14436e-05 -3.54317e-06 2.01523e-06
1.47576e-06 2.01523e-06 -4.19288e-05
0.00227637 -4.41863e-05 -1.09615e-06
-4.41863e-05 0.000782573 8.63197e-08
-1.09615e-06 8.63197e-08 0.000798588
0.000731288 -2.92199e-05 1.6803e-06
-2.92199e-05 -4.21364e-05 3.54139e-06
1.6803e-06 3.54139e-06 -5.12294e-05
0.00224017 -3.84219e-05 1.95537e-05
-3.84219e-05 0.000756394 3.7739e-06
1.95537e-05 3.7739e-06 0.000774085
0.00706771 1.6415e-05 4.59327e-05
1.6415e-05 0.00209618 6.53504e-06
4.59327e-05 6.53504e-06 0.00137572
-0.00199829 -7.76775e-05 1.2675e-06
-7.76775e-05 -0.00103194 1.3153e-06
1.2675e-06 1.3153e-06 -0.00091869
-0.000809847 -6.90561e-05 -2.55235e-05
-6.90561e-05 -0.000463482 -1.69264e-06
-2.55235e-05 -1.69264e-06 -0.000643325
0.000911437 4.82732e-06 4.05886e-07
4.82732e-06 6.90999e-05 6.1799e-07
4.05886e-07 6.1799e-07 -1.5413e-05
0.000872004 7.52866e-05 -8.95761e-08
7.52866e-05 6.21653e-05 -3.49493e-07
-8.95761e-08 -3.49493e-07 -2.51175e-05
0.00105751 7.27667e-05 3.91585e-07
7.27667e-05 0.00015945 -1.63068e-08
3.91585e-07 -1.63068e-08 6.72463e-05
0.0010247 9.35803e-05 -7.29001e-07
9.35803e-05 0.000133395 -1.92928e-07
-7.29001e-07 -1.92928e-07 4.06612e-05
0.00113804 0.000101334 5.26529e-06
0.000101334 0.000183655 1.80716e-06
5.26529e-06 1.80716e-06 8.49861e-05
0.000685255 7.80373e-05 -9.12286e-07
7.80373e-05 -3.27453e-05 1.47118e-06
-9.12286e-07 1.47118e-06 -0.00012559
0.00065236 5.06891e-05 -9.46253e-08
5.06891e-05 -5.33953e-05 -8.08701e-08
-9.46253e-08 -8.08701e-08 -0.000141453
0.000649166 7.65113e-05 5.06386e-07
7.65113e-05 -5.38507e-05 -4.16886e-08
5.06386e-07 -4.16886e-08 -0.00015076
0.00080608 7.07703e-05 3.17846e-07
7.07703e-05 1.14802e-05 5.48466e-08
3.17846e-07 5.48466e-08 -8.06458e-05
0.000335783 7.82221e-05 1.27712e-06
7.82221e-05 -0.000262188 6.93908e-07
1.27712e-06 6.93908e-07 -0.000357243
0.00285358 0.000196687 1.15059e-06
0.000196687 0.000933804 -3.77207e-07
1.15059e-06 -3.77207e-07 0.000827851
0.00178388 0.000178116 2.90009e-06
0.000178116 0.000229518 -9.76321e-07
2.90009e-06 -9.76321e-07 0.000106664
0.00133001 0.000143013 1.23607e-06
0.000143013 0.000178574 -6.78421e-07
1.23607e-06 -6.78421e-07 7.1914e-05
0.00103533 5.32367e-05 -3.05509e-06
5.32367e-05 0.000149665 1.11143e-06
-3.05509e-06 1.11143e-06 6.69907e-05
0.00219101 -7.31067e-05 -2.08593e-05
-7.31067e-05 -0.000182366 -1.29532e-05
-2.08593e-05 -1.29532e-05 -0.000396181
0.00442041 -0.00014995 4.04013e-06
-0.00014995 0.000877336 2.80577e-07
4.04013e-06 2.80577e-07 3.21086e-06
0.00414022 -0.000416402 -3.67402e-05
-0.000416402 0.00189784 -2.55746e-05
-3.67402e-05 -2.55746e-05 0.00194456
0.00653755 -0.000140295 0.000166385
-0.000140295 0.00186744 5.30718e-05
0.000166385 5.30718e-05 0.000704214
0.00331347 0.000260139 4.67565e-05
0.000260139 0.000753086 4.91095e-05
4.67565e-05 4.91095e-05 0.00054265
0.00186935 0.000110238 -4.00331e-05
0.000110238 1.33552e-05 -1.31925e-05
-4.00331e-05 -1.31925e-05 -0.000219972
0.00167607 0.000175362 2.71089e-05
0.000175362 8.03935e-06 1.59127e-05
2.71089e-05 1.59127e-05 -1.27775e-05
0.00193295 0.000252423 -1.74854e-06
0.000252423 0.000270266 5.17106e-06
-1.74854e-06 5.17106e-06 0.000144464
0.00023114 0.000113351 -2.62546e-06
0.000113351 -0.000293687 3.05652e-06
-2.62546e-06 3.05652e-06 -0.000431508
0.00187005 0.000261574 -6.65732e-05
0.000261574 0.000235079 -4.86845e-05
-6.65732e-05 -4.86845e-05 0.000175702
0.00317736 -6.54385e-05 -0.00013629
-6.54385e-05 0.000843501 -2.2156e-06
-0.00013629 -2.2156e-06 0.000469975
0.0067694 4.28901e-05 1.09554e-05
4.28901e-05 0.00227233 -3.37004e-06
1.09554e-05 -3.37004e-06 0.00165834
-0.00459571 -4.89451e-05 -1.31188e-07
-4.89451e-05 -0.00254878 5.05896e-06
-1.31188e-07 5.05896e-06 -0.00235667
0.00100164 -0.000145898 -1.31532e-07
-0.000145898 -8.00357e-05 1.13849e-05
-1.31532e-07 1.13849e-05 -9.91244e-05
0.00427264 5.06131e-05 6.18551e-05
5.06131e-05 0.000722446 1.48844e-06
6.18551e-05 1.48844e-06 0.000368285
0.000912425 -9.45475e-05 4.714e-05
-9.45475e-05 -0.000483657 9.35504e-06
4.714e-05 9.35504e-06 -0.00112025
0.00155178 -0.000109418 3.819e-06
-0.000109418 0.000153002 9.04272e-07
3.819e-06 9.04272e-07 0.000102585
0.0014838 9.33705e-05 -1.77208e-06
9.33705e-05 1.31145e-05 -3.27353e-06
-1.77208e-06 -3.27353e-06 -0.000231913
0.00332263 -4.62036e-05 2.32871e-06
-4.62036e-05 0.000865591 -9.96163e-06
2.32871e-06 -9.96163e-06 0.000809859
0.00131004 6.15076e-05 1.73937e-05
6.15076e-05 -9.98474e-05 -2.77581e-06
1.73937e-05 -2.77581e-06 -0.000201293
0.00155658 -0.000178467 4.75506e-06
-0.000178467 -9.21874e-05 -4.86962e-07
4.75506e-06 -4.86962e-07 -0.000145602
0.0020445 -0.000124172 -2.1986e-07
-0.000124172 5.75879e-05 -1.86717e-06
-2.1986e-07 -1.86717e-06 1.30055e-05
0.00238899 -3.28971e-05 1.1662e-06
-3.28971e-05 0.000304222 -2.1717e-06
1.1662e-06 -2.1717e-06 0.000244692
0.00171138 -0.000139773 9.52136e-06
-0.000139773 3.32417e-05 7.69615e-07
9.52136e-06 7.69615e-07 -3.76162e-05
0.00187243 -9.87721e-05 2.72021e-06
-9.87721e-05 7.17487e-05 -3.26325e-07
2.72021e-06 -3.26325e-07 9.41481e-06
0.00192766 -5.77462e-05 2.73877e-07
-5.77462e-05 0.000134361 8.38107e-07
2.73877e-07 8.38107e-07 5.14774e-05
0.00174392 -0.000120634 4.76825e-06
-0.000120634 8.59858e-05 2.9188e-06
4.76825e-06 2.9188e-06 6.7585e-06
0.0018043 -0.00010037 8.23883e-07
-0.00010037 0.000107705 6.57973e-07
8.23883e-07 6.57973e-07 3.36344e-05
0.00188184 -8.03931e-05 -5.09697e-07
-8.03931e-05 0.000169667 1.51014e-06
-5.09697e-07 1.51014e-06 8.30318e-05
0.00148788 -0.00010647 3.06312e-06
-0.00010647 3.96968e-05 2.64785e-06
3.06312e-06 2.64785e-06 -4.08628e-05
0.00155412 -9.68592e-05 3.43042e-07
-9.68592e-05 7.22704e-05 -7.78353e-07
3.43042e-07 -7.78353e-07 -4.25211e-06
0.00149086 -9.03553e-05 2.3252e-06
-9.03553e-05 6.58228e-05 7.5986e-08
2.3252e-06 7.5986e-08 -2.53845e-05
0.00131468 -9.56545e-05 -4.50449e-07
-9.56545e-05 2.23268e-06 3.77904e-06
-4.50449e-07 3.77904e-06 -7.70243e-05
0.0015755 -9.94904e-05 -1.18795e-06
-9.94904e-05 0.000152924 -1.01438e-06
-1.18795e-06 -1.01438e-06 6.22235e-05
0.00171466 -0.000102607 -2.21034e-08
-0.000102607 0.000247397 -1.27338e-06
-2.21034e-08 -1.27338e-06 0.000147637
0.00142207 -0.000106735 1.64655e-06
-0.000106735 0.000115356 2.05753e-06
1.64655e-06 2.05753e-06 1.14302e-05
0.00140105 -0.00010425 2.95993e-07
-0.00010425 0.000128374 -3.85881e-07
2.95993e-07 -3.85881e-07 2.27441e-05
0.00145576 -0.000103895 -1.93481e-06
-0.000103895 0.000183835 -3.94568e-07
-1.93481e-06 -3.94568e-07 8.03955e-05
0.000756149 -7.96597e-05 -3.69073e-06
-7.96597e-05 -9.47761e-05 1.47421e-06
-3.69073e-06 1.47421e-06 -0.000192066
0.00102045 -9.58959e-05 -4.9342e-07
-9.58959e-05 1.19823e-05 4.66414e-07
-4.9342e-07 4.66414e-07 -9.55055e-05
0.00129865 -0.000109521 2.70803e-06
-0.000109521 0.000124788 -3.91209e-07
2.70803e-06 -3.91209e-07 9.35002e-06
0.000824621 -5.19824e-05 -3.18587e-06
-5.19824e-05 8.77237e-06 1.75675e-06
-3.18587e-06 1.75675e-06 -6.50968e-05
0.00104824 -8.95562e-05 1.16507e-07
-8.95562e-05 9.2733e-05 2.76303e-08
1.16507e-07 2.76303e-08 -9.55434e-07
0.00100299 -9.67597e-05 1.18607e-06
-9.67597e-05 5.3271e-05 -5.98897e-07
1.18607e-06 -5.98897e-07 -5.24525e-05
0.000634902 4.98986e-05 -3.09476e-06
4.98986e-05 -5.34957e-05 4.69224e-06
-3.09476e-06 4.69224e-06 -9.02575e-05
0.000858956 -3.03259e-05 1.22087e-07
-3.03259e-05 3.53028e-05 4.79487e-08
1.22087e-07 4.79487e-08 -3.52446e-05
0.00110959 -8.79841e-05 2.17449e-06
-8.79841e-05 0.000140878 -1.16974e-06
2.17449e-06 -1.16974e-06 5.23071e-05
0.00280868 7.93575e-05 -3.79142e-05
7.93575e-05 0.00109353 3.09038e-06
-3.79142e-05 3.09038e-06 0.0010983
0.000660916 4.94193e-05 7.54395e-07
4.94193e-05 -4.6151e-05 -6.41393e-09
7.54395e-07 -6.41393e-09 -7.61513e-05
0.000853347 -2.0244e-05 2.89112e-06
-2.0244e-05 3.27908e-05 -2.06289e-06
2.89112e-06 -2.06289e-06 -3.37308e-05
0.00262982 7.0492e-05 5.22017e-07
7.0492e-05 0.000995381 1.07052e-07
5.22017e-07 1.07052e-07 0.00100286
0.000706839 5.48959e-05 1.26182e-06
5.48959e-05 -2.34933e-05 -4.63238e-06
1.26182e-06 -4.63238e-06 -4.85232e-05
0.00248299 6.27155e-05 3.36264e-05
6.27155e-05 0.000913295 -3.25625e-06
3.36264e-05 -3.25625e-06 0.00092329
0.00108507 9.44179e-05 -4.36855e-07
9.44179e-05 0.000149013 -6.3101e-07
-4.36855e-07 -6.3101e-07 5.38569e-05
0.00106458 8.80676e-05 2.28893e-07
8.80676e-05 0.000144992 1.34636e-07
2.28893e-07 1.34636e-07 5.58338e-05
0.000949645 4.06937e-05 -1.26315e-06
4.06937e-05 8.15532e-05 -2.61315e-07
-1.26315e-06 -2.61315e-07 7.1088e-07
0.000894575 7.54362e-05 3.22809e-07
7.54362e-05 6.2135e-05 -9.46981e-08
3.22809e-07 -9.46981e-08 -2.1532e-05
0.00082926 -1.54943e-06 -4.03378e-07
-1.54943e-06 2.12472e-05 -6.99953e-08
-4.03378e-07 -6.99953e-08 -5.48872e-05
0.000771216 -8.04104e-06 -2.28311e-06
-8.04104e-06 -5.42513e-06 -1.76763e-06
-2.28311e-06 -1.76763e-06 -6.23086e-05
0.000839784 -3.67875e-05 2.73542e-07
-3.67875e-05 2.26696e-05 1.24847e-06
2.73542e-07 1.24847e-06 -4.67063e-05
0.000787188 -3.55838e-05 9.59725e-08
-3.55838e-05 -7.0694e-07 -2.14341e-07
9.59725e-08 -2.14341e-07 -4.899e-05
0.000736657 -4.77929e-05 -2.15192e-06
-4.77929e-05 -1.65258e-05 -3.95121e-06
-2.15192e-06 -3.95121e-06 -3.44282e-05
0.000808103 -3.80915e-05 1.17527e-06
-3.80915e-05 3.78796e-06 2.24225e-06
1.17527e-06 2.24225e-06 -3.82433e-05
0.000732212 -3.80446e-05 5.13941e-08
-3.80446e-05 -2.8725e-05 -2.48331e-08
5.13941e-08 -2.48331e-08 -4.19551e-05
0.00232678 -5.54934e-05 -2.91547e-05
-5.54934e-05 0.000824878 -3.26323e-06
-2.91547e-05 -3.26323e-06 0.000837333
0.00229186 -4.9739e-05 -6.34065e-07
-4.9739e-05 0.000797738 8.40312e-08
-6.34065e-07 8.40312e-08 0.000812206
0.000727424 -3.24166e-05 2.39393e-06
-3.24166e-05 -3.82995e-05 3.58663e-06
2.39393e-06 3.58663e-06 -4.90663e-05
0.00228096 -4.42921e-05 2.26226e-05
-4.42921e-05 0.000784305 3.67213e-06
2.26226e-05 3.67213e-06 0.000800393
0.000961638 -6.80394e-05 -5.70917e-05
-6.80394e-05 -0.000436861 -2.08551e-06
-5.70917e-05 -2.08551e-06 -0.000667777
0.00172789 -0.000128627 1.69025e-06
-0.000128627 -0.000411503 -1.28718e-06
1.69025e-06 -1.28718e-06 -0.00102784
0.00272261 -0.000290443 -4.27421e-05
-0.000290443 0.00109338 -9.28428e-06
-4.27421e-05 -9.28428e-06 0.00122376
0.00119639 0.000107747 5.68806e-06
0.000107747 0.000172355 1.69467e-06
5.68806e-06 1.69467e-06 6.91411e-05
0.00112506 7.51889e-05 4.0796e-07
7.51889e-05 0.000195047 -6.97788e-07
4.0796e-07 -6.97788e-07 0.000102967
0.000948848 9.01379e-05 -5.33302e-07
9.01379e-05 9.50668e-05 -6.0074e-07
-5.33302e-07 -6.0074e-07 2.56635e-06
0.000916455 8.89847e-05 1.94727e-07
8.89847e-05 8.73541e-05 2.5621e-07
1.94727e-07 2.5621e-07 -6.75081e-06
0.00103223 9.69795e-05 -1.45045e-07
9.69795e-05 0.000132505 -6.17819e-07
-1.45045e-07 -6.17819e-07 3.32386e-05
0.000660591 8.55693e-05 -2.62865e-07
8.55693e-05 -7.88612e-05 1.76552e-06
-2.62865e-07 1.76552e-06 -0.000165276
0.0010577 9.65905e-05 4.52057e-07
9.65905e-05 0.000154771 -1.65822e-06
4.52057e-07 -1.65822e-06 5.38715e-05
0.000997406 6.94164e-05 -1.12528e-06
6.94164e-05 0.000114465 1.27919e-06
-1.12528e-06 1.27919e-06 2.00035e-05
0.0009699 0.000106112 1.07799e-07
0.000106112 5.93827e-05 -1.51762e-07
1.07799e-07 -1.51762e-07 -3.58888e-05
0.00211797 0.000167298 6.62335e-07
0.000167298 0.000572713 2.01805e-06
6.62335e-07 2.01805e-06 0.000468826
0.00159495 0.000155958 1.42734e-06
0.000155958 0.000179744 -1.29783e-06
1.42734e-06 -1.29783e-06 6.66969e-05
0.00186989 0.000143056 6.64281e-06
0.000143056 9.37565e-05 5.97712e-06
6.64281e-06 5.97712e-06 -2.74438e-05
0.00134268 0.000160737 8.1e-07
0.000160737 8.47173e-06 3.30885e-07
8.1e-07 3.30885e-07 -0.000113836
0.000825829 0.000119763 -1.3006e-06
0.000119763 -7.21891e-05 3.31017e-06
-1.3006e-06 3.31017e-06 -0.000174346
0.000516949 3.11055e-05 -8.32923e-06
3.11055e-05 -0.000393666 1.96998e-06
-8.32923e-06 1.96998e-06 -0.000401822
0.00364343 -6.48142e-05 -9.87204e-06
-6.48142e-05 0.000344809 1.19476e-06
-9.87204e-06 1.19476e-06 6.7466e-05
0.0015083 -0.000181236 6.15799e-06
-0.000181236 -0.000477813 3.7594e-06
6.15799e-06 3.7594e-06 -0.00125686
0.00279575 0.000191624 4.19034e-05
0.000191624 0.000218426 2.3489e-05
4.19034e-05 2.3489e-05 -0.000150538
0.00125705 0.000150189 -6.27907e-06
0.000150189 -0.00013332 5.7452e-07
-6.27907e-06 5.7452e-07 -0.000165714
0.000388323 0.000180371 -1.69434e-05
0.000180371 -0.000427958 -1.17807e-05
-1.69434e-05 -1.17807e-05 -0.000562219
0.00273134 -7.28122e-05 1.1634e-05
-7.28122e-05 0.000608342 -5.38698e-06
1.1634e-05 -5.38698e-06 0.000516541
0.00117518 -1.12771e-05 -2.22531e-05
-1.12771e-05 1.3675e-05 2.944e-06
-2.22531e-05 2.944e-06 -0.000316113
0.000699892 0.000192076 4.81267e-05
0.000192076 -0.000847938 -7.51501e-06
4.81267e-05 -7.51501e-06 -0.0014232
2.42161e-05 -6.73001e-05 -6.53488e-06
-6.73001e-05 -0.000625131 1.31995e-05
-6.53488e-06 1.31995e-05 -0.000632441
0.00360921 0.000161393 3.95616e-05
0.000161393 0.000910619 -5.08462e-06
3.95616e-05 -5.08462e-06 0.000622662
0.00173586 -2.57979e-05 5.22305e-06
-2.57979e-05 4.32075e-05 -1.89419e-06
5.22305e-06 -1.89419e-06 1.84054e-06
0.00208911 7.73679e-05 1.66164e-06
7.73679e-05 0.000305906 -3.21488e-06
1.66164e-06 -3.21488e-06 0.000213818
0.00106118 3.5438e-05 1.9623e-06
3.5438e-05 -0.000361776 -3.42323e-06
1.9623e-06 -3.42323e-06 -0.000443072
0.00241361 5.01534e-05 -2.25861e-06
5.01534e-05 0.000376656 -3.55843e-06
-2.25861e-06 -3.55843e-06 0.000285825
0.00168321 -0.000114627 3.41894e-06
-0.000114627 -0.000113018 -1.65935e-06
3.41894e-06 -1.65935e-06 -0.00015781
0.00196685 -3.21091e-05 3.86223e-06
-3.21091e-05 8.47472e-05 2.81609e-07
3.86223e-06 2.81609e-07 2.11248e-05
0.0021171 -6.31054e-06 1.90693e-07
-6.31054e-06 0.000260522 -2.67236e-06
1.90693e-07 -2.67236e-06 0.000173961
0.00205974 -0.000101429 2.42918e-06
-0.000101429 0.000176675 7.89716e-07
2.42918e-06 7.89716e-07 0.000111434
0.00190302 -6.04126e-05 -1.50223e-07
-6.04126e-05 0.000120321 -6.40244e-07
-1.50223e-07 -6.40244e-07 3.65103e-05
0.00180386 -4.27649e-05 -6.82791e-07
-4.27649e-05 0.000114889 -3.81685e-07
-6.82791e-07 -3.81685e-07 1.4493e-05
0.00180413 -0.000100792 6.7198e-07
-0.000100792 0.00011759 5.56764e-08
6.7198e-07 5.56764e-08 4.12483e-05
0.00179808 -8.18801e-05 -6.29545e-08
-8.18801e-05 0.000138109 -1.1775e-06
-6.29545e-08 -1.1775e-06 5.31347e-05
0.00150484 -7.02673e-05 4.92957e-07
-7.02673e-05 2.51791e-05 1.83339e-06
4.92957e-07 1.83339e-06 -7.19025e-05
0.00138088 -9.57228e-05 -3.44469e-07
-9.57228e-05 -6.08556e-06 -1.52412e-06
-3.44469e-07 -1.52412e-06 -8.2411e-05
0.00149701 -9.01369e-05 4.76768e-07
-9.01369e-05 6.88569e-05 -8.28281e-07
4.76768e-07 -8.28281e-07 -2.23941e-05
0.00147506 -9.03023e-05 2.83933e-07
-9.03023e-05 8.19804e-05 4.50327e-08
2.83933e-07 4.50327e-08 -1.84518e-05
0.00139469 -9.43176e-05 -2.40151e-06
-9.43176e-05 5.97281e-05 1.7736e-06
-2.40151e-06 1.7736e-06 -2.9369e-05
0.00153754 -9.68494e-05 -2.57152e-07
-9.68494e-05 0.000155367 -6.71293e-07
-2.57152e-07 -6.71293e-07 5.64222e-05
0.00143301 -9.29821e-05 -1.74008e-06
-9.29821e-05 0.000130274 -2.86577e-07
-1.74008e-06 -2.86577e-07 2.86187e-05
0.00140004 -0.000103291 1.98635e-06
-0.000103291 0.000127975 6.7497e-07
1.98635e-06 6.7497e-07 2.20126e-05
0.00126521 -9.73371e-05 3.97495e-07
-9.73371e-05 8.63058e-05 -2.29471e-07
3.97495e-07 -2.29471e-07 -1.75546e-05
0.00127179 -9.22176e-05 -3.50854e-06
-9.22176e-05 0.000126534 7.01775e-07
-3.50854e-06 7.01775e-07 2.97502e-05
0.000899859 -6.42552e-05 -3.945e-06
-6.42552e-05 2.31325e-05 1.80781e-06
-3.945e-06 1.80781e-06 -5.46672e-05
0.00087965 -8.38711e-05 -7.98558e-07
-8.38711e-05 -2.90644e-05 5.63981e-07
-7.98558e-07 5.63981e-07 -0.000125511
0.00109852 -9.77341e-05 1.90354e-06
-9.77341e-05 5.52945e-05 -1.74299e-07
1.90354e-06 -1.74299e-07 -5.13481e-05
0.000643195 -6.58991e-06 -5.77285e-06
-6.58991e-06 -4.75687e-05 4.73239e-06
-5.77285e-06 4.73239e-06 -8.84059e-05
0.000879774 -5.40002e-05 1.53627e-07
-5.40002e-05 3.73528e-05 -5.86464e-09
1.53627e-07 -5.86464e-09 -3.70587e-05
0.00109889 -9.139e-05 2.59419e-06
-9.139e-05 0.000117267 -1.17942e-06
2.59419e-06 -1.17942e-06 2.3565e-05
0.00293462 8.69493e-05 -4.19589e-05
8.69493e-05 0.00116843 3.05928e-06
-4.19589e-05 3.05928e-06 0.00116962
0.000676414 1.93141e-05 -1.96358e-07
1.93141e-05 -3.74864e-05 -1.38532e-07
-1.96358e-07 -1.38532e-07 -7.21984e-05
0.000917788 -3.64437e-05 3.41418e-06
-3.64437e-05 6.52275e-05 -2.07408e-06
3.41418e-06 -2.07408e-06 -5.42516e-06
0.0027912 7.77726e-05 8.37763e-07
7.77726e-05 0.0010854 1.39109e-07
8.37763e-07 1.39109e-07 0.00108991
0.000701896 3.70475e-05 4.41182e-06
3.70475e-05 -2.53475e-05 -4.46953e-06
4.41182e-06 -4.46953e-06 -5.49612e-05
0.00265782 6.97502e-05 3.78587e-05
6.97502e-05 0.00100997 -3.36628e-06
3.78587e-05 -3.36628e-06 0.00101722
0.000883841 9.15657e-05 -3.71938e-07
9.15657e-05 2.0425e-05 -6.14185e-07
-3.71938e-07 -6.14185e-07 -8.01395e-05
0.00101067 9.06882e-05 -4.07757e-08
9.06882e-05 0.000110426 -4.80253e-07
-4.07757e-08 -4.80253e-07 1.58061e-05
0.00108035 8.01275e-05 -9.79199e-07
8.01275e-05 0.000141053 -1.56406e-07
-9.79199e-07 -1.56406e-07 5.56075e-05
0.00110616 9.03307e-05 -2.8077e-08
9.03307e-05 0.000166546 -5.96915e-07
-2.8077e-08 -5.96915e-07 7.76695e-05
0.000936658 4.32014e-05 -6.70527e-07
4.32014e-05 7.49903e-05 -2.85145e-07
-6.70527e-07 -2.85145e-07 -5.26032e-06
0.000809579 8.09434e-06 -2.29282e-06
8.09434e-06 1.60995e-05 -1.43563e-06
-2.29282e-06 -1.43563e-06 -4.81739e-05
0.000830808 1.16874e-05 2.65139e-07
1.16874e-05 2.21123e-05 8.63933e-08
2.65139e-07 8.63933e-08 -5.45778e-05
0.000792662 -2.81478e-05 -1.47456e-07
-2.81478e-05 6.23975e-06 -3.11219e-09
-1.47456e-07 -3.11219e-09 -5.02135e-05
0.000707011 -5.56937e-05 -1.60125e-06
-5.56937e-05 -2.21402e-05 -4.11818e-06
-1.60125e-06 -4.11818e-06 -4.59765e-05
0.000799584 -3.79565e-05 1.2919e-06
-3.79565e-05 6.07927e-06 2.34416e-06
1.2919e-06 2.34416e-06 -4.23181e-05
0.000712813 -4.51371e-05 4.22791e-08
-4.51371e-05 -2.99671e-05 -6.69474e-08
4.22791e-08 -6.69474e-08 -4.72173e-05
0.00242896 -6.19505e-05 -3.23941e-05
-6.19505e-05 0.000885799 -3.09929e-06
-3.23941e-05 -3.09929e-06 0.00089595
0.000720013 -3.67226e-05 2.89211e-06
-3.67226e-05 -3.53837e-05 3.60635e-06
2.89211e-06 3.60635e-06 -4.83524e-05
0.00231935 -5.55124e-05 -3.92755e-07
-5.55124e-05 0.000819883 7.56103e-08
-3.92755e-07 7.56103e-08 0.000832544
0.00230109 -4.97256e-05 2.56511e-05
-4.97256e-05 0.000801741 3.52302e-06
2.56511e-05 3.52302e-06 0.000816301
0.000553245 -3.83775e-05 -1.29396e-06
-3.83775e-05 -0.00040603 2.68601e-09
-1.29396e-06 2.68601e-09 -0.000438922
0.00308766 -5.47055e-05 1.55316e-06
-5.47055e-05 0.000348166 1.04725e-05
1.55316e-06 1.04725e-05 3.87397e-05
0.00565457 0.000102465 -7.38349e-05
0.000102465 0.0016802 -9.40976e-06
-7.38349e-05 -9.40976e-06 0.000978058
0.00084069 8.98751e-05 3.02496e-06
8.98751e-05 -3.17365e-05 1.3293e-06
3.02496e-06 1.3293e-06 -0.000124849
0.00139981 0.000120216 3.89923e-06
0.000120216 0.000183138 -1.28298e-06
3.89923e-06 -1.28298e-06 7.38233e-05
0.000823917 9.29665e-05 1.30696e-07
9.29665e-05 -1.01859e-05 -6.88568e-07
1.30696e-07 -6.88568e-07 -0.000111958
0.00112036 9.86463e-05 -7.9649e-07
9.86463e-05 0.000192358 -1.96591e-06
-7.9649e-07 -1.96591e-06 9.72533e-05
0.000958689 9.40587e-05 -8.2412e-07
9.40587e-05 9.75431e-05 -1.0748e-06
-8.2412e-07 -1.0748e-06 -2.4159e-06
0.00100629 0.000102087 2.08675e-06
0.000102087 8.87079e-05 1.22531e-06
2.08675e-06 1.22531e-06 1.68938e-07
0.00172561 0.000148743 -2.18033e-06
0.000148743 0.000254284 -3.12165e-06
-2.18033e-06 -3.12165e-06 0.000147726
0.00148034 0.000128411 1.02677e-06
0.000128411 0.000319986 -4.21011e-07
1.02677e-06 -4.21011e-07 0.000224679
0.000947461 0.000120004 -1.41644e-06
0.000120004 -3.73908e-06 5.04029e-06
-1.41644e-06 5.04029e-06 -0.000104888
0.00157247 0.000154833 -1.17814e-06
0.000154833 0.000170882 -5.4279e-09
-1.17814e-06 -5.4279e-09 5.84353e-05
0.00149112 0.000126688 -9.66353e-07
0.000126688 -3.56247e-05 -6.39984e-07
-9.66353e-07 -6.39984e-07 -0.000160174
0.00160607 3.72084e-05 7.99538e-06
3.72084e-05 -8.91616e-05 4.16296e-06
7.99538e-06 4.16296e-06 -0.000179405
0.0020516 0.000145711 3.84234e-06
0.000145711 0.00019109 1.91499e-06
3.84234e-06 1.91499e-06 7.04476e-05
0.00125041 0.000154681 -3.93641e-06
0.000154681 -3.8514e-05 1.61358e-06
-3.93641e-06 1.61358e-06 -0.000159918
0.00114783 2.50762e-05 5.46334e-07
2.50762e-05 -8.35504e-05 -5.27012e-07
5.46334e-07 -5.27012e-07 -9.59457e-05
0.00462043 -0.000145506 4.77884e-05
-0.000145506 0.000707088 2.21701e-05
4.77884e-05 2.21701e-05 0.000396705
0.00175314 0.000145939 -2.59934e-07
0.000145939 0.000168611 -7.22772e-06
-2.59934e-07 -7.22772e-06 0.000127362
0.00197573 -9.52892e-06 4.69178e-06
-9.52892e-06 0.000220027 -1.99903e-06
4.69178e-06 -1.99903e-06 0.000149196
0.00181776 -4.82315e-05 -6.97677e-07
-4.82315e-05 0.000189545 5.58952e-07
-6.97677e-07 5.58952e-07 8.0224e-05
0.000693271 6.18287e-05 5.59369e-05
6.18287e-05 -0.000421522 1.26832e-06
5.59369e-05 1.26832e-06 -0.000819446
0.00027129 -1.61575e-05 -6.01916e-06
-1.61575e-05 -0.0007037 3.20999e-06
-6.01916e-06 3.20999e-06 -0.000736294
0.00255885 8.07639e-05 -2.67525e-05
8.07639e-05 0.000562172 4.02037e-06
-2.67525e-05 4.02037e-06 0.000482215
0.00118857 3.18969e-05 -2.28852e-07
3.18969e-05 -0.000305183 4.45242e-06
-2.28852e-07 4.45242e-06 -0.000379929
0.00214555 4.19138e-05 1.67246e-06
4.19138e-05 0.000216283 1.05749e-06
1.67246e-06 1.05749e-06 0.000127916
0.00192025 1.24546e-05 -1.1114e-06
1.24546e-05 0.000129888 -1.30097e-08
-1.1114e-06 -1.30097e-08 4.54274e-05
0.00144968 1.76193e-05 1.70774e-06
1.76193e-05 -0.000129816 -1.34494e-06
1.70774e-06 -1.34494e-06 -0.0002107
0.00149507 -3.15861e-05 6.32909e-06
-3.15861e-05 -0.000162077 1.91701e-06
6.32909e-06 1.91701e-06 -0.000229511
0.00175515 -6.85371e-06 -1.96476e-06
-6.85371e-06 7.24762e-05 8.98881e-08
-1.96476e-06 8.98881e-08 -1.31978e-05
0.00166528 -4.28074e-06 6.11286e-07
-4.28074e-06 5.09815e-05 -1.95036e-06
6.11286e-07 -1.95036e-06 -4.34473e-05
0.00200176 -6.36384e-05 -2.84171e-06
-6.36384e-05 0.00017094 -3.18978e-07
-2.84171e-06 -3.18978e-07 8.65024e-05
0.00181891 -4.32033e-05 -3.7134e-07
-4.32033e-05 0.000125867 -2.57598e-07
-3.7134e-07 -2.57598e-07 2.72851e-05
0.00153269 -3.31819e-05 -5.35686e-07
-3.31819e-05 9.92159e-06 -1.37457e-07
-5.35686e-07 -1.37457e-07 -9.21529e-05
0.00169989 -8.30157e-05 -2.07687e-06
-8.30157e-05 9.95653e-05 -3.26693e-06
-2.07687e-06 -3.26693e-06 1.61967e-05
0.0016075 -7.12693e-05 4.80752e-07
-7.12693e-05 7.45789e-05 5.022e-07
4.80752e-07 5.022e-07 -2.26495e-05
0.00154365 -7.30529e-05 -3.15235e-07
-7.30529e-05 6.6591e-05 6.48902e-07
-3.15235e-07 6.48902e-07 -3.55827e-05
0.00151001 -9.00579e-05 -1.06896e-06
-9.00579e-05 7.52955e-05 -1.7112e-06
-1.06896e-06 -1.7112e-06 -1.59922e-05
0.00148145 -8.95438e-05 1.83651e-07
-8.95438e-05 8.45943e-05 -3.90966e-07
1.83651e-07 -3.90966e-07 -1.57506e-05
0.0014206 -8.79313e-05 -1.45621e-06
-8.79313e-05 8.43898e-05 3.39995e-07
-1.45621e-06 3.39995e-07 -1.88777e-05
0.0013602 -9.11425e-05 -4.04817e-08
-9.11425e-05 6.32414e-05 4.91791e-07
-4.04817e-08 4.91791e-07 -3.48967e-05
0.00128301 -8.85349e-05 -1.77862e-07
-8.85349e-05 5.40581e-05 -2.6503e-07
-1.77862e-07 -2.6503e-07 -4.73155e-05
0.0012332 -8.40605e-05 -3.60881e-06
-8.40605e-05 7.04416e-05 6.46469e-07
-3.60881e-06 6.46469e-07 -2.604e-05
0.00106988 -9.06633e-05 2.57964e-06
-9.06633e-05 -1.35562e-05 -9.2019e-08
2.57964e-06 -9.2019e-08 -0.000117854
0.00106609 -8.47805e-05 2.0289e-07
-8.47805e-05 2.13049e-05 1.71479e-08
2.0289e-07 1.71479e-08 -7.54253e-05
0.000962759 -6.75249e-05 -4.93028e-06
-6.75249e-05 2.17972e-05 1.88153e-06
-4.93028e-06 1.88153e-06 -5.7347e-05
0.000579904 -2.83678e-05 -7.02798e-06
-2.83678e-05 -8.26413e-05 5.01336e-06
-7.02798e-06 5.01336e-06 -0.000128546
0.000927486 -6.66291e-05 1.69849e-07
-6.66291e-05 3.76223e-05 2.93724e-08
1.69849e-07 2.93724e-08 -4.04873e-05
0.00101106 -8.84633e-05 1.84493e-06
-8.84633e-05 4.06808e-05 -2.85333e-07
1.84493e-06 -2.85333e-07 -5.49539e-05
0.00305656 9.63303e-05 -4.37655e-05
9.63303e-05 0.0012486 2.97425e-06
-4.37655e-05 2.97425e-06 0.00124483
0.000702811 9.7237e-07 -3.2185e-07
9.7237e-07 -1.9554e-05 -6.14575e-08
-3.2185e-07 -6.14575e-08 -6.14233e-05
0.000955974 -5.33587e-05 3.71214e-06
-5.33587e-05 7.75105e-05 -1.85407e-06
3.71214e-06 -1.85407e-06 2.02555e-06
0.00293994 8.64044e-05 8.6084e-07
8.64044e-05 0.00117412 1.60897e-07
8.6084e-07 1.60897e-07 0.00117458
0.000740843 1.77729e-05 5.84465e-06
1.77729e-05 -5.80298e-06 -4.39825e-06
5.84465e-06 -4.39825e-06 -4.05989e-05
0.00281282 7.71924e-05 4.17168e-05
7.71924e-05 0.00109776 -3.3374e-06
4.17168e-05 -3.3374e-06 0.00110181
0.000639386 8.73858e-05 -1.03654e-07
8.73858e-05 -0.000154246 -5.40306e-07
-1.03654e-07 -5.40306e-07 -0.000262557
0.000730101 8.51541e-05 1.7756e-08
8.51541e-05 -6.10233e-05 -1.25393e-07
1.7756e-08 -1.25393e-07 -0.000162152
0.00112461 9.01013e-05 -1.4936e-06
9.01013e-05 0.00014138 -2.52945e-07
-1.4936e-06 -2.52945e-07 5.04856e-05
0.000938492 8.70394e-05 -1.76799e-07
8.70394e-05 7.28974e-05 -5.74783e-07
-1.76799e-07 -5.74783e-07 -2.11746e-05
0.000993504 7.55886e-05 -1.81696e-07
7.55886e-05 9.67287e-05 -1.67162e-07
-1.81696e-07 -1.67162e-07 1.17982e-05
0.000889146 2.54361e-05 -2.68099e-06
2.54361e-05 5.82932e-05 -1.20608e-06
-2.68099e-06 -1.20608e-06 -1.20471e-05
0.00092623 4.519e-05 3.4333e-07
4.519e-05 6.98828e-05 -5.01717e-07
3.4333e-07 -5.01717e-07 -9.84488e-06
0.000812881 1.00443e-06 4.49816e-08
1.00443e-06 2.09419e-05 9.23663e-08
4.49816e-08 9.23663e-08 -4.4149e-05
0.000688369 -5.23522e-05 -2.58066e-06
-5.23522e-05 -2.6764e-05 -4.09286e-06
-2.58066e-06 -4.09286e-06 -5.61086e-05
0.000811604 -3.86624e-05 1.41797e-06
-3.86624e-05 1.77385e-05 2.23859e-06
1.41797e-06 2.23859e-06 -3.9085e-05
0.000678161 -5.3726e-05 -2.00448e-08
-5.3726e-05 -3.85357e-05 -9.6092e-08
-2.00448e-08 -9.6092e-08 -6.16877e-05
0.00257423 -6.91976e-05 -3.60768e-05
-6.91976e-05 0.000968207 -3.02783e-06
-3.60768e-05 -3.02783e-06 0.000975707
0.000689954 -4.25349e-05 3.08355e-06
-4.25349e-05 -4.28944e-05 3.67882e-06
3.08355e-06 3.67882e-06 -5.95113e-05
0.00240358 -6.1924e-05 -3.99312e-07
-6.1924e-05 0.000871735 7.75801e-08
-3.99312e-07 7.75801e-08 0.000882156
0.00232234 -5.54536e-05 2.78091e-05
-5.54536e-05 0.000820421 3.31676e-06
2.78091e-05 3.31676e-06 0.00083327
0.00155045 -2.59866e-05 9.77203e-06
-2.59866e-05 -9.58624e-05 1.09253e-06
9.77203e-06 1.09253e-06 -0.000170759
0.00104029 -5.84562e-05 8.79809e-07
-5.84562e-05 -0.000215483 1.71236e-06
8.79809e-07 1.71236e-06 -0.00025869
0.00218068 -0.000104285 6.59045e-05
-0.000104285 -2.04489e-05 1.6441e-05
6.59045e-05 1.6441e-05 -0.000264358
0.00202829 0.000139494 2.03712e-06
0.000139494 0.000428082 -2.69985e-06
2.03712e-06 -2.69985e-06 0.000323376
0.000839011 9.25232e-05 -1.39447e-06
9.25232e-05 -1.92497e-05 5.42277e-07
-1.39447e-06 5.42277e-07 -0.000107164
0.000735571 9.8433e-05 -2.69023e-06
9.8433e-05 -0.000252579 1.20701e-06
-2.69023e-06 1.20701e-06 -0.000365471
0.00141411 0.000120994 4.25381e-07
0.000120994 0.000189412 1.57935e-07
4.25381e-07 1.57935e-07 7.92159e-05
0.000458059 7.82435e-05 -2.76807e-06
7.82435e-05 -0.000188487 5.66595e-07
-2.76807e-06 5.66595e-07 -0.000288918
0.00192581 0.000126259 -2.15423e-06
0.000126259 0.000209233 -4.12369e-06
-2.15423e-06 -4.12369e-06 9.04447e-05
0.00133581 0.000117736 -1.24471e-06
0.000117736 0.000248371 -8.16097e-07
-1.24471e-06 -8.16097e-07 0.000157822
0.00162719 0.000143236 -1.71713e-07
0.000143236 0.000200294 5.53755e-07
-1.71713e-07 5.53755e-07 9.34745e-05
0.00173742 5.97587e-05 3.9831e-06
5.97587e-05 4.8153e-05 2.08891e-06
3.9831e-06 2.08891e-06 -6.32496e-05
0.00159138 0.000155765 1.20024e-06
0.000155765 0.000181555 2.80577e-06
1.20024e-06 2.80577e-06 6.97378e-05
0.00175085 0.000135336 -1.10814e-06
0.000135336 8.45707e-05 -1.10063e-06
-1.10814e-06 -1.10063e-06 -4.19585e-05
0.00169143 4.48171e-05 -2.55609e-07
4.48171e-05 -3.39445e-05 -3.45237e-07
-2.55609e-07 -3.45237e-07 -0.0001264
0.00181077 0.000132907 -1.19099e-06
0.000132907 8.77613e-05 -1.07048e-06
-1.19099e-06 -1.07048e-06 -3.25904e-05
0.00120148 2.50777e-05 -4.35952e-06
2.50777e-05 -5.96056e-05 -6.80536e-06
-4.35952e-06 -6.80536e-06 -7.34694e-05
0.00160978 -3.18263e-06 4.30733e-06
-3.18263e-06 -1.04859e-05 -3.95359e-07
4.30733e-06 -3.95359e-07 -9.35025e-05
0.00179189 -4.03473e-06 -8.47044e-07
-4.03473e-06 0.000128626 -1.09576e-07
-8.47044e-07 -1.09576e-07 5.65098e-05
0.000615858 -1.35495e-05 -7.4886e-06
-1.35495e-05 -0.000376522 3.23052e-06
-7.4886e-06 3.23052e-06 -0.000502082
0.00130186 2.94426e-05 -6.22782e-07
2.94426e-05 -0.000261952 3.04805e-06
-6.22782e-07 3.04805e-06 -0.000330116
0.00200575 3.49694e-05 8.87107e-06
3.49694e-05 0.000123274 3.1679e-06
8.87107e-06 3.1679e-06 3.7137e-05
0.00178499 1.28717e-05 -3.17466e-06
1.28717e-05 5.83988e-05 -1.45161e-07
-3.17466e-06 -1.45161e-07 -2.53062e-05
0.00169983 1.60831e-05 5.68444e-07
1.60831e-05 5.04964e-06 7.73021e-07
5.68444e-07 7.73021e-07 -7.53934e-05
0.00183234 9.91761e-06 1.45494e-06
9.91761e-06 0.000108235 -3.90026e-07
1.45494e-06 -3.90026e-07 1.71293e-05
0.00143215 -7.13946e-06 -3.24553e-06
-7.13946e-06 -9.50048e-05 1.18631e-06
-3.24553e-06 1.18631e-06 -0.00018001
0.00173571 -3.34451e-06 -6.85001e-10
-3.34451e-06 8.97177e-05 4.98699e-08
-6.85001e-10 4.98699e-08 -5.36299e-06
0.00162037 1.34823e-06 -2.72946e-07
1.34823e-06 4.55144e-05 -9.66773e-07
-2.72946e-07 -9.66773e-07 -5.50092e-05
0.00186324 -4.41408e-05 -1.27274e-06
-4.41408e-05 0.000151546 -1.04133e-07
-1.27274e-06 -1.04133e-07 5.47811e-05
0.00163795 -3.42722e-05 -6.2183e-08
-3.42722e-05 6.23448e-05 8.18252e-07
-6.2183e-08 8.18252e-07 -3.97131e-05
0.00162302 -3.56076e-05 -1.17795e-06
-3.56076e-05 7.72646e-05 -6.98198e-07
-1.17795e-06 -6.98198e-07 -2.5392e-05
0.00171235 -7.21969e-05 7.32957e-07
-7.21969e-05 0.000125097 -7.46263e-07
7.32957e-07 -7.46263e-07 2.77286e-05
0.00158018 -7.26456e-05 2.62103e-07
-7.26456e-05 8.39276e-05 5.15969e-07
2.62103e-07 5.15969e-07 -1.82994e-05
0.00150536 -7.46422e-05 -1.72902e-06
-7.46422e-05 8.00968e-05 3.75165e-07
-1.72902e-06 3.75165e-07 -2.37806e-05
0.00149076 -8.89121e-05 2.39861e-07
-8.89121e-05 8.86813e-05 -8.3961e-07
2.39861e-07 -8.3961e-07 -1.15797e-05
0.00142294 -8.73371e-05 9.60541e-08
-8.73371e-05 8.50712e-05 -1.48591e-07
9.60541e-08 -1.48591e-07 -1.81054e-05
0.0013019 -8.05114e-05 -3.4751e-06
-8.05114e-05 6.56526e-05 9.15434e-07
-3.4751e-06 9.15434e-07 -3.32943e-05
0.00113891 -8.42308e-05 1.50464e-06
-8.42308e-05 -1.92458e-05 -1.11926e-07
1.50464e-06 -1.11926e-07 -0.000120324
0.00122566 -8.32158e-05 2.69897e-08
-8.32158e-05 6.65208e-05 -1.03057e-07
2.69897e-08 -1.03057e-07 -2.98094e-05
0.00102073 -6.56898e-05 -5.92665e-06
-6.56898e-05 1.80399e-05 2.14266e-06
-5.92665e-06 2.14266e-06 -6.22172e-05
0.000860042 -7.7268e-05 3.0827e-06
-7.7268e-05 -8.41002e-05 -5.01025e-07
3.0827e-06 -5.01025e-07 -0.000180766
0.000976057 -6.8398e-05 2.15598e-07
-6.8398e-05 2.87184e-05 -2.11576e-08
2.15598e-07 -2.11576e-08 -5.06048e-05
0.00168712 -6.79055e-06 -7.80261e-06
-6.79055e-06 0.000500444 3.34897e-06
-7.80261e-06 3.34897e-06 0.000456349
0.00106432 3.71168e-05 -4.72388e-05
3.71168e-05 0.000203413 6.7735e-06
-4.72388e-05 6.7735e-06 0.000184854
0.00123748 -1.45809e-05 -1.33602e-06
-1.45809e-05 0.000260821 -6.95761e-08
-1.33602e-06 -6.95761e-08 0.00021722
0.000970937 -6.92762e-05 4.25652e-06
-6.92762e-05 6.04003e-05 -1.60091e-06
4.25652e-06 -1.60091e-06 -1.80642e-05
0.00312259 9.45917e-05 1.9815e-06
9.45917e-05 0.0012863 2.33312e-07
1.9815e-06 2.33312e-07 0.0012819
0.000768542 -1.46281e-05 7.0695e-06
-1.46281e-05 8.16764e-06 -4.55662e-06
7.0695e-06 -4.55662e-06 -3.24164e-05
0.00294169 8.35221e-05 4.64701e-05
8.35221e-05 0.00117729 -3.20552e-06
4.64701e-05 -3.20552e-06 0.00117744
0.00124825 0.000103465 -2.54663e-07
0.000103465 -3.39677e-05 3.32241e-07
-2.54663e-07 3.32241e-07 -0.000136713
0.000799227 9.60615e-05 2.22282e-06
9.60615e-05 -0.000131335 1.29649e-06
2.22282e-06 1.29649e-06 -0.000242288
0.000816939 9.52796e-05 -1.92155e-07
9.52796e-05 -6.93106e-05 -1.03747e-07
-1.92155e-07 -1.03747e-07 -0.000179021
0.00114237 9.5645e-05 -1.74037e-06
9.5645e-05 0.000120653 -4.78492e-07
-1.74037e-06 -4.78492e-07 2.50989e-05
0.000571617 7.85566e-05 -9.65252e-08
7.85566e-05 -0.000144906 4.36945e-07
-9.65252e-08 4.36945e-07 -0.000246589
0.00102949 8.48472e-05 -2.90806e-07
8.48472e-05 9.39293e-05 -7.65335e-08
-2.90806e-07 -7.65335e-08 3.61381e-06
0.000947945 4.49881e-05 -3.12659e-06
4.49881e-05 8.016e-05 -9.26486e-07
-3.12659e-06 -9.26486e-07 6.8134e-06
0.000914721 7.13201e-05 9.58152e-07
7.13201e-05 5.66469e-05 2.05827e-08
9.58152e-07 2.05827e-08 -2.78018e-05
0.00083221 2.11509e-05 -4.62158e-08
2.11509e-05 2.97147e-05 1.90779e-07
-4.62158e-08 1.90779e-07 -4.04349e-05
0.00071755 -3.30417e-05 -4.77746e-06
-3.30417e-05 -1.05749e-05 -3.95111e-06
-4.77746e-06 -3.95111e-06 -4.57642e-05
0.000830875 -1.49396e-05 1.52402e-06
-1.49396e-05 3.23475e-05 1.61951e-06
1.52402e-06 1.61951e-06 -3.27832e-05
0.000646742 -6.0188e-05 -7.57742e-08
-6.0188e-05 -4.72455e-05 -1.22673e-07
-7.57742e-08 -1.22673e-07 -7.74044e-05
0.00272567 -7.70078e-05 -3.96954e-05
-7.70078e-05 0.00105441 -3.04403e-06
-3.96954e-05 -3.04403e-06 0.00105871
0.000649093 -5.09041e-05 2.77709e-06
-5.09041e-05 -5.51862e-05 3.90159e-06
2.77709e-06 3.90159e-06 -7.75257e-05
0.00254578 -6.93861e-05 -4.33858e-07
-6.93861e-05 0.000952995 9.20539e-08
-4.33858e-07 9.20539e-08 0.000960768
0.00238351 -6.1776e-05 2.99777e-05
-6.1776e-05 0.000860319 3.09757e-06
2.99777e-05 3.09757e-06 0.00087104
0.00160743 3.56449e-06 5.75115e-06
3.56449e-06 -1.34159e-05 1.82446e-06
5.75115e-06 1.82446e-06 -0.000108993
0.00206373 -2.74307e-05 -1.92828e-06
-2.74307e-05 0.000197131 -9.44456e-07
-1.92828e-06 -9.44456e-07 0.000125229
0.0021179 -9.44734e-05 -3.49873e-07
-9.44734e-05 0.000269716 1.41021e-07
-3.49873e-07 1.41021e-07 0.000212731
0.001622 0.000112566 -5.30357e-06
0.000112566 8.13872e-05 -2.69419e-06
-5.30357e-06 -2.69419e-06 -3.1345e-05
0.00167963 0.000127525 -3.70052e-07
0.000127525 0.000273137 5.55159e-07
-3.70052e-07 5.55159e-07 0.000172181
0.000769204 9.29641e-05 -7.6409e-06
9.29641e-05 -4.23942e-05 4.74413e-07
-7.6409e-06 4.74413e-07 -0.000124914
0.00143929 0.000120944 1.99229e-06
0.000120944 0.000101112 1.49183e-06
1.99229e-06 1.49183e-06 -9.93673e-06
0.00145043 0.000122566 -2.93503e-06
0.000122566 0.000206991 5.87945e-07
-2.93503e-06 5.87945e-07 9.58627e-05
0.00200596 6.11734e-05 -9.07708e-08
6.11734e-05 0.000192173 1.43527e-06
-9.07708e-08 1.43527e-06 7.69921e-05
0.00168777 0.000120712 -2.33993e-06
0.000120712 8.8506e-05 -1.77754e-06
-2.33993e-06 -1.77754e-06 -3.32915e-05
0.00154124 0.000138688 1.3079e-06
0.000138688 0.000152881 5.328e-06
1.3079e-06 5.328e-06 4.55438e-05
0.00177115 6.06954e-05 -4.68276e-07
6.06954e-05 6.47828e-05 -1.29545e-08
-4.68276e-07 -1.29545e-08 -4.69348e-05
0.00210252 0.000146852 8.03648e-07
0.000146852 0.000249416 -6.3906e-07
8.03648e-07 -6.3906e-07 0.000120987
0.00183292 5.00579e-05 -9.26762e-06
5.00579e-05 4.21488e-05 -4.6852e-06
-9.26762e-06 -4.6852e-06 -5.17867e-05
0.00191762 -2.98661e-06 3.04627e-06
-2.98661e-06 0.000146807 4.86976e-07
3.04627e-06 4.86976e-07 5.26548e-05
0.00179918 -1.93011e-06 -4.29181e-07
-1.93011e-06 7.84177e-05 -6.95211e-07
-4.29181e-07 -6.95211e-07 -4.22254e-06
0.00169439 5.05069e-07 -5.70634e-06
5.05069e-07 7.66313e-05 3.05054e-06
-5.70634e-06 3.05054e-06 3.68572e-06
0.00167465 1.31512e-05 -1.54097e-06
1.31512e-05 5.70796e-07 1.61255e-06
-1.54097e-06 1.61255e-06 -8.23644e-05
0.00187943 1.42954e-05 2.14986e-06
1.42954e-05 0.000103619 2.61807e-06
2.14986e-06 2.61807e-06 2.37561e-05
0.00181875 1.07332e-05 -6.11712e-07
1.07332e-05 0.000102552 -3.32914e-07
-6.11712e-07 -3.32914e-07 1.24389e-05
0.0017253 1.08118e-05 1.49269e-06
1.08118e-05 8.37071e-05 -1.68843e-07
1.49269e-06 -1.68843e-07 -1.96793e-05
0.00177795 -2.53679e-06 3.1653e-07
-2.53679e-06 0.000113428 1.60423e-06
3.1653e-07 1.60423e-06 1.78136e-05
0.00164479 -4.41427e-07 -6.8695e-07
-4.41427e-07 6.09161e-05 1.23331e-08
-6.8695e-07 1.23331e-08 -3.99818e-05
0.00165246 -5.25797e-06 -1.5851e-06
-5.25797e-06 8.43736e-05 4.01891e-09
-1.5851e-06 4.01891e-09 -2.12459e-05
0.00173403 -3.54561e-05 8.99233e-07
-3.54561e-05 0.000110017 1.2844e-06
8.99233e-07 1.2844e-06 7.98359e-06
0.00163895 -3.58942e-05 -1.03634e-08
-3.58942e-05 8.48487e-05 4.86871e-08
-1.03634e-08 4.86871e-08 -1.77773e-05
0.00156348 -4.4076e-05 -2.14817e-06
-4.4076e-05 8.0058e-05 -7.15604e-07
-2.14817e-06 -7.15604e-07 -2.24317e-05
0.00161584 -7.20944e-05 1.3703e-06
-7.20944e-05 0.000100815 3.41944e-07
1.3703e-06 3.41944e-07 -1.45549e-06
0.00151339 -7.4206e-05 1.29386e-07
-7.4206e-05 8.36865e-05 4.66515e-07
1.29386e-07 4.66515e-07 -2.01778e-05
0.00138764 -7.0773e-05 -3.68139e-06
-7.0773e-05 6.77797e-05 7.80712e-07
-3.68139e-06 7.80712e-07 -3.23594e-05
0.00142583 -8.68044e-05 1.70519e-06
-8.68044e-05 8.60437e-05 -6.29963e-07
1.70519e-06 -6.29963e-07 -1.70476e-05
0.00130413 -7.99407e-05 8.75277e-08
-7.99407e-05 6.63347e-05 -3.80038e-08
8.75277e-08 -3.80038e-08 -3.25162e-05
0.00107865 -6.32114e-05 -6.6796e-06
-6.32114e-05 1.50655e-05 2.41651e-06
-6.6796e-06 2.41651e-06 -6.79524e-05
0.00121787 -8.23709e-05 3.23067e-06
-8.23709e-05 6.25033e-05 -7.42158e-07
3.23067e-06 -7.42158e-07 -3.36811e-05
0.00102933 -6.58286e-05 2.7785e-07
-6.58286e-05 2.19529e-05 -1.01621e-07
2.7785e-07 -1.01621e-07 -5.84068e-05
0.0017918 -8.69509e-06 -7.66132e-06
-8.69509e-06 0.000543144 3.54088e-06
-7.66132e-06 3.54088e-06 0.000498145
0.000993328 -6.95367e-05 5.00866e-06
-6.95367e-05 3.79209e-05 -1.73856e-06
5.00866e-06 -1.73856e-06 -4.16362e-05
0.0018737 -2.21052e-05 1.44289e-05
-2.21052e-05 0.000590974 -1.01867e-06
1.44289e-05 -1.01867e-06 0.000548117
0.00119923 5.64068e-06 -6.37484e-05
5.64068e-06 0.000286362 7.43884e-06
-6.37484e-05 7.43884e-06 0.000266227
0.0021959 5.47908e-05 -4.69379e-05
5.47908e-05 0.000807868 1.29834e-06
-4.69379e-05 1.29834e-06 0.000795382
0.0019246 -2.19924e-05 3.20832e-05
-2.19924e-05 0.000617193 -3.82313e-06
3.20832e-05 -3.82313e-06 0.00057883
0.00316532 8.16741e-05 5.67583e-05
8.16741e-05 0.00131057 -3.27536e-06
5.67583e-05 -3.27536e-06 0.00130684
0.00162091 0.000101539 -3.74421e-06
0.000101539 7.89639e-05 -3.40978e-06
-3.74421e-06 -3.40978e-06 -2.83475e-05
0.00153487 0.000113946 3.92085e-06
0.000113946 0.000183599 4.43308e-07
3.92085e-06 4.43308e-07 7.87172e-05
0.0012656 0.000105256 1.47181e-06
0.000105256 -1.48582e-05 9.50573e-07
1.47181e-06 9.50573e-07 -0.000109836
0.00115852 0.000100214 -1.90936e-06
0.000100214 8.97624e-05 -9.04292e-07
-1.90936e-06 -9.04292e-07 -1.1088e-05
0.00115465 0.000110816 -5.35165e-07
0.000110816 4.73819e-05 2.64007e-07
-5.35165e-07 2.64007e-07 -6.46551e-05
0.000994733 0.000103501 1.38598e-07
0.000103501 1.55995e-05 4.6032e-07
1.38598e-07 4.6032e-07 -9.55241e-05
0.00108934 9.34285e-05 -1.69074e-07
9.34285e-05 9.61703e-05 -1.4118e-07
-1.69074e-07 -1.4118e-07 4.97574e-07
0.000982297 6.50716e-05 -3.28427e-06
6.50716e-05 7.93577e-05 -1.15657e-06
-3.28427e-06 -1.15657e-06 2.8617e-06
0.000931392 7.95278e-05 8.82248e-07
7.95278e-05 4.4825e-05 5.77633e-08
8.82248e-07 5.77633e-08 -4.48944e-05
0.000858638 4.08967e-05 -2.55075e-07
4.08967e-05 3.37549e-05 4.16462e-08
-2.55075e-07 4.16462e-08 -3.88954e-05
0.000750165 -4.61024e-06 -5.98365e-06
-4.61024e-06 4.19002e-06 -3.88386e-06
-5.98365e-06 -3.88386e-06 -3.5476e-05
0.000754015 1.53047e-05 1.83343e-06
1.53047e-05 -9.82081e-06 1.19063e-06
1.83343e-06 1.19063e-06 -7.98423e-05
0.000651095 -4.25904e-05 -1.62368e-07
-4.25904e-05 -4.43006e-05 -8.83773e-08
-1.62368e-07 -8.83773e-08 -7.90625e-05
0.00287329 -8.50122e-05 -4.3971e-05
-8.50122e-05 0.00114295 -2.94673e-06
-4.3971e-05 -2.94673e-06 0.00114319
0.000591137 -5.82536e-05 1.88964e-06
-5.82536e-05 -7.71217e-05 4.29204e-06
1.88964e-06 4.29204e-06 -0.000106691
0.0027097 -7.76427e-05 -6.01815e-07
-7.76427e-05 0.00104532 1.2048e-07
-6.01815e-07 1.2048e-07 0.00104999
0.00251366 -6.91854e-05 3.2826e-05
-6.91854e-05 0.000935665 2.91444e-06
3.2826e-05 2.91444e-06 0.000943798
0.0018139 7.10149e-06 4.79701e-07
7.10149e-06 8.60649e-05 1.1045e-06
4.79701e-07 1.1045e-06 -1.65761e-05
0.00170229 2.44662e-06 6.41578e-07
2.44662e-06 3.2337e-05 2.49039e-07
6.41578e-07 2.49039e-07 -6.31369e-05
0.00235374 -2.79764e-05 -1.77175e-05
-2.79764e-05 0.000380378 -2.61279e-06
-1.77175e-05 -2.61279e-06 0.000311291
0.00176137 6.00091e-05 -6.46122e-07
6.00091e-05 8.53365e-05 6.84868e-07
-6.46122e-07 6.84868e-07 -2.67312e-05
0.00173209 0.000115219 1.64673e-07
0.000115219 0.000141231 -1.10379e-06
1.64673e-07 -1.10379e-06 2.84878e-05
0.00141964 0.000118495 -3.28022e-06
0.000118495 0.000162098 2.1289e-06
-3.28022e-06 2.1289e-06 6.48993e-05
0.00208734 0.000141521 1.68554e-06
0.000141521 0.00042624 3.25086e-07
1.68554e-06 3.25086e-07 0.000317171
0.00194462 6.14289e-05 -5.84585e-07
6.14289e-05 0.000159016 -1.38371e-07
-5.84585e-07 -1.38371e-07 4.38447e-05
0.00146538 0.000115249 9.08786e-07
0.000115249 -2.45173e-05 3.23175e-07
9.08786e-07 3.23175e-07 -0.00014927
0.00177488 6.2285e-05 -3.19017e-06
6.2285e-05 6.74688e-05 -2.12546e-06
-3.19017e-06 -2.12546e-06 -4.47474e-05
0.00182964 1.52881e-06 2.45048e-06
1.52881e-06 0.000101038 3.40856e-07
2.45048e-06 3.40856e-07 -9.95518e-07
0.00180555 -1.61395e-06 -4.93228e-07
-1.61395e-06 8.87309e-05 -2.81916e-07
-4.93228e-07 -2.81916e-07 -6.36121e-06
0.0019628 4.19201e-07 -4.6184e-06
4.19201e-07 0.000156297 1.93655e-07
-4.6184e-06 1.93655e-07 7.39022e-05
0.0019861 1.76001e-05 1.06804e-06
1.76001e-05 0.000202381 1.52127e-07
1.06804e-06 1.52127e-07 9.53887e-05
0.00180478 1.17891e-05 -1.97003e-06
1.17891e-05 9.71516e-05 6.07302e-07
-1.97003e-06 6.07302e-07 7.87276e-06
0.00175428 1.17643e-05 -1.51563e-07
1.17643e-05 9.76137e-05 1.54853e-07
-1.51563e-07 1.54853e-07 -5.35715e-06
0.00159788 7.09971e-06 7.99405e-07
7.09971e-06 5.12484e-05 -5.50455e-07
7.99405e-07 -5.50455e-07 -5.81616e-05
0.00170084 -1.98202e-06 -1.63053e-07
-1.98202e-06 9.25962e-05 1.60773e-06
-1.63053e-07 1.60773e-06 -8.71103e-06
0.00166374 -4.7971e-06 -5.20493e-07
-4.7971e-06 9.10205e-05 3.93879e-07
-5.20493e-07 3.93879e-07 -1.45617e-05
0.00158194 -1.09578e-05 -2.85987e-06
-1.09578e-05 7.98201e-05 5.97025e-07
-2.85987e-06 5.97025e-07 -2.49916e-05
0.0016571 -3.56242e-05 1.54516e-06
-3.56242e-05 9.35798e-05 7.84729e-07
1.54516e-06 7.84729e-07 -9.00661e-06
0.00156952 -4.24497e-05 -5.07379e-08
-4.24497e-05 8.29379e-05 -9.83501e-08
-5.07379e-08 -9.83501e-08 -1.9543e-05
0.00144074 -4.99034e-05 -3.94766e-06
-4.99034e-05 6.77195e-05 -1.24187e-07
-3.94766e-06 -1.24187e-07 -3.12274e-05
0.00152345 -7.37255e-05 2.35312e-06
-7.37255e-05 8.82702e-05 5.20787e-07
2.35312e-06 5.20787e-07 -1.55709e-05
0.00138548 -7.01325e-05 9.47561e-08
-7.01325e-05 6.64099e-05 3.86745e-07
9.47561e-08 3.86745e-07 -3.36511e-05
0.0011473 -5.70932e-05 -7.3562e-06
-5.70932e-05 1.87285e-05 2.16792e-06
-7.3562e-06 2.16792e-06 -6.64401e-05
0.00130635 -7.93242e-05 3.59642e-06
-7.93242e-05 6.70254e-05 -9.69356e-07
3.59642e-06 -9.69356e-07 -3.17276e-05
0.0010897 -6.26357e-05 3.59965e-07
-6.26357e-05 1.93219e-05 -1.34781e-08
3.59965e-07 -1.34781e-08 -6.36571e-05
0.00192099 -1.42724e-05 -9.67864e-06
-1.42724e-05 0.000591821 3.19853e-06
-9.67864e-06 3.19853e-06 0.000548061
0.00103389 -6.58226e-05 5.84018e-06
-6.58226e-05 2.39687e-05 -2.19102e-06
5.84018e-06 -2.19102e-06 -5.65088e-05
0.00198108 -2.68247e-05 1.62566e-05
-2.68247e-05 0.000635545 -1.04191e-06
1.62566e-05 -1.04191e-06 0.000591989
0.00127098 -4.23909e-06 -6.86417e-05
-4.23909e-06 0.000327279 7.18617e-06
-6.86417e-05 7.18617e-06 0.000305921
0.00204346 -4.067e-05 3.85728e-05
-4.067e-05 0.000671618 -5.93938e-06
3.85728e-05 -5.93938e-06 0.000630544
0.00121614 3.63749e-05 -2.93709e-05
3.63749e-05 0.00030315 2.36042e-06
-2.93709e-05 2.36042e-06 0.000278668
0.00324134 0.000126609 1.23478e-05
0.000126609 0.00137358 -1.50777e-06
1.23478e-05 -1.50777e-06 0.00135964
0.0019392 7.27395e-05 -1.98801e-06
7.27395e-05 0.000213835 -1.44957e-06
-1.98801e-06 -1.44957e-06 0.000102076
0.00157514 9.80255e-05 -6.44763e-07
9.80255e-05 0.000108542 -3.04583e-06
-6.44763e-07 -3.04583e-06 3.29823e-06
0.00169372 0.000104988 -2.81047e-06
0.000104988 0.000127894 1.47669e-06
-2.81047e-06 1.47669e-06 2.16885e-05
0.00158243 0.000110338 -1.33159e-06
0.000110338 0.000254798 -2.07626e-07
-1.33159e-06 -2.07626e-07 0.000154104
0.00136704 0.000110812 5.56031e-07
0.000110812 9.42865e-05 -1.50588e-06
5.56031e-07 -1.50588e-06 -9.86039e-06
0.00133398 0.000108427 2.71904e-06
0.000108427 2.97828e-05 1.6304e-06
2.71904e-06 1.6304e-06 -5.75089e-05
0.00101165 7.64236e-05 -4.17032e-06
7.64236e-05 6.20604e-05 -2.00985e-06
-4.17032e-06 -2.00985e-06 -2.00928e-05
0.00115899 0.000100643 -1.33842e-07
0.000100643 9.07509e-05 -8.55581e-08
-1.33842e-07 -8.55581e-08 -1.03858e-05
0.00150847 0.000125274 1.7032e-06
0.000125274 0.000225543 7.27074e-07
1.7032e-06 7.27074e-07 0.000112404
0.00102494 9.07168e-05 1.28595e-06
9.07168e-05 6.58545e-05 1.35227e-07
1.28595e-06 1.35227e-07 -2.98949e-05
0.00091281 6.18084e-05 -2.04301e-07
6.18084e-05 4.4008e-05 -1.77743e-07
-2.04301e-07 -1.77743e-07 -3.21271e-05
0.000785802 2.98144e-05 -7.40204e-06
2.98144e-05 2.20087e-05 -4.41193e-06
-7.40204e-06 -4.41193e-06 -2.31089e-05
0.000769281 3.86468e-05 2.23923e-06
3.86468e-05 -1.32139e-05 7.41496e-07
2.23923e-06 7.41496e-07 -8.49727e-05
0.000689283 -9.24747e-06 1.06296e-07
-9.24747e-06 -2.23577e-05 -4.7958e-08
1.06296e-07 -4.7958e-08 -6.29595e-05
0.00305289 -8.73951e-05 -5.25195e-05
-8.73951e-05 0.00125359 -2.78284e-06
-5.25195e-05 -2.78284e-06 0.00124976
0.000590959 -6.2081e-05 1.51535e-06
-6.2081e-05 -7.01773e-05 4.46229e-06
1.51535e-06 4.46229e-06 -0.000107497
0.00286112 -8.6558e-05 -8.88099e-07
-8.6558e-05 0.0011345 1.62053e-07
-8.88099e-07 1.62053e-07 0.00113521
0.00269773 -7.80761e-05 3.60683e-05
-7.80761e-05 0.00103826 2.80982e-06
3.60683e-05 2.80982e-06 0.00104333
0.00182251 1.41087e-05 -4.662e-07
1.41087e-05 9.9703e-05 2.63533e-07
-4.662e-07 2.63533e-07 -3.73336e-06
0.00177249 8.79262e-06 -7.18353e-07
8.79262e-06 6.09414e-05 2.74811e-07
-7.18353e-07 2.74811e-07 -4.23262e-05
0.00190336 7.92884e-07 -5.11101e-06
7.92884e-07 0.000129459 -1.45033e-06
-5.11101e-06 -1.45033e-06 3.42813e-05
0.00178933 6.07974e-05 9.66939e-07
6.07974e-05 9.70054e-05 -2.08729e-07
9.66939e-07 -2.08729e-07 -1.32968e-05
0.00182626 0.000117728 1.04483e-06
0.000117728 0.000193553 1.35167e-10
1.04483e-06 1.35167e-10 8.07133e-05
0.00184213 6.09985e-05 4.51105e-07
6.09985e-05 0.000105844 -1.5976e-06
4.51105e-07 -1.5976e-06 -9.27668e-06
0.00181663 6.51247e-06 5.30353e-07
6.51247e-06 9.52958e-05 3.97531e-07
5.30353e-07 3.97531e-07 -1.04247e-05
0.00184317 4.35718e-06 1.97068e-07
4.35718e-06 0.000106859 -2.07809e-07
1.97068e-07 -2.07809e-07 4.08434e-06
0.00171885 5.53325e-07 -2.32424e-06
5.53325e-07 4.31548e-05 -5.991e-07
-2.32424e-06 -5.991e-07 -5.2845e-05
0.00185085 7.68609e-06 -7.90276e-07
7.68609e-06 0.000133479 -1.75848e-07
-7.90276e-07 -1.75848e-07 2.77957e-05
0.0018788 8.34786e-06 1.51032e-06
8.34786e-06 0.000162637 1.22552e-07
1.51032e-06 1.22552e-07 5.07437e-05
0.00175403 1.25405e-05 -1.32473e-06
1.25405e-05 9.66385e-05 -2.4329e-08
-1.32473e-06 -2.4329e-08 -5.88896e-06
0.00170399 8.06554e-06 4.33773e-07
8.06554e-06 0.000106399 -3.26783e-07
4.33773e-07 -3.26783e-07 -3.22979e-06
0.00149712 2.82406e-06 -2.01616e-07
2.82406e-06 2.72292e-05 7.31373e-08
-2.01616e-07 7.31373e-08 -8.32483e-05
0.00167335 -4.97854e-06 4.97546e-07
-4.97854e-06 9.68715e-05 8.01786e-07
4.97546e-07 8.01786e-07 -8.68995e-06
0.00159498 -1.16129e-05 -8.88267e-07
-1.16129e-05 8.69725e-05 5.73006e-07
-8.88267e-07 5.73006e-07 -1.79643e-05
0.00146626 -1.91527e-05 -4.64196e-06
-1.91527e-05 6.91282e-05 6.37731e-07
-4.64196e-06 6.37731e-07 -3.1169e-05
0.00157575 -4.23556e-05 2.08317e-06
-4.23556e-05 8.58518e-05 4.99209e-07
2.08317e-06 4.99209e-07 -1.6642e-05
0.00144169 -4.88478e-05 3.31935e-08
-4.88478e-05 6.78314e-05 -4.24181e-08
3.31935e-08 -4.24181e-08 -3.10564e-05
0.00117038 -4.2008e-05 -7.7138e-06
-4.2008e-05 9.45572e-06 1.21509e-06
-7.7138e-06 1.21509e-06 -7.52439e-05
0.00138198 -6.93985e-05 3.97273e-06
-6.93985e-05 6.4346e-05 -1.59474e-08
3.97273e-06 -1.59474e-08 -3.56332e-05
0.0011463 -5.55992e-05 2.83393e-07
-5.55992e-05 1.68307e-05 3.08337e-07
2.83393e-07 3.08337e-07 -6.81299e-05
0.00208183 -2.30821e-05 -1.34532e-05
-2.30821e-05 0.000652463 2.39416e-06
-1.34532e-05 2.39416e-06 0.000610486
0.00109454 -6.20401e-05 6.78428e-06
-6.20401e-05 2.04174e-05 -2.38582e-06
6.78428e-06 -2.38582e-06 -6.2528e-05
0.00209055 -3.80373e-05 1.53723e-05
-3.80373e-05 0.000673498 -1.11773e-06
1.53723e-05 -1.11773e-06 0.000631641
0.00137833 -5.9506e-06 -7.24555e-05
-5.9506e-06 0.000377154 6.43996e-06
-7.24555e-05 6.43996e-06 0.000355331
0.00215958 -4.96763e-05 4.2266e-05
-4.96763e-05 0.000720616 -5.83077e-06
4.2266e-05 -5.83077e-06 0.000679291
0.00128831 3.30736e-05 -3.30764e-05
3.30736e-05 0.000344315 2.15267e-06
-3.30764e-05 2.15267e-06 0.000318343
0.00126696 7.36641e-05 4.83712e-06
7.36641e-05 0.000339286 -2.76422e-06
4.83712e-06 -2.76422e-06 0.000309483
0.00167251 2.44489e-05 -1.30364e-06
2.44489e-05 5.60089e-05 3.0638e-07
-1.30364e-06 3.0638e-07 -5.05076e-05
0.00163474 7.3048e-05 -2.99091e-06
7.3048e-05 9.5633e-05 -1.07715e-06
-2.99091e-06 -1.07715e-06 -1.23799e-05
0.00179616 7.05706e-05 -1.84075e-06
7.05706e-05 0.00013918 -9.97019e-07
-1.84075e-06 -9.97019e-07 2.68076e-05
0.00155287 9.74217e-05 -2.76924e-06
9.74217e-05 0.000165035 -1.12302e-06
-2.76924e-06 -1.12302e-06 6.39069e-05
0.00170781 0.000101984 1.23705e-06
0.000101984 0.000180729 7.24321e-07
1.23705e-06 7.24321e-07 7.56565e-05
0.00172808 0.000107336 4.36864e-06
0.000107336 0.000157929 3.1434e-06
4.36864e-06 3.1434e-06 5.28546e-05
0.00097907 7.71596e-05 -5.35239e-06
7.71596e-05 -1.57371e-06 -2.17304e-06
-5.35239e-06 -2.17304e-06 -8.67448e-05
0.00123518 0.000100558 1.61243e-06
0.000100558 7.19666e-05 8.68391e-07
1.61243e-06 8.68391e-07 -2.98732e-05
0.00119571 0.000107616 7.6947e-07
0.000107616 2.90141e-06 1.20959e-06
7.6947e-07 1.20959e-06 -0.000100462
0.000789476 5.60418e-05 -9.85346e-06
5.60418e-05 1.79387e-05 -5.2886e-06
-9.85346e-06 -5.2886e-06 -3.21109e-05
0.000969907 7.36605e-05 -3.58335e-07
7.36605e-05 4.08246e-05 -2.08868e-07
-3.58335e-07 -2.08868e-07 -4.09208e-05
0.00116365 0.000101243 2.0995e-06
0.000101243 9.39372e-05 8.78603e-07
2.0995e-06 8.78603e-07 -7.5064e-06
0.000857315 5.84669e-05 2.88744e-06
5.84669e-05 1.59886e-05 8.94822e-07
2.88744e-06 8.94822e-07 -5.98053e-05
0.000702691 2.49805e-05 -1.43282e-09
2.49805e-05 -1.51985e-05 -4.53564e-09
-1.43282e-09 -4.53564e-09 -6.05611e-05
0.00333925 -7.12416e-05 -6.36188e-05
-7.12416e-05 0.00142 -3.68088e-06
-6.36188e-05 -3.68088e-06 0.00141285
0.000645107 -1.56398e-05 3.92584e-06
-1.56398e-05 -4.19528e-05 4.23055e-06
3.92584e-06 4.23055e-06 -8.21125e-05
0.00302642 -9.62485e-05 -1.65177e-06
-9.62485e-05 0.00123724 2.35104e-07
-1.65177e-06 2.35104e-07 0.00123302
0.00286849 -8.74632e-05 3.95805e-05
-8.74632e-05 0.00113589 2.76397e-06
3.95805e-05 2.76397e-06 0.00113721
0.00182883 4.59933e-06 -4.34337e-07
4.59933e-06 0.000111973 -9.45566e-08
-4.34337e-07 -9.45566e-08 7.45124e-06
0.00181214 1.3554e-05 -3.37856e-07
1.3554e-05 9.50999e-05 1.15323e-07
-3.37856e-07 1.15323e-07 -8.5208e-06
0.00175185 1.01479e-05 -1.32111e-07
1.01479e-05 4.63542e-05 -1.09603e-06
-1.32111e-07 -1.09603e-06 -5.7523e-05
0.0018279 6.14063e-05 1.42891e-06
6.14063e-05 0.000113646 -3.08619e-07
1.42891e-06 -3.08619e-07 5.13767e-06
0.00183336 -1.37406e-06 4.94594e-08
-1.37406e-06 0.000118665 -3.42027e-07
4.94594e-08 -3.42027e-07 8.79604e-06
0.00184282 4.87446e-06 1.39633e-07
4.87446e-06 0.000108765 -4.92161e-08
1.39633e-07 -4.92161e-08 3.0376e-06
0.00185351 6.96857e-06 -2.03929e-06
6.96857e-06 0.000110982 -1.74059e-07
-2.03929e-06 -1.74059e-07 7.42501e-06
0.00175527 1.9105e-06 -2.85492e-06
1.9105e-06 8.53265e-05 -6.85859e-07
-2.85492e-06 -6.85859e-07 -1.91463e-05
0.00183132 1.3362e-05 -1.23523e-07
1.3362e-05 0.000137666 -2.67466e-07
-1.23523e-07 -2.67466e-07 2.61567e-05
0.00181898 9.20865e-06 -6.46286e-07
9.20865e-06 0.000157316 5.17269e-07
-6.46286e-07 5.17269e-07 4.36945e-05
0.00182496 9.20025e-06 1.83416e-07
9.20025e-06 0.000169162 -4.34728e-07
1.83416e-07 -4.34728e-07 5.9311e-05
0.0016638 4.41274e-06 6.56103e-07
4.41274e-06 0.000114464 -3.82919e-07
6.56103e-07 -3.82919e-07 4.69336e-06
0.00128769 1.40697e-06 -3.34445e-06
1.40697e-06 -3.71145e-05 1.00413e-06
-3.34445e-06 1.00413e-06 -0.00014294
0.00159942 -1.07229e-05 8.2171e-07
-1.07229e-05 8.99012e-05 5.69621e-07
8.2171e-07 5.69621e-07 -1.51525e-05
0.00146952 -1.67234e-05 -5.93858e-07
-1.67234e-05 7.06674e-05 2.0766e-07
-5.93858e-07 2.0766e-07 -2.96108e-05
0.00117621 -1.99444e-05 -7.57842e-06
-1.99444e-05 1.24002e-06 9.76627e-07
-7.57842e-06 9.76627e-07 -8.3955e-05
0.00143846 -4.56167e-05 3.84059e-06
-4.56167e-05 6.58828e-05 5.61399e-08
3.84059e-06 5.61399e-08 -3.28706e-05
0.00118202 -4.22233e-05 3.21465e-08
-4.22233e-05 1.44558e-05 1.59317e-07
3.21465e-08 1.59317e-07 -7.0119e-05
0.000685459 -2.47747e-05 -1.15966e-05
-2.47747e-05 -9.8805e-05 2.54886e-06
-1.15966e-05 2.54886e-06 -0.000147283
0.00114637 -5.43184e-05 7.50758e-06
-5.43184e-05 1.53993e-05 -1.5916e-06
7.50758e-06 -1.5916e-06 -6.93567e-05
0.0014369 -4.11864e-05 1.86348e-05
-4.11864e-05 0.000308374 -6.87425e-07
1.86348e-05 -6.87425e-07 0.000263904
0.00444052 1.96523e-05 -8.51217e-05
1.96523e-05 0.00198209 2.93525e-06
-8.51217e-05 2.93525e-06 0.00197529
0.00225587 -4.85116e-05 4.54049e-05
-4.85116e-05 0.000754648 -5.24353e-06
4.54049e-05 -5.24353e-06 0.000713529
0.00136063 2.62928e-05 -3.41488e-05
2.62928e-05 0.000374763 2.07586e-06
-3.41488e-05 2.07586e-06 0.000349426
0.00133401 7.90263e-05 2.51109e-06
7.90263e-05 0.000379212 -2.89671e-06
2.51109e-06 -2.89671e-06 0.000347053
0.00172288 1.16168e-05 -2.54814e-07
1.16168e-05 8.13389e-05 1.26815e-07
-2.54814e-07 1.26815e-07 -2.36513e-05
0.00147682 3.5616e-05 -1.81544e-06
3.5616e-05 -1.18035e-07 -2.94184e-08
-1.81544e-06 -2.94184e-08 -0.00010654
0.00174246 2.47445e-05 -2.91301e-07
2.47445e-05 9.48863e-05 -1.51286e-07
-2.91301e-07 -1.51286e-07 -1.14099e-05
0.00115544 6.85425e-05 -4.19926e-06
6.85425e-05 -9.22561e-05 -1.61611e-06
-4.19926e-06 -1.61611e-06 -0.000195355
0.00166472 7.37201e-05 1.58433e-07
7.37201e-05 0.000113504 -1.5032e-08
1.58433e-07 -1.5032e-08 5.77759e-06
0.00166212 6.87605e-05 3.0942e-07
6.87605e-05 6.92414e-05 -1.75339e-07
3.0942e-07 -1.75339e-07 -4.37885e-05
0.000658453 6.13045e-05 -7.93548e-06
6.13045e-05 -0.000224374 -2.85252e-06
-7.93548e-06 -2.85252e-06 -0.000312197
0.00156583 9.9237e-05 8.81547e-07
9.9237e-05 0.000171234 7.08512e-08
8.81547e-07 7.08512e-08 6.9899e-05
0.00184994 0.00010631 2.96278e-06
0.00010631 0.000257915 1.92587e-06
2.96278e-06 1.92587e-06 0.000152973
0.000744669 6.90595e-05 -1.15113e-05
6.90595e-05 -2.28734e-05 -5.38512e-06
-1.15113e-05 -5.38512e-06 -7.54271e-05
0.000779905 7.06727e-05 -1.19423e-07
7.06727e-05 -0.000108 1.30297e-07
-1.19423e-07 1.30297e-07 -0.000194202
0.000887344 9.08089e-05 3.89724e-06
9.08089e-05 -0.000111198 2.04513e-06
3.89724e-06 2.04513e-06 -0.000214182
0.00379335 -6.65089e-05 -7.08449e-05
-6.65089e-05 0.00166691 -4.57565e-06
-7.08449e-05 -4.57565e-06 0.00165549
0.000681679 4.86896e-05 -8.19892e-08
4.86896e-05 -3.27518e-05 2.61102e-08
-8.19892e-08 2.61102e-08 -8.27399e-05
0.000932468 7.10687e-05 3.8024e-06
7.10687e-05 2.21711e-05 1.81414e-06
3.8024e-06 1.81414e-06 -5.92293e-05
0.000618221 2.04321e-05 6.09932e-06
2.04321e-05 -5.35236e-05 4.41036e-06
6.09932e-06 4.41036e-06 -9.90663e-05
0.00324737 -9.73534e-05 -3.90125e-06
-9.73534e-05 0.00137101 1.82436e-07
-3.90125e-06 1.82436e-07 0.00136264
0.00298596 -9.68582e-05 4.23664e-05
-9.68582e-05 0.00121236 2.6974e-06
4.23664e-05 2.6974e-06 0.0012089
0.00180077 -2.76921e-06 -1.14036e-06
-2.76921e-06 0.000106057 -7.17941e-07
-1.14036e-06 -7.17941e-07 -1.56794e-06
0.00184382 4.45541e-06 -2.59018e-07
4.45541e-06 0.000117111 -2.49323e-08
-2.59018e-07 -2.49323e-08 1.25023e-05
0.00181104 1.32359e-05 3.33515e-07
1.32359e-05 9.58042e-05 -4.28336e-07
3.33515e-07 -4.28336e-07 -8.01701e-06
0.00190145 1.03344e-05 -8.30152e-07
1.03344e-05 0.000179263 -1.97762e-07
-8.30152e-07 -1.97762e-07 6.63186e-05
0.00180587 2.66389e-06 -4.54713e-07
2.66389e-06 0.000104162 -1.73001e-07
-4.54713e-07 -1.73001e-07 -5.46768e-06
0.00185746 -8.07029e-08 -1.64033e-06
-8.07029e-08 0.000115922 -2.22326e-07
-1.64033e-06 -2.22326e-07 1.03032e-05
0.00175077 1.63258e-05 -6.76878e-07
1.63258e-05 9.54376e-05 -3.51768e-07
-6.76878e-07 -3.51768e-07 -1.56017e-05
0.00179878 1.12406e-05 6.67531e-07
1.12406e-05 0.000147886 -1.54922e-07
6.67531e-07 -1.54922e-07 3.39364e-05
0.00177057 6.29136e-06 -2.81116e-06
6.29136e-06 0.00017407 9.15509e-07
-2.81116e-06 9.15509e-07 6.51278e-05
0.00183478 5.98946e-06 2.00095e-06
5.98946e-06 0.000203827 -1.02334e-06
2.00095e-06 -1.02334e-06 9.47732e-05
0.00157586 4.3714e-06 -5.21357e-08
4.3714e-06 0.000114478 3.70536e-08
-5.21357e-08 3.70536e-08 1.06153e-05
0.000828361 -1.8668e-06 -8.75781e-06
-1.8668e-06 -0.000201269 2.0911e-06
-8.75781e-06 2.0911e-06 -0.000293866
0.00146151 -1.67408e-05 3.0572e-06
-1.67408e-05 6.65815e-05 -2.15389e-07
3.0572e-06 -2.15389e-07 -3.37939e-05
0.00119218 -1.76241e-05 -6.73075e-08
-1.76241e-05 8.72624e-06 -1.53038e-07
-6.73075e-08 -1.53038e-07 -7.63559e-05
0.000708273 -1.3908e-05 -1.16297e-05
-1.3908e-05 -9.40089e-05 1.62164e-06
-1.16297e-05 1.62164e-06 -0.000143455
0.00118676 -4.08397e-05 7.87943e-06
-4.08397e-05 1.59151e-05 -1.0304e-06
7.87943e-06 -1.0304e-06 -6.84571e-05
0.000688755 -2.16476e-05 -3.6724e-08
-2.16476e-05 -9.71059e-05 1.54201e-07
-3.6724e-08 1.54201e-07 -0.000145532
0.00446718 1.34855e-05 -8.71351e-05
1.34855e-05 0.00199071 2.13371e-06
-8.71351e-05 2.13371e-06 0.00198479
0.000770781 -4.14199e-05 1.35727e-05
-4.14199e-05 -4.49177e-05 -4.43207e-06
1.35727e-05 -4.43207e-06 -9.44834e-05
0.00296808 2.60867e-05 3.28858e-05
2.60867e-05 0.00120685 7.00867e-07
3.28858e-05 7.00867e-07 0.00119054
0.00135816 3.23595e-05 1.03831e-05
3.23595e-05 0.000376778 -2.15371e-06
1.03831e-05 -2.15371e-06 0.00035032
0.00182689 1.50892e-06 -3.12024e-07
1.50892e-06 0.00014129 -2.11523e-07
-3.12024e-07 -2.11523e-07 3.59209e-05
0.00165075 1.7778e-05 -9.75183e-07
1.7778e-05 8.24514e-05 -2.59792e-07
-9.75183e-07 -2.59792e-07 -2.16017e-05
0.00170457 1.07029e-05 2.79582e-07
1.07029e-05 7.20225e-05 2.02778e-07
2.79582e-07 2.02778e-07 -3.28485e-05
0.00145037 4.47624e-05 -3.39933e-06
4.47624e-05 4.31932e-05 -7.3585e-07
-3.39933e-06 -7.3585e-07 -5.74377e-05
0.00154442 3.56433e-05 4.23473e-07
3.56433e-05 3.36586e-05 -9.85369e-08
4.23473e-07 -9.85369e-08 -7.20867e-05
0.00180065 2.49332e-05 6.81263e-07
2.49332e-05 0.000127719 -4.91855e-07
6.81263e-07 -4.91855e-07 2.16505e-05
0.000749201 5.18345e-05 -8.73626e-06
5.18345e-05 -0.000216439 -2.72218e-06
-8.73626e-06 -2.72218e-06 -0.000304556
0.00154352 7.79794e-05 -1.2436e-06
7.79794e-05 0.000111592 -3.67377e-07
-1.2436e-06 -3.67377e-07 9.99096e-06
0.00169576 7.42832e-05 3.23e-06
7.42832e-05 0.000131759 4.1485e-07
3.23e-06 4.1485e-07 2.43473e-05
0.000709226 6.59503e-05 -1.24563e-05
6.59503e-05 -6.57488e-05 -4.74864e-06
-1.24563e-05 -4.74864e-06 -0.000117213
0.000701648 6.31224e-05 -2.10681e-06
6.31224e-05 -0.000204721 -6.70004e-07
-2.10681e-06 -6.70004e-07 -0.000293197
0.00157825 0.000101045 4.47542e-06
0.000101045 0.000177118 1.39558e-06
4.47542e-06 1.39558e-06 7.55835e-05
0.00424086 -7.48938e-05 -7.41548e-05
-7.48938e-05 0.00190011 -4.83393e-06
-7.41548e-05 -4.83393e-06 0.00188561
0.000675695 6.32464e-05 4.71978e-07
6.32464e-05 -5.63012e-05 1.93159e-07
4.71978e-07 1.93159e-07 -0.000108417
0.000574645 6.39022e-05 5.19364e-06
6.39022e-05 -0.000217406 2.61722e-06
5.19364e-06 2.61722e-06 -0.000304645
0.00358775 -8.53162e-05 -4.09204e-06
-8.53162e-05 0.00156073 2.65852e-07
-4.09204e-06 2.65852e-07 0.00154915
0.000581805 4.16644e-05 7.48766e-06
4.16644e-05 -8.01585e-05 5.04002e-06
7.48766e-06 5.04002e-06 -0.000130046
0.00312405 -0.000106914 4.48175e-05
-0.000106914 0.00130468 2.60488e-06
4.48175e-05 2.60488e-06 0.00129589
0.00179333 6.99505e-06 -9.59271e-07
6.99505e-06 0.000128779 -9.26154e-07
-9.59271e-07 -9.26154e-07 1.86641e-05
0.00180299 -1.76734e-06 3.93496e-08
-1.76734e-06 0.000109989 3.26322e-07
3.93496e-08 3.26322e-07 2.5238e-06
0.00185035 4.47908e-06 -1.92758e-07
4.47908e-06 0.000117855 1.66955e-07
-1.92758e-07 1.66955e-07 1.31422e-05
0.00183397 -2.26879e-06 -3.30833e-06
-2.26879e-06 0.000186532 -5.67053e-08
-3.30833e-06 -5.67053e-08 7.74221e-05
0.00187513 1.00816e-05 5.44108e-07
1.00816e-05 0.000166033 -1.21944e-07
5.44108e-07 -1.21944e-07 5.35546e-05
0.00179144 9.52801e-06 6.92544e-07
9.52801e-06 9.65443e-05 6.08436e-08
6.92544e-07 6.08436e-08 -1.29749e-05
0.00178903 1.20552e-05 1.45986e-06
1.20552e-05 0.000143822 -7.99868e-07
1.45986e-06 -7.99868e-07 2.95506e-05
0.00177296 6.20907e-06 1.00521e-06
6.20907e-06 0.000176385 -1.01859e-07
1.00521e-06 -1.01859e-07 6.7227e-05
0.000923883 6.3667e-07 -8.95079e-06
6.3667e-07 -0.000188722 1.80288e-06
-8.95079e-06 1.80288e-06 -0.000287397
0.00187952 7.25751e-06 4.15882e-06
7.25751e-06 0.000273745 -1.09766e-06
4.15882e-06 -1.09766e-06 0.000171892
0.00102329 5.53e-07 -1.71086e-06
5.53e-07 -9.63255e-05 4.78498e-07
-1.71086e-06 4.78498e-07 -0.000186926
0.000707017 -5.11298e-06 -1.19529e-05
-5.11298e-06 -0.00010705 1.43436e-06
-1.19529e-05 1.43436e-06 -0.000160712
0.00121745 -1.70602e-05 7.52184e-06
-1.70602e-05 2.07606e-05 -1.40152e-06
7.52184e-06 -1.40152e-06 -6.4246e-05
0.000712186 -4.87291e-06 2.2027e-07
-4.87291e-06 -9.22137e-05 -1.06832e-07
2.2027e-07 -1.06832e-07 -0.000141851
0.00453902 1.46511e-05 -8.89851e-05
1.46511e-05 0.00202428 1.30414e-06
-8.89851e-05 1.30414e-06 0.00201874
0.000680763 -1.64324e-05 1.11555e-05
-1.64324e-05 -0.000101181 -2.17227e-06
1.11555e-05 -2.17227e-06 -0.000149343
0.00450183 2.13093e-05 6.47939e-07
2.13093e-05 0.00200792 3.38229e-07
6.47939e-07 3.38229e-07 0.00200206
0.00155116 -6.78343e-06 7.76934e-05
-6.78343e-06 0.000457179 -3.12264e-06
7.76934e-05 -3.12264e-06 0.000436242
0.00189036 6.44173e-06 -5.68468e-07
6.44173e-06 0.000201333 -6.96529e-07
-5.68468e-07 -6.96529e-07 9.6938e-05
0.00175039 8.81096e-07 6.07795e-07
8.81096e-07 0.000101971 6.27056e-07
6.07795e-07 6.27056e-07 -2.32143e-06
0.00149021 1.73219e-05 -3.04108e-06
1.73219e-05 4.90061e-05 -9.04517e-07
-3.04108e-06 -9.04517e-07 -5.183e-05
0.00166861 1.72445e-05 2.81154e-07
1.72445e-05 9.05627e-05 -8.08168e-08
2.81154e-07 -8.08168e-08 -1.3541e-05
0.00169031 9.793e-06 1.20672e-06
9.793e-06 6.46642e-05 1.71718e-07
1.20672e-06 1.71718e-07 -4.00728e-05
0.00121667 3.9731e-05 -7.69229e-06
3.9731e-05 9.1681e-06 -1.98119e-06
-7.69229e-06 -1.98119e-06 -7.69004e-05
0.00148425 4.53319e-05 -5.47453e-08
4.53319e-05 5.93811e-05 9.66666e-08
-5.47453e-08 9.66666e-08 -4.12275e-05
0.00160682 3.56142e-05 1.81048e-06
3.56142e-05 6.48612e-05 1.6642e-07
1.81048e-06 1.6642e-07 -4.02214e-05
0.000702644 4.81695e-05 -1.25344e-05
4.81695e-05 -8.89679e-05 -3.9201e-06
-1.25344e-05 -3.9201e-06 -0.000139254
0.000978526 5.7814e-05 -2.41388e-06
5.7814e-05 -9.57226e-05 -5.21871e-07
-2.41388e-06 -5.21871e-07 -0.000183181
0.00193462 8.74114e-05 3.56536e-06
8.74114e-05 0.000317085 8.81797e-07
3.56536e-06 8.81797e-07 0.000216972
0.00451303 -3.94389e-05 -8.46658e-05
-3.94389e-05 0.00202549 -3.9761e-06
-8.46658e-05 -3.9761e-06 0.00201624
0.000668737 5.98787e-05 1.97246e-07
5.98787e-05 -8.49475e-05 1.92219e-07
1.97246e-07 1.92219e-07 -0.000136754
0.000743909 6.50936e-05 4.75939e-06
6.50936e-05 -0.000185516 1.84742e-06
4.75939e-06 1.84742e-06 -0.00027467
0.00401736 -5.91475e-05 7.60211e-07
-5.91475e-05 0.00178119 1.36398e-07
7.60211e-07 1.36398e-07 0.00176993
0.000581687 5.66169e-05 9.75159e-06
5.66169e-05 -0.000102082 5.41178e-06
9.75159e-06 5.41178e-06 -0.000153995
0.00338786 -0.000106144 5.21914e-05
-0.000106144 0.00145782 3.0086e-06
5.21914e-05 3.0086e-06 0.00144549
0.00180098 1.10839e-05 -2.72002e-06
1.10839e-05 0.000178868 -1.03312e-06
-2.72002e-06 -1.03312e-06 7.31536e-05
0.00183201 4.88369e-06 3.84183e-07
4.88369e-06 0.000150381 1.92624e-07
3.84183e-07 1.92624e-07 4.04058e-05
0.00180703 -1.15187e-06 1.46676e-06
-1.15187e-06 0.000115029 1.0045e-06
1.46676e-06 1.0045e-06 7.73787e-06
0.000951633 -1.30626e-05 -9.61179e-06
-1.30626e-05 -0.000189393 8.58945e-08
-9.61179e-06 8.58945e-08 -0.000288791
0.00183355 4.8891e-06 1.06419e-06
4.8891e-06 0.000186579 -4.34082e-08
1.06419e-06 -4.34082e-08 7.73505e-05
0.0018476 1.00938e-05 2.14677e-06
1.00938e-05 0.000152085 5.56598e-08
2.14677e-06 5.56598e-08 4.0115e-05
0.00178725 5.88262e-06 4.5835e-06
5.88262e-06 0.000185014 -9.95974e-07
4.5835e-06 -9.95974e-07 7.56077e-05
0.000908446 -7.0447e-08 -1.29994e-06
-7.0447e-08 -0.000192842 5.77691e-07
-1.29994e-06 5.77691e-07 -0.000290913
0.000750753 3.8214e-06 -1.26614e-05
3.8214e-06 -0.000105419 9.85797e-07
-1.26614e-05 9.85797e-07 -0.000163442
0.00121005 3.79131e-06 5.78935e-06
3.79131e-06 4.35381e-06 -1.24311e-06
5.78935e-06 -1.24311e-06 -8.42389e-05
0.0007464 4.36816e-06 2.89473e-07
4.36816e-06 -8.84619e-05 -8.33295e-08
2.89473e-07 -8.33295e-08 -0.00014218
0.004706 1.54866e-05 -9.17013e-05
1.54866e-05 0.00210608 5.0457e-07
-9.17013e-05 5.0457e-07 0.00210027
0.000726127 4.39245e-06 1.13251e-05
4.39245e-06 -8.55973e-05 -1.58007e-06
1.13251e-05 -1.58007e-06 -0.00013517
0.00458418 4.20779e-05 3.51196e-06
4.20779e-05 0.00204789 2.07687e-07
3.51196e-06 2.07687e-07 0.00204141
0.00454361 2.6001e-05 9.20144e-05
2.6001e-05 0.0020283 -1.42972e-06
9.20144e-05 -1.42972e-06 0.00202271
0.00156288 7.59097e-06 -3.1841e-06
7.59097e-06 7.34534e-05 -1.30419e-06
-3.1841e-06 -1.30419e-06 -2.94064e-05
0.00175693 5.2317e-06 4.75622e-07
5.2317e-06 0.000130238 5.85601e-08
4.75622e-07 5.85601e-08 2.56879e-05
0.00166633 3.9417e-07 1.32987e-06
3.9417e-07 5.89308e-05 1.14501e-06
1.32987e-06 1.14501e-06 -4.43016e-05
0.00123961 1.4479e-05 -7.47662e-06
1.4479e-05 5.27678e-06 -1.91063e-06
-7.47662e-06 -1.91063e-06 -8.22476e-05
0.0015227 1.74727e-05 1.4043e-07
1.74727e-05 6.4987e-05 -5.64164e-08
1.4043e-07 -5.64164e-08 -3.59025e-05
0.00168294 1.66896e-05 1.30413e-06
1.66896e-05 9.69048e-05 1.65225e-07
1.30413e-06 1.65225e-07 -7.25334e-06
0.00072167 2.88435e-05 -1.23149e-05
2.88435e-05 -9.44817e-05 -3.19598e-06
-1.23149e-05 -3.19598e-06 -0.000144773
0.00121772 4.05435e-05 -4.60587e-08
4.05435e-05 1.03172e-05 1.22966e-07
-4.60587e-08 1.22966e-07 -7.59494e-05
0.00151927 4.5873e-05 3.71656e-06
4.5873e-05 7.61044e-05 9.99694e-07
3.71656e-06 9.99694e-07 -2.44799e-05
0.00464423 -7.69717e-06 -9.52983e-05
-7.69717e-06 0.00208 -3.15707e-06
-9.52983e-05 -3.15707e-06 0.00207426
0.000684907 4.67219e-05 1.47261e-08
4.67219e-05 -9.76246e-05 1.16592e-07
1.47261e-08 1.16592e-07 -0.000147993
0.00120173 6.38731e-05 5.5783e-06
6.38731e-05 2.18246e-05 1.84687e-06
5.5783e-06 1.84687e-06 -6.49774e-05
0.00435837 -3.21177e-05 4.57366e-06
-3.21177e-05 0.00194772 1.92463e-07
4.57366e-06 1.92463e-07 0.00193828
0.000625874 5.45505e-05 1.08609e-05
5.45505e-05 -0.000105883 4.87078e-06
1.08609e-05 4.87078e-06 -0.000157705
0.00380339 -7.89599e-05 6.24787e-05
-7.89599e-05 0.00167366 3.83453e-06
6.24787e-05 3.83453e-06 0.00166168
0.00132468 3.47328e-06 -8.12529e-06
3.47328e-06 1.37561e-05 -8.77403e-07
-8.12529e-06 -8.77403e-07 -8.09574e-05
0.00162528 5.81152e-06 1.06925e-06
5.81152e-06 8.44443e-05 -1.0708e-08
1.06925e-06 -1.0708e-08 -2.29099e-05
0.00186433 1.60972e-06 2.03719e-06
1.60972e-06 0.000168696 1.12452e-06
2.03719e-06 1.12452e-06 5.88324e-05
0.000771514 1.36786e-05 -1.34638e-05
1.36786e-05 -0.000109604 -3.39012e-07
-1.34638e-05 -3.39012e-07 -0.000168201
0.00094128 -5.91345e-06 -1.6123e-06
-5.91345e-06 -0.000194454 2.02467e-07
-1.6123e-06 2.02467e-07 -0.000293798
0.00182736 1.16543e-05 5.34329e-06
1.16543e-05 0.000183603 -9.007e-08
5.34329e-06 -9.007e-08 7.42617e-05
0.000889643 -2.83234e-07 5.82133e-06
-2.83234e-07 -0.000198765 -5.32323e-07
5.82133e-06 -5.32323e-07 -0.000296221
0.000761626 7.02317e-06 1.53545e-07
7.02317e-06 -0.000100946 3.94476e-07
1.53545e-07 3.94476e-07 -0.000159071
0.00503033 1.70913e-05 -9.61619e-05
1.70913e-05 0.0022656 -3.46181e-07
-9.61619e-05 -3.46181e-07 0.0022592
0.000774344 1.32093e-05 1.19582e-05
1.32093e-05 -7.5303e-05 -1.33965e-06
1.19582e-05 -1.33965e-06 -0.000129271
0.00480867 1.97708e-05 1.75074e-06
1.97708e-05 0.00215628 3.42712e-07
1.75074e-06 3.42712e-07 0.00215051
0.00462682 2.55821e-05 9.65299e-05
2.55821e-05 0.00206687 -6.53754e-07
9.65299e-05 -6.53754e-07 0.00206161
0.00128649 4.57721e-06 -7.8803e-06
4.57721e-06 1.07901e-05 -1.8431e-06
-7.8803e-06 -1.8431e-06 -8.02893e-05
0.00148958 6.04705e-06 -4.97378e-08
6.04705e-06 3.26711e-05 -1.31017e-07
-4.97378e-08 -1.31017e-07 -7.08883e-05
0.00162523 3.96467e-06 1.48272e-06
3.96467e-06 6.00289e-05 1.09981e-06
1.48272e-06 1.09981e-06 -4.46778e-05
0.00244409 6.76063e-06 -5.40589e-05
6.76063e-06 0.000799138 -1.95461e-06
-5.40589e-05 -1.95461e-06 0.000757451
0.00124477 1.54587e-05 1.16855e-07
1.54587e-05 8.16273e-06 3.12291e-08
1.16855e-07 3.12291e-08 -7.95662e-05
0.0015576 1.74567e-05 3.41648e-06
1.74567e-05 8.2188e-05 8.17458e-07
3.41648e-06 8.17458e-07 -1.87546e-05
0.00474928 -7.8399e-07 -0.00010252
-7.8399e-07 0.00212587 -2.2957e-06
-0.00010252 -2.2957e-06 0.00212103
0.000717652 3.0206e-05 -1.49046e-08
3.0206e-05 -9.61078e-05 3.8804e-08
-1.49046e-08 3.8804e-08 -0.000146446
0.00121681 4.11881e-05 7.84008e-06
4.11881e-05 1.04517e-05 2.16296e-06
7.84008e-06 2.16296e-06 -7.60198e-05
0.00455971 -1.9433e-06 1.95454e-06
-1.9433e-06 0.00203903 3.98085e-07
1.95454e-06 3.98085e-07 0.00203281
0.000670776 4.58271e-05 1.17156e-05
4.58271e-05 -0.000104325 4.05726e-06
1.17156e-05 4.05726e-06 -0.000154741
0.00421524 -2.14889e-05 7.96897e-05
-2.14889e-05 0.00187297 3.82991e-06
7.96897e-05 3.82991e-06 0.00186529
0.000801862 6.77019e-06 -1.50969e-05
6.77019e-06 -9.32143e-05 -1.89375e-06
-1.50969e-05 -1.89375e-06 -0.000152965
0.00113019 4.18659e-07 2.77109e-07
4.18659e-07 -8.9075e-05 3.60233e-07
2.77109e-07 3.60233e-07 -0.000184958
0.00144187 5.31009e-07 4.60063e-06
5.31009e-07 -1.41369e-05 9.4439e-07
4.60063e-06 9.4439e-07 -0.000123071
0.00527186 -4.43232e-05 -9.83105e-05
-4.43232e-05 0.00239016 -1.61911e-06
-9.83105e-05 -1.61911e-06 0.00237967
0.000779929 9.74424e-06 -2.94799e-08
9.74424e-06 -0.000104163 3.22192e-07
-2.94799e-08 3.22192e-07 -0.000163665
0.000936887 9.09925e-07 6.24071e-06
9.09925e-07 -0.00019638 2.41622e-07
6.24071e-06 2.41622e-07 -0.000295688
0.000783141 1.44102e-05 1.26749e-05
1.44102e-05 -9.08152e-05 -7.11467e-08
1.26749e-05 -7.11467e-08 -0.000149247
0.00513073 5.33107e-05 4.0773e-06
5.33107e-05 0.00231637 4.62762e-07
4.0773e-06 4.62762e-07 0.00230897
0.00492208 7.03453e-05 0.000101269
7.03453e-05 0.00221441 2.59733e-07
0.000101269 2.59733e-07 0.00220676
0.00256288 -1.37556e-05 -5.86588e-05
-1.37556e-05 0.000845174 -2.04651e-06
-5.86588e-05 -2.04651e-06 0.000799808
0.00128795 6.30943e-06 -9.46946e-08
6.30943e-06 1.13879e-05 3.08563e-08
-9.46946e-08 3.08563e-08 -7.96823e-05
0.00141749 4.66114e-06 3.18683e-06
4.66114e-06 -7.49583e-06 1.08466e-06
3.18683e-06 1.08466e-06 -0.000111753
0.00464096 2.02911e-05 -2.91962e-05
2.02911e-05 0.00207269 -1.09099e-06
-2.91962e-05 -1.09099e-06 0.00206294
0.000768391 1.08797e-05 -1.39774e-07
1.08797e-05 -8.11939e-05 9.05227e-08
-1.39774e-07 9.05227e-08 -0.000133858
0.00125777 1.73289e-05 7.66485e-06
1.73289e-05 1.47469e-05 1.9581e-06
7.66485e-06 1.9581e-06 -7.31291e-05
0.00468884 5.92969e-06 -7.59971e-07
5.92969e-06 0.00209735 4.04515e-07
-7.59971e-07 4.04515e-07 0.0020922
0.000709917 3.20878e-05 1.24526e-05
3.20878e-05 -9.92979e-05 3.38081e-06
1.24526e-05 3.38081e-06 -0.000149721
0.0044743 6.94165e-06 9.014e-05
6.94165e-06 0.00199654 3.64982e-06
9.014e-05 3.64982e-06 0.00199035
0.00180219 -1.36845e-05 -0.000101262
-1.36845e-05 0.000550162 -1.36583e-07
-0.000101262 -1.36583e-07 0.000524406
0.00170509 6.39677e-06 -2.37647e-05
6.39677e-06 0.000384513 5.19554e-07
-2.37647e-05 5.19554e-07 0.000332162
0.000942549 8.036e-07 7.96318e-06
8.036e-07 -0.000188341 1.55233e-06
7.96318e-06 1.55233e-06 -0.00028539
0.00527888 -4.73451e-05 4.20901e-06
-4.73451e-05 0.00239252 -9.4184e-07
4.20901e-06 -9.4184e-07 0.00238268
0.000776484 7.84537e-06 1.34656e-05
7.84537e-06 -0.000105365 1.00436e-06
1.34656e-05 1.00436e-06 -0.000165259
0.00520799 2.23937e-05 0.000107965
2.23937e-05 0.00235226 1.02603e-06
0.000107965 1.02603e-06 0.00234603
0.00149502 -5.62123e-05 -9.11678e-06
-5.62123e-05 0.000407543 -8.07959e-07
-9.11678e-06 -8.07959e-07 0.000376303
0.00168802 4.23568e-06 -2.26584e-05
4.23568e-06 0.000388198 1.88511e-07
-2.26584e-05 1.88511e-07 0.000337595
0.00128856 5.7943e-06 7.56498e-06
5.7943e-06 1.1696e-05 1.95189e-06
7.56498e-06 1.95189e-06 -7.94027e-05
0.00313534 4.89319e-06 4.06821e-05
4.89319e-06 0.0012735 4.50466e-07
4.06821e-05 4.50466e-07 0.00125719
0.000761344 1.79052e-05 1.28139e-05
1.79052e-05 -8.47205e-05 2.97524e-06
1.28139e-05 2.97524e-06 -0.000137678
0.00464421 1.51234e-05 9.62267e-05
1.51234e-05 0.00207642 3.10384e-06
9.62267e-05 3.10384e-06 0.00207101
0.00526771 -5.30538e-05 -4.75251e-06
-5.30538e-05 0.00238385 4.64556e-07
-4.75251e-06 4.64556e-07 0.0023758
0.000774221 1.33355e-05 1.35017e-05
1.33355e-05 -0.000104705 1.99601e-06
1.35017e-05 1.99601e-06 -0.000163008
0.00529403 3.1318e-05 0.000104065
3.1318e-05 0.00239782 -1.05881e-06
0.000104065 -1.05881e-06 0.00238922
0.00329839 1.42611e-06 4.40977e-05
1.42611e-06 0.00135081 7.86612e-08
4.40977e-05 7.86612e-08 0.00133298
0.000778618 9.35703e-06 1.29288e-05
9.35703e-06 -8.89952e-05 2.63191e-06
1.29288e-05 2.63191e-06 -0.000145609
0.00479951 1.14105e-05 9.81592e-05
1.14105e-05 0.00215076 2.22233e-06
9.81592e-05 2.22233e-06 0.00214536
0.00519683 -0.000119938 9.67669e-05
-0.000119938 0.0023566 -7.95553e-08
9.67669e-05 -7.95553e-08 0.00234312
0.0050073 -6.56515e-05 9.60585e-05
-6.56515e-05 0.00225563 8.44289e-07
9.60585e-05 8.44289e-07 0.00224762
