# vtk DataFile Version 2.0
Wound Healing Simulation
ASCII
DATASET UNSTRUCTURED_GRID
POINTS 3012 float
69.9759 18.75 4
67.2507 60.3285 4
69.976 18.75 2
73.0099 25.446 4
71.1327 20.9142 4
68.6801 16.6661 4
67.8244 19.9262 3.97997
67.2507 60.3286 2
71.1327 54.0858 4
68.6801 58.3339 4
65.6939 62.2254 4
65.311 59.0006 3.979
74.6784 42.3946 4
73.7221 47.2057 4
69.9759 18.75 0
73.0099 25.446 2
68.6801 16.6661 2
71.1327 20.9142 2
67.825 19.9297 2
74.6792 32.6053 4
73.7222 27.7943 4
72.1454 23.1494 4
70.6132 26.221 3.97954
68.8846 21.958 3.98037
67.2507 14.6715 4
66.6358 17.9725 3.979
65.7935 21.0273 3.96919
67.2507 60.3285 0
71.1327 54.0858 2
68.6801 58.3339 2
65.694 62.2255 2
65.3123 58.9965 2
72.1454 51.8506 4
69.9759 56.25 4
68.8353 53.113 3.97954
64.0165 64.0165 4
66.6095 57.1333 3.97947
63.884 60.7648 3.97922
63.4968 57.7677 3.97026
60.3285 67.2507 4
74.6792 42.3947 2
73.7222 47.2057 2
74.9194 39.9526 4
74.2788 44.8158 4
72.1676 42.0856 3.9794
73.0099 49.554 4
71.2484 46.598 3.97886
73.0099 25.446 0
71.1327 20.9142 0
68.6801 16.6661 0
67.8244 19.9262 0.0200298
74.6792 32.6053 2
73.7222 27.7943 2
67.2508 14.6715 2
72.1455 23.1494 2
70.6131 26.2216 2
66.6368 17.977 2
68.8849 21.9603 2
65.7928 21.0283 2
74.9197 35.0474 4
74.2794 30.1841 4
72.1842 32.9435 3.97965
71.2774 28.4315 3.97915
69.8145 24.0595 3.98013
68.3438 26.9525 3.9685
66.7591 22.9347 3.96881
65.694 12.7746 4
65.322 16.1046 3.97837
64.7097 19.1983 3.96952
63.8711 22.0428 3.96589
71.1327 54.0858 0
65.6939 62.2254 0
68.6801 58.3339 0
65.311 59.0006 0.020997
72.1455 51.8506 2
69.9759 56.25 2
68.8355 53.111 2
64.0165 64.0165 2
66.6105 57.1293 2
63.8858 60.7611 2
63.4961 57.7674 2
62.2254 65.694 4
58.8936 65.4137 3.98886
69.7679 50.9889 3.97928
67.7826 55.1671 3.9796
66.646 52.2078 3.96816
62.3345 62.4265 3.98256
64.657 56.0291 3.96938
62.1986 59.3971 3.96911
61.8153 56.6731 3.96577
58.3339 68.6801 4
60.3285 67.2508 2
73.7221 47.2057 0
74.6784 42.3946 0
74.9197 39.9526 2
74.2794 44.8159 2
72.167 42.0854 2
73.0099 49.554 2
71.2482 46.5977 2
75 37.5 4
72.4049 39.8023 3.98008
71.7818 44.3528 3.97934
69.8016 41.7897 3.96888
70.5742 48.8135 3.97893
68.9092 46.0142 3.96835
74.6792 32.6053 0
73.7222 27.7943 0
67.2507 14.6715 0
72.1454 23.1494 0
70.6132 26.221 0.0204647
68.8846 21.958 0.0196307
66.6358 17.9725 0.0210017
65.7935 21.0273 0.0308122
74.9197 35.0474 2
74.2794 30.1841 2
72.1836 32.9439 2
71.2772 28.432 2
65.694 12.7745 2
65.3237 16.1094 2
69.8146 24.0608 2
68.3436 26.9532 2
64.709 19.1991 2
66.7586 22.9356 2
63.8708 22.0433 2
72.4127 35.2243 3.98013
71.8032 30.6764 3.97963
69.8376 33.269 3.96901
68.9632 29.0391 3.96857
67.6081 24.9132 3.96857
66.169 27.641 3.96698
64.0165 10.9835 4
64.7357 23.8372 3.96632
63.8882 14.329 3.97955
63.5088 17.453 3.96998
62.8947 20.329 3.9652
62.0341 22.9645 3.96699
60.6825 11.0994 3.98392
57.6108 11.454 3.97549
72.1454 51.8506 0
69.9759 56.25 0
68.8353 53.113 0.020458
64.0165 64.0165 0
63.884 60.7648 0.0207796
66.6095 57.1333 0.0205283
63.4968 57.7677 0.0297411
62.2255 65.694 2
58.8952 65.4127 2
69.7678 50.9878 2
67.7831 55.1639 2
66.6455 52.2069 2
62.3366 62.4235 2
64.6563 56.0285 2
62.1979 59.3976 2
61.8146 56.6729 2
60.6673 63.976 3.98548
57.0248 66.7346 3.99034
57.5562 63.6872 3.97812
67.5041 50.1755 3.96792
65.6983 54.1716 3.96859
64.5126 51.3773 3.96561
60.7698 60.9301 3.97218
62.8115 55.0614 3.96518
60.6488 58.1467 3.96472
60.3133 55.7706 3.96433
56.25 69.9759 4
58.3339 68.6801 2
60.3285 67.2507 0
58.9203 9.65713 3.98673
62.2254 9.30607 4
73.0099 49.554 0
74.2788 44.8158 0
71.2484 46.598 0.0211416
72.1676 42.0856 0.0206005
74.9194 39.9526 0
75 37.5 2
72.4048 39.8024 2
71.7817 44.3524 2
69.801 41.7893 2
70.574 48.8131 2
68.9091 46.0136 2
72.4883 37.5122 3.9797
70.039 39.6576 3.96904
69.4276 43.9072 3.96869
67.5728 41.4949 3.96861
68.2626 48.1062 3.96803
66.6769 45.4338 3.96765
74.9197 35.0474 0
74.2794 30.1841 0
72.1842 32.9435 0.0203527
71.2774 28.4315 0.0208452
65.694 12.7746 0
65.322 16.1046 0.0216251
69.8145 24.0595 0.0198667
68.3438 26.9525 0.0315
66.7591 22.9347 0.031192
64.7097 19.1983 0.030476
63.8711 22.0428 0.0341072
72.4127 35.2244 2
71.8032 30.677 2
69.837 33.2695 2
68.9631 29.0397 2
64.0165 10.9835 2
63.8904 14.3333 2
63.508 17.4538 2
67.6078 24.914 2
66.1692 27.6415 2
62.8946 20.3294 2
64.7354 23.8377 2
62.0335 22.9651 2
60.6852 11.1023 2
57.6123 11.4531 2
70.0557 35.3925 3.96916
69.4645 31.1503 3.96874
67.6342 33.594 3.96824
66.7461 29.6284 3.96735
65.499 25.7062 3.96657
64.0579 28.274 3.97046
62.3401 12.6566 3.98212
62.7873 24.658 3.96833
62.1945 15.7946 3.97019
61.8037 18.696 3.96556
61.1675 21.3641 3.96521
60.3162 23.7632 3.96946
59.2437 12.7893 3.97322
55.873 10.2397 3.97799
56.4019 13.1358 3.97263
69.7679 50.9889 0.0207197
62.2254 65.694 0
58.8936 65.4137 0.0111414
67.7826 55.1671 0.0204015
66.646 52.2078 0.0318423
62.3345 62.4265 0.0174358
62.1986 59.3971 0.0308921
64.657 56.0291 0.0306172
61.8153 56.6731 0.0342275
60.6693 63.9742 2
57.0259 66.734 2
57.5564 63.6887 2
67.5038 50.1747 2
65.6976 54.1707 2
64.5126 51.377 2
60.7693 60.9311 2
62.811 55.0611 2
60.6485 58.1469 2
60.3135 55.7704 2
55.0708 67.9315 3.99149
59.2164 62.3585 3.97313
55.8036 64.9065 3.98212
56.3231 62.0751 3.97438
65.2998 49.4001 3.96613
63.69 53.2853 3.96523
62.362 50.6298 3.96729
59.3258 59.543 3.96683
61.0463 54.2923 3.96576
59.2699 56.9928 3.96335
59.213 55.1618 3.96566
48.1012 68.577 3.98687
50.9485 69.9312 3.99162
54.0858 71.1327 4
56.25 69.976 2
58.3339 68.6801 0
57.0577 8.33688 3.98767
60.3285 7.74928 4
58.9228 9.65886 2
62.2255 9.30602 2
70.5742 48.8135 0.0210738
71.7818 44.3528 0.0206551
68.9092 46.0142 0.0316524
69.8016 41.7897 0.0311156
72.4049 39.8023 0.0199232
75 37.5 0
72.4877 37.5123 2
70.0389 39.6574 2
69.4275 43.9068 2
67.5727 41.4947 2
68.2625 48.1055 2
66.6763 45.4334 2
70.1271 37.5219 3.9691
67.8136 39.5113 3.96875
67.1934 43.4655 3.96803
65.4601 41.2012 3.97328
66.034 47.4105 3.96699
64.5467 44.8314 3.97117
72.4127 35.2243 0.0198699
71.8032 30.6764 0.0203659
69.8376 33.269 0.03099
68.9632 29.0391 0.0314301
64.0165 10.9835 0
63.8882 14.329 0.020449
63.5088 17.453 0.030025
67.6081 24.9132 0.0314262
66.169 27.641 0.0330232
64.7357 23.8372 0.0336786
62.8947 20.329 0.0347962
62.0341 22.9645 0.0330085
60.6825 11.0994 0.0160785
57.6108 11.454 0.0245142
70.0557 35.3927 2
69.4644 31.1507 2
67.6342 33.5943 2
66.7462 29.6288 2
62.3426 12.6608 2
62.1938 15.7945 2
61.803 18.6964 2
65.499 25.7067 2
64.0564 28.2745 2
61.1666 21.3646 2
62.7866 24.6586 2
60.3158 23.764 2
59.2452 12.7886 2
56.4028 13.1335 2
55.8741 10.2389 2
67.8528 35.5493 3.96867
67.2415 31.6269 3.96784
65.6129 33.9352 3.97302
64.573 30.2077 3.97148
63.4594 26.4341 3.96943
62.1067 28.8071 3.97476
60.7721 14.2332 3.97234
60.9219 25.3722 3.97167
60.6014 17.1439 3.96547
60.1822 19.8403 3.96306
59.5583 22.2963 3.9662
58.8283 24.3678 3.97223
54.0366 9.14063 3.98039
57.9052 14.3518 3.97233
54.7838 12.0253 3.97402
55.3054 14.6767 3.97068
67.5041 50.1755 0.0320752
57.0248 66.7346 0.00966496
60.6673 63.976 0.0145244
57.5562 63.6872 0.0218756
65.6983 54.1716 0.031414
64.5126 51.3773 0.0343947
60.7698 60.9301 0.0278219
60.6488 58.1467 0.0352772
62.8115 55.0614 0.0348237
60.3133 55.7706 0.0356658
55.0716 67.9313 2
59.2167 62.3601 2
55.8036 64.9074 2
56.3224 62.0774 2
65.2996 49.3996 2
63.6901 53.2851 2
62.3617 50.6294 2
59.325 59.5442 2
61.047 54.2922 2
59.2706 56.9926 2
59.2145 55.1616 2
53.0427 68.9993 3.99151
53.9659 66.011 3.98429
57.8753 60.8551 3.97275
54.6817 63.2005 3.97706
55.2045 60.5937 3.97289
63.1007 48.639 3.96863
61.6831 52.5548 3.96656
60.1336 49.9826 3.96925
58.0022 58.2428 3.96537
59.2671 53.9203 3.96706
58.0725 55.784 3.96089
50.108 67.8554 3.9865
47.4621 66.5768 3.98306
46.055 69.1559 3.98708
48.1012 68.5776 2
48.8025 70.7224 3.99172
50.949 69.9311 2
51.8506 72.1454 4
54.0858 71.1327 2
56.25 69.9759 0
55.1026 7.14123 3.98973
58.3339 6.31992 4
57.0597 8.338 2
60.3286 7.74926 2
58.9203 9.65713 0.0132678
62.2254 9.30607 0
68.2626 48.1062 0.031968
69.4276 43.9072 0.0313071
66.6769 45.4338 0.0323521
67.5728 41.4949 0.031388
70.039 39.6576 0.0309611
72.4883 37.5122 0.0202992
70.1265 37.5219 2
67.8131 39.5112 2
67.194 43.4652 2
65.4587 41.201 2
66.0342 47.4101 2
64.5451 44.8309 2
67.9128 37.5224 3.96874
65.6974 39.3659 3.97374
65.0779 43.0125 3.97256
63.5931 40.915 3.97734
63.8602 46.6964 3.96971
62.6355 44.19 3.97539
70.0557 35.3925 0.0308446
69.4645 31.1503 0.0312622
67.6342 33.594 0.0317581
66.7461 29.6284 0.0326534
62.3401 12.6566 0.0178845
62.1945 15.7946 0.0298129
61.8037 18.696 0.0344391
65.499 25.7062 0.0334273
64.0579 28.274 0.0295406
62.7873 24.658 0.0316685
61.1675 21.3641 0.0347873
60.3162 23.7632 0.0305425
59.2437 12.7893 0.0267847
56.4019 13.1358 0.0273745
55.873 10.2397 0.022014
67.8523 35.5494 2
67.2419 31.6272 2
65.6111 33.9354 2
64.5716 30.2082 2
60.772 14.2341 2
60.6009 17.1439 2
60.1836 19.8403 2
63.4584 26.4346 2
62.1042 28.808 2
59.5596 22.297 2
60.9213 25.3731 2
58.8272 24.3691 2
57.9055 14.3503 2
55.3061 14.6755 2
54.0375 9.13906 2
54.7848 12.0225 2
65.79 35.6709 3.97345
65.0919 32.1666 3.97197
64.1477 34.2609 3.97741
62.4257 30.6616 3.97591
61.5122 27.1049 3.97291
60.6566 29.1787 3.97721
59.3029 15.6864 3.96843
59.1539 25.8445 3.9751
59.1013 18.3794 3.96325
58.6581 20.8922 3.96311
58.1384 23.1433 3.96708
57.7959 24.7211 3.97399
52.1116 8.15662 3.98325
53.0561 11.0277 3.97551
56.6662 15.7695 3.97091
53.8042 13.7068 3.97343
54.3624 16.0329 3.97169
55.0708 67.9315 0.00851072
65.2998 49.4001 0.0338692
55.8036 64.9065 0.0178756
59.2164 62.3585 0.0268692
56.3231 62.0751 0.0256217
63.69 53.2853 0.0347657
62.362 50.6298 0.0327113
59.3258 59.543 0.0331704
59.2699 56.9928 0.0366499
61.0463 54.2923 0.0342369
59.213 55.1618 0.034345
53.0434 68.9993 2
53.966 66.0118 2
57.8744 60.8566 2
54.6811 63.2013 2
55.204 60.5956 2
63.0998 48.6385 2
61.6838 52.5546 2
60.1335 49.9819 2
58.0015 58.244 2
59.2695 53.9201 2
58.0705 55.7828 2
52.0692 66.9982 3.98611
52.9523 64.2132 3.98093
56.6376 59.4696 3.97147
53.6762 61.6088 3.97612
54.2471 59.2955 3.97403
60.8202 47.8434 3.97034
59.5983 52.0708 3.96786
57.838 49.5685 3.97112
56.7466 56.9619 3.96649
57.0335 54.0854 3.96513
50.1079 67.8557 2
49.3362 65.9176 3.9831
47.4622 66.5774 2
46.8913 64.7295 3.98143
45.5572 67.0935 3.98304
43.9723 69.5879 3.9874
46.055 69.1565 2
46.609 71.3669 3.99178
48.1012 68.577 0.013135
48.803 70.7226 2
49.554 73.0099 4
50.9485 69.9312 0.0083837
51.8506 72.1455 2
54.0858 71.1327 0
53.0644 6.07225 3.99119
55.1042 7.14138 2
56.25 5.02411 4
58.3339 6.3199 2
57.0577 8.33688 0.0123338
60.3285 7.74928 0
66.034 47.4105 0.0330119
67.1934 43.4655 0.0319698
64.5467 44.8314 0.0288333
65.4601 41.2012 0.0267225
67.8136 39.5113 0.0312491
70.1271 37.5219 0.0309
67.9128 37.5225 2
65.6958 39.3658 2
65.0759 43.0121 2
63.5903 40.9142 2
63.8588 46.6958 2
62.6331 44.1891 2
65.8035 37.5018 3.97358
63.7426 39.2593 3.9773
63.1575 42.5292 3.97669
62.2184 40.678 3.97706
61.7928 45.887 3.97277
61.2253 43.6488 3.97704
67.8528 35.5493 0.0313291
67.2415 31.6269 0.0321555
65.6129 33.9352 0.0269831
64.573 30.2077 0.0285186
60.7721 14.2332 0.0276587
60.6014 17.1439 0.0345321
60.1822 19.8403 0.0369391
63.4594 26.4341 0.0305697
62.1067 28.8071 0.0252389
60.9219 25.3722 0.0283308
59.5583 22.2963 0.0337993
58.8283 24.3678 0.0277744
57.9052 14.3518 0.0276702
55.3054 14.6767 0.0293176
54.0366 9.14063 0.0196109
54.7838 12.0253 0.0259786
65.7884 35.671 2
65.0902 32.1669 2
64.1457 34.2614 2
62.4243 30.6623 2
59.3018 15.6872 2
59.102 18.3793 2
58.6632 20.8925 2
61.5106 27.1058 2
60.6553 29.1796 2
58.1361 23.1449 2
59.1531 25.8456 2
57.7956 24.7228 2
56.6663 15.7676 2
54.3634 16.0342 2
53.8042 13.7002 2
52.1122 8.15553 2
53.057 11.0261 2
63.9451 35.6388 3.97703
62.7548 33.0659 3.97652
60.389 30.6514 3.97638
59.369 27.9572 3.97606
57.9237 17.0091 3.96534
57.5415 25.7863 3.97643
57.6662 19.5112 3.96044
57.2408 21.894 3.96318
56.9962 24.0112 3.96804
50.1122 7.2871 3.9863
51.2317 10.1321 3.9785
52.1676 12.8138 3.97633
55.5186 17.0051 3.96867
52.9686 15.2999 3.97084
53.7389 17.0198 3.97728
53.0427 68.9993 0.00849473
53.9659 66.011 0.0157091
63.1007 48.639 0.0313677
54.6817 63.2005 0.0229374
57.8753 60.8551 0.0272472
55.2045 60.5937 0.0271078
61.6831 52.5548 0.0334427
60.1336 49.9826 0.0307457
58.0022 58.2428 0.0346288
58.0725 55.784 0.0391126
59.2671 53.9203 0.0329406
52.0693 66.9989 2
52.952 64.214 2
56.637 59.4709 2
53.6754 61.6086 2
54.2468 59.2975 2
60.819 47.8425 2
59.5985 52.0702 2
57.8356 49.5672 2
56.745 56.9659 2
57.0314 54.0841 2
51.1673 65.1243 3.98281
52.0434 62.5306 3.9777
55.4611 58.2274 3.97386
52.8242 60.1098 3.97718
53.6203 58.4457 3.97837
58.0559 46.7958 3.97442
57.4197 51.7424 3.96766
56.0193 49.4967 3.97069
55.4211 55.7593 3.96261
55.242 53.3394 3.96272
50.108 67.8554 0.0134953
49.3361 65.9178 2
48.6172 64.1172 3.9819
47.4621 66.5768 0.0169428
45.5573 67.094 2
46.8914 64.73 2
46.3808 63.0445 3.98213
45.1316 65.1896 3.98092
43.6305 67.4641 3.98339
41.8599 69.875 3.98708
43.9722 69.5884 2
44.3762 71.8616 3.99179
46.055 69.1559 0.0129181
46.6094 71.367 2
47.2057 73.7222 4
48.8025 70.7224 0.0082821
49.554 73.0099 2
51.8506 72.1454 0
50.9546 5.1327 3.99188
53.0654 6.0723 2
54.0858 3.86728 4
55.1026 7.14123 0.0102725
56.25 5.02406 2
58.3339 6.31992 0
63.8602 46.6964 0.0302874
65.0779 43.0125 0.0274377
62.6355 44.19 0.0246062
63.5931 40.915 0.0226631
65.6974 39.3659 0.0262627
67.9128 37.5224 0.0312593
65.8019 37.5018 2
63.7399 39.259 2
63.1553 42.5283 2
62.2161 40.6774 2
61.7907 45.886 2
61.2233 43.6478 2
63.8048 37.4568 3.97714
61.9355 39.3423 3.97703
60.9726 41.9279 3.97691
60.0144 44.7285 3.97673
65.79 35.6709 0.0265543
65.0919 32.1666 0.0280349
64.1477 34.2609 0.0225886
62.4257 30.6616 0.0240853
59.3029 15.6864 0.0315738
59.1013 18.3794 0.0367484
58.6581 20.8922 0.0368868
61.5122 27.1049 0.0270921
60.6566 29.1787 0.02279
59.1539 25.8445 0.0248991
58.1384 23.1433 0.0329193
57.7959 24.7211 0.026008
56.6662 15.7695 0.0290886
54.3624 16.0329 0.0283123
53.8042 13.7068 0.0265651
52.1116 8.15662 0.0167479
53.0561 11.0277 0.0244915
63.9425 35.6391 2
62.7531 33.0667 2
60.3875 30.6522 2
57.9223 17.0097 2
57.6708 19.5101 2
57.2435 21.8949 2
59.3677 27.9582 2
56.9962 24.0132 2
57.5403 25.7882 2
50.1127 7.28542 2
55.5196 17.0046 2
53.7391 17.0192 2
52.9691 15.2977 2
52.1687 12.8144 2
51.2325 10.1307 2
61.9726 35.3739 3.97713
60.0235 32.7812 3.9769
58.3536 30.1311 3.97694
57.0429 27.4492 3.97701
56.6088 18.1885 3.96599
56.0746 25.1771 3.97404
56.277 20.5704 3.96043
55.9376 22.9375 3.96224
48.0567 6.52852 3.98851
49.3244 9.33654 3.9811
50.4305 12.0066 3.97563
51.3695 14.5223 3.97132
54.3864 17.9591 3.96956
52.3433 17.0842 3.96632
52.0692 66.9982 0.0138886
52.9523 64.2132 0.0190731
60.8202 47.8434 0.0296555
53.6762 61.6088 0.0238813
56.6376 59.4696 0.0285334
54.2471 59.2955 0.0259691
59.5983 52.0708 0.0321396
57.838 49.5685 0.0288818
56.7466 56.9619 0.0335149
57.0335 54.0854 0.0348673
51.1672 65.125 2
52.0428 62.5315 2
55.4606 58.229 2
52.8237 60.1131 2
53.6198 58.447 2
58.0545 46.7947 2
57.4184 51.7412 2
56.0163 49.4956 2
55.4203 55.7598 2
55.2445 53.3396 2
50.3451 63.3753 3.9817
51.2377 60.9209 3.97659
54.1882 57.2433 3.97453
52.2942 58.6038 3.97549
56.3564 44.1139 3.97736
55.2125 47.8297 3.97407
54.8908 51.336 3.96559
53.9244 54.5045 3.96432
49.3362 65.9176 0.0169004
48.617 64.1172 2
47.9603 62.4671 3.98151
45.5572 67.0935 0.0169567
46.8913 64.7295 0.0185739
43.6305 67.4646 2
46.3808 63.045 2
45.1316 65.1901 2
45.9857 61.5755 3.98456
44.7662 63.4428 3.97974
43.356 65.4988 3.98071
41.6628 67.6823 3.98311
39.702 70.0214 3.98714
41.8598 69.8756 2
42.1106 72.2064 3.99193
43.9723 69.5879 0.0126025
44.3766 71.8618 2
44.8159 74.2794 4
46.609 71.3669 0.00821899
47.2057 73.7222 2
49.554 73.0099 0
48.7854 4.32319 3.99256
50.9553 5.13215 2
51.8506 2.85458 4
53.0644 6.07225 0.00880506
54.0858 3.86728 2
56.25 5.02411 0
61.7928 45.887 0.027225
63.1575 42.5292 0.0233133
61.2253 43.6488 0.0229611
62.2184 40.678 0.0229407
63.7426 39.2593 0.0226979
65.8035 37.5018 0.0264247
63.8019 37.4569 2
61.9338 39.3422 2
60.9712 41.9272 2
60.0137 44.7276 2
61.7705 37.4426 3.97722
59.9556 39.8243 3.97706
58.6733 42.8691 3.97679
63.9451 35.6388 0.022972
62.7548 33.0659 0.0234798
60.389 30.6514 0.0236198
57.9237 17.0091 0.0346594
57.6662 19.5112 0.039556
57.2408 21.894 0.0368216
59.369 27.9572 0.0239431
57.5415 25.7863 0.0235742
56.9962 24.0112 0.0319613
55.5186 17.0051 0.0313336
53.7389 17.0198 0.0227201
52.9686 15.2999 0.029158
50.1122 7.2871 0.013703
52.1676 12.8138 0.0236676
51.2317 10.1321 0.0215034
61.9709 35.3742 2
60.022 32.7814 2
58.3528 30.1318 2
56.6076 18.1898 2
56.2803 20.5681 2
55.9406 22.9395 2
57.0427 27.451 2
56.0742 25.1793 2
48.0569 6.52706 2
49.3251 9.33448 2
54.3873 17.9591 2
52.3436 17.0837 2
51.3693 14.5171 2
50.4317 12.0046 2
59.5969 35.1375 3.977
57.653 32.32 3.97631
56.2476 29.4145 3.97748
55.1573 26.6926 3.97709
55.2966 19.2295 3.96058
54.722 24.144 3.96398
54.8848 21.6262 3.95969
45.9629 5.8831 3.98898
43.3743 7.47468 3.98579
47.3556 8.62658 3.98412
48.5988 11.3028 3.97783
49.7067 13.7593 3.97562
50.6189 16.1673 3.97479
53.0886 18.7098 3.96482
51.2759 18.1119 3.97705
51.1673 65.1243 0.017189
52.0434 62.5306 0.0223034
58.0559 46.7958 0.0255812
52.8242 60.1098 0.0228159
55.4611 58.2274 0.0261403
53.6203 58.4457 0.0216283
57.4197 51.7424 0.0323377
56.0193 49.4967 0.0293075
55.4211 55.7593 0.0373918
55.242 53.3394 0.0372844
50.3447 63.3755 2
51.2368 60.9211 2
54.1883 57.2449 2
52.2935 58.6047 2
56.3559 44.1129 2
55.2116 47.8289 2
54.8927 51.3358 2
53.925 54.506 2
49.5891 61.7377 3.97974
55.1734 41.6642 3.97549
50.5527 59.3078 3.97286
52.1446 56.4617 3.9704
53.7989 45.4814 3.97466
53.0776 49.2604 3.96937
52.5345 52.8041 3.96154
48.6172 64.1172 0.0180964
47.96 62.4666 2
47.3252 60.9999 3.98568
43.6305 67.4641 0.0166078
45.1316 65.1896 0.0190825
46.3808 63.0445 0.0178686
41.6631 67.6824 2
43.3559 65.4997 2
45.9857 61.5761 2
44.7663 63.4434 2
45.7613 60.6199 3.9841
44.4822 61.821 3.98062
43.1458 63.7144 3.97862
41.5457 65.6358 3.97956
39.6323 67.7611 3.98281
37.5261 70.0461 3.98632
39.7019 70.0219 2
39.8174 72.4031 3.99172
41.8599 69.875 0.0129243
42.1109 72.2067 2
42.3947 74.6792 4
44.3762 71.8616 0.00820511
44.8159 74.2794 2
47.2057 73.7222 0
43.852 5.36016 3.98885
46.5713 3.64755 3.99271
48.7857 4.32259 2
49.554 1.99015 4
50.9546 5.1327 0.00811999
51.8506 2.85453 2
54.0858 3.86728 0
60.0144 44.7285 0.0232667
60.9726 41.9279 0.0230864
61.9355 39.3423 0.0229716
63.8048 37.4568 0.0228597
61.7689 37.4425 2
59.9552 39.8243 2
58.673 42.8681 2
59.456 37.5656 3.97745
57.6249 40.6224 3.97722
54.5892 39.6806 3.97524
61.9726 35.3739 0.0228743
60.0235 32.7812 0.0231035
58.3536 30.1311 0.0230615
56.6088 18.1885 0.0340064
56.277 20.5704 0.039567
55.9376 22.9375 0.0377629
57.0429 27.4492 0.0229875
56.0746 25.1771 0.0259635
54.3864 17.9591 0.0304368
52.3433 17.0842 0.0336825
51.3695 14.5223 0.0286787
48.0567 6.52852 0.0114864
49.3244 9.33654 0.0188962
50.4305 12.0066 0.0243688
59.5969 35.1373 2
45.9627 5.88249 2
43.3742 7.47382 2
57.6532 32.3207 2
56.2465 29.4153 2
55.2953 19.2303 2
54.8925 21.627 2
54.7212 24.146 2
55.1547 26.6949 2
47.3559 8.62388 2
48.5998 11.3002 2
53.0897 18.7086 2
51.2771 18.1125 2
50.6199 16.1676 2
49.7071 13.7579 2
57.0095 34.7835 3.97731
55.3601 31.5802 3.97668
54.1666 28.5052 3.97746
53.5244 25.6062 3.97609
53.9023 20.1916 3.95825
53.4303 22.7984 3.95458
41.3995 7.0806 3.98588
45.3606 7.99565 3.98666
42.8664 9.4181 3.98229
46.6669 10.6584 3.98134
47.7402 13.1142 3.97755
48.9197 15.4236 3.97253
49.9814 17.7318 3.97314
51.6054 19.3903 3.97374
50.3451 63.3753 0.0183026
51.2377 60.9209 0.0234134
56.3564 44.1139 0.0226432
55.2125 47.8297 0.0259252
52.2942 58.6038 0.0245088
54.1882 57.2433 0.025467
54.8908 51.336 0.0344108
53.9244 54.5045 0.0356756
49.5883 61.7375 2
55.1696 41.6623 2
50.5521 59.3089 2
52.1446 56.4633 2
53.8003 45.4811 2
53.0853 49.2606 2
52.535 52.8036 2
48.8399 60.193 3.97768
52.002 42.5492 3.98185
49.7607 57.6015 3.96831
50.5061 54.3963 3.96245
51.468 47.1892 3.9755
51.0186 50.8891 3.95567
47.6696 43.684 3.98626
47.9603 62.4671 0.0184918
47.325 60.9994 2
46.6102 59.7874 3.98677
41.6628 67.6823 0.0168932
43.356 65.4988 0.0192903
44.7662 63.4428 0.02026
45.9857 61.5755 0.0154426
39.6327 67.7618 2
41.5455 65.6354 2
45.7611 60.6205 2
43.1458 63.7152 2
44.4822 61.8217 2
44.618 60.2787 3.98564
42.9492 62.0669 3.97561
41.5996 63.8069 3.97851
39.6472 65.6022 3.97837
37.5633 67.7421 3.9816
31.6976 65.1208 3.97949
33.3926 67.4805 3.98148
35.3339 69.9563 3.98659
37.5259 70.0471 2
37.5094 72.4577 3.99192
39.702 70.0214 0.0128647
39.8177 72.4035 2
39.9526 74.9197 4
42.1106 72.2064 0.00806583
42.3947 74.6792 2
44.8159 74.2794 0
41.7365 4.96928 3.98905
43.8521 5.35925 2
44.3265 3.11076 3.99303
46.5715 3.64723 2
47.2057 1.27793 4
48.7854 4.32319 0.00743563
49.554 1.99013 2
51.8506 2.85458 0
58.6733 42.8691 0.0232112
59.9556 39.8243 0.0229362
61.7705 37.4426 0.0227826
59.4563 37.5662 2
57.6244 40.6226 2
54.5863 39.6835 2
56.3937 37.8841 3.97714
49.032 41.2564 3.98403
52.5955 39.3067 3.98385
39.443 6.8045 3.9859
59.5969 35.1375 0.0229976
57.653 32.32 0.0236885
56.2476 29.4145 0.0225161
55.2966 19.2295 0.039416
54.8848 21.6262 0.0403133
54.722 24.144 0.0360223
55.1573 26.6926 0.0229131
53.0886 18.7098 0.0351778
51.2759 18.1119 0.0229549
50.6189 16.1673 0.0252076
45.9629 5.8831 0.0110153
49.7067 13.7593 0.0243835
47.3556 8.62658 0.0158848
48.5988 11.3028 0.0221684
43.3743 7.47468 0.0142111
57.0092 34.783 2
41.3995 7.0793 2
45.3603 7.99517 2
42.8662 9.41749 2
55.3629 31.5782 2
54.1669 28.5059 2
53.9041 20.1939 2
53.4291 22.7969 2
53.523 25.6076 2
46.6673 10.6537 2
47.7411 13.1101 2
51.6077 19.3914 2
49.9815 17.7293 2
48.9194 15.4245 2
54.3975 33.9807 3.97568
53.099 30.5941 3.97742
52.2588 27.3263 3.97552
51.956 24.2148 3.97757
52.301 21.1307 3.97192
41.0137 9.05239 3.98191
44.7259 9.99562 3.98478
42.4679 10.9043 3.98801
46.0017 12.7369 3.97683
47.6707 14.5997 3.97231
48.0885 17.0066 3.97148
49.7892 19.7433 3.97121
49.5891 61.7377 0.0202645
50.5527 59.3078 0.0271424
55.1734 41.6642 0.0245124
53.7989 45.4814 0.0253355
53.0776 49.2604 0.0306301
52.1446 56.4617 0.0296024
52.5345 52.8041 0.0384606
48.8392 60.1914 2
52.0176 42.5542 2
49.7595 57.6026 2
50.506 54.3982 2
51.4718 47.1887 2
51.0199 50.8878 2
47.6801 43.7081 2
47.9682 58.7254 3.97859
49.629 45.1946 3.97836
48.5435 55.8948 3.97317
49.0016 52.5565 3.97704
49.4183 48.9785 3.9734
45.4309 39.8295 3.87784
45.9023 42.5511 3.90728
46.0881 45.7113 3.98258
43.2406 41.0754 3.75397
41.7746 41.9536 3.58282
47.3252 60.9999 0.0143215
46.6094 59.7868 2
45.455 58.7831 3.98475
39.6323 67.7611 0.0171916
41.5457 65.6358 0.02044
43.1458 63.7144 0.0213786
44.4822 61.821 0.0193823
45.7613 60.6199 0.0159046
41.5995 63.8068 2
37.5636 67.7431 2
39.647 65.6029 2
44.6181 60.2793 2
42.9492 62.0676 2
41.7524 62.4779 3.9775
42.4767 59.9603 3.97935
39.8937 63.5385 3.97605
37.6421 65.4996 3.97904
35.4637 67.6518 3.98171
33.5757 65.3333 3.97856
31.9596 63.2881 3.97874
29.8841 64.7126 3.9809
31.6974 65.1215 2
31.3774 67.1906 3.98199
33.3927 67.4813 2
33.1573 69.7503 3.98659
35.3337 69.9571 2
35.1953 72.372 3.99175
37.5261 70.0461 0.0136826
37.5095 72.4582 2
37.5 75 4
39.8174 72.4031 0.00827688
39.9526 74.9197 2
42.3947 74.6792 0
39.6242 4.71695 3.98944
41.7367 4.96835 2
42.0629 2.71819 3.99328
43.852 5.36016 0.0111486
44.3267 3.11016 2
44.8158 0.721173 4
46.5713 3.64755 0.00729176
47.2057 1.27779 2
49.554 1.99015 0
57.6249 40.6224 0.0227781
59.456 37.5656 0.0225539
54.5892 39.6806 0.0247633
49.0562 41.2724 2
56.3943 37.8834 2
52.5947 39.2864 2
53.443 36.6295 3.97748
46.9563 40.3549 3.9125
49.9735 38.5208 3.98929
37.517 6.67566 3.98581
39.4431 6.80293 2
39.2112 8.6953 3.98333
35.9429 8.49523 3.98408
57.0095 34.7835 0.0226851
55.3601 31.5802 0.023318
54.1666 28.5052 0.0225382
53.9023 20.1916 0.0417533
53.4303 22.7984 0.0454226
53.5244 25.6062 0.0239132
51.6054 19.3903 0.0262586
49.9814 17.7318 0.0268632
48.9197 15.4236 0.0274701
45.3606 7.99565 0.0133422
47.7402 13.1142 0.0224522
46.6669 10.6584 0.0186589
41.3995 7.0806 0.014122
42.8664 9.4181 0.0177147
54.3944 33.9826 2
41.0139 9.05113 2
44.7249 9.99548 2
42.4676 10.9046 2
53.0956 30.5941 2
52.2676 27.3265 2
52.3058 21.1321 2
51.9568 24.2198 2
46.0021 12.7296 2
47.6707 14.5951 2
49.7921 19.7445 2
48.0873 17.0041 2
51.931 32.89 3.98115
50.8953 29.2859 3.9762
50.5235 25.8439 3.97283
49.8548 22.3365 3.98388
40.5688 11.6126 3.98089
43.8567 11.9149 3.97996
45.7897 15.4372 3.98308
47.482 19.3542 3.97774
45.8388 37.4837 3.87226
48.8399 60.193 0.0223207
49.7607 57.6015 0.0316928
52.002 42.5492 0.0181539
51.468 47.1892 0.0245038
51.0186 50.8891 0.0443322
50.5061 54.3963 0.0375493
47.6696 43.684 0.0137434
47.9671 58.7275 2
49.6415 45.2052 2
48.5411 55.8973 2
49.0009 52.5611 2
49.4224 48.9755 2
45.4829 39.8458 2
45.9281 42.5859 2
46.0953 45.7199 2
43.2677 41.1055 2
41.7978 41.9728 2
46.8086 57.3279 3.97932
43.9901 39.3682 3.75305
42.1259 40.832 3.62892
47.7287 47.202 3.97977
47.0879 54.2093 3.96949
47.4158 50.7079 3.97171
44.5111 47.3188 3.97703
44.5504 41.8953 3.85547
44.5675 44.4481 3.92257
42.1697 42.5584 3.77151
40.7201 42.2666 3.61427
46.6102 59.7874 0.0132275
45.4549 58.7829 2
43.8597 57.6933 3.98068
37.5633 67.7421 0.0184042
39.6472 65.6022 0.0216338
41.5996 63.8069 0.0214884
42.9492 62.0669 0.0243874
44.618 60.2787 0.0143623
35.4639 67.6527 2
41.7524 62.4781 2
39.8934 63.539 2
37.642 65.5005 2
42.477 59.9606 2
40.6228 61.6301 3.97873
40.4384 58.1744 3.97971
37.8369 63.1988 3.97721
35.573 65.4223 3.97904
33.5756 65.334 2
31.9593 63.2888 2
33.6289 63.3265 3.97722
30.3792 62.8477 3.98005
32.1244 61.9913 3.9838
26.8722 61.4889 3.97747
28.0632 64.1412 3.98034
29.8838 64.7132 2
29.4071 66.7547 3.98273
31.6976 65.1208 0.0205088
31.3775 67.1913 2
31.015 69.4153 3.98642
33.3926 67.4805 0.0185228
33.1571 69.751 2
32.8926 72.1465 3.99181
35.3339 69.9563 0.0134106
35.195 72.3725 2
35.0474 74.9194 4
37.5094 72.4577 0.00807726
37.5 75 2
39.9526 74.9197 0
35.6217 6.72669 3.98547
37.5238 4.61636 3.98957
39.6243 4.71562 2
39.7894 2.47479 3.99324
41.7365 4.96928 0.0109518
42.0629 2.71763 2
42.3946 0.32156 4
44.3265 3.11076 0.00697219
44.8159 0.72056 2
47.2057 1.27793 0
49.032 41.2564 0.0159749
56.3937 37.8841 0.02286
52.5955 39.3067 0.016152
46.9793 40.3516 2
49.9792 38.5103 2
53.448 36.6394 2
50.7639 35.577 3.97555
47.6258 37.7589 3.929
45.4366 35.1532 3.87465
43.2485 33.9074 3.74873
41.7768 33.0382 3.57883
37.4585 8.53694 3.98432
37.517 6.67436 2
39.443 6.8045 0.0141048
39.2116 8.69347 2
38.9765 10.1302 3.98346
35.8992 9.77715 3.98104
34.1521 8.82624 3.98263
35.9426 8.49355 2
54.3975 33.9807 0.024316
53.099 30.5941 0.0225792
52.2588 27.3263 0.0244822
52.301 21.1307 0.0280773
51.956 24.2148 0.0224312
49.7892 19.7433 0.0287933
48.0885 17.0066 0.0285214
47.6707 14.5997 0.0276948
44.7259 9.99562 0.0152222
46.0017 12.7369 0.0231704
41.0137 9.05239 0.0180912
42.4679 10.9043 0.0119891
51.9376 32.8896 2
40.5698 11.6125 2
43.8552 11.9163 2
50.915 29.2853 2
50.5276 25.8459 2
49.8569 22.3342 2
45.7877 15.4209 2
47.4844 19.3611 2
49.4825 31.4983 3.98727
48.9389 27.6128 3.97565
49.2139 24.5158 3.9768
47.1383 22.1011 3.98457
38.3023 12.7423 3.97765
42.0984 14.3074 3.97951
44.7858 18.532 3.97708
44.3577 37.4902 3.76153
45.9147 37.4885 2
47.9682 58.7254 0.0214102
48.5435 55.8948 0.0268347
49.629 45.1946 0.0216438
49.4183 48.9785 0.0266004
49.0016 52.5565 0.0229553
45.4309 39.8295 0.122159
45.9023 42.5511 0.0927207
46.0881 45.7113 0.0174241
43.2406 41.0754 0.246029
41.7746 41.9536 0.417176
46.8066 57.3295 2
44.029 39.39 2
42.1213 40.8441 2
47.7338 47.2053 2
47.0855 54.2135 2
47.4191 50.7125 2
44.5252 47.2973 2
44.578 41.9205 2
44.597 44.4672 2
42.2185 42.5934 2
40.7385 42.2685 2
45.3537 55.914 3.98962
42.4535 39.2583 3.63921
40.6003 40.7154 3.73911
45.8584 48.8605 3.99247
45.4179 52.4928 3.98284
43.2258 48.3196 3.99722
43.1506 45.9755 3.90529
43.3076 43.6716 3.85154
40.8489 43.6557 3.74958
39.2359 42.5449 3.62712
45.455 58.7831 0.0152522
43.8589 57.6948 2
42.0872 56.2939 3.98364
35.4637 67.6518 0.0182911
37.6421 65.4996 0.0209596
39.8937 63.5385 0.0239521
41.7524 62.4779 0.0225015
42.4767 59.9603 0.0206501
35.573 65.4233 2
40.6228 61.6307 2
37.8365 63.1996 2
40.4386 58.1758 2
38.9156 56.4704 3.99102
38.2506 60.3125 3.97914
35.6069 63.1927 3.97644
33.5757 65.3333 0.0214423
31.9596 63.2881 0.0212592
33.6287 63.3273 2
30.3789 62.8482 2
32.1248 61.9922 2
28.6829 62.1932 3.97993
33.3458 61.5007 3.97817
31.0703 61.2086 3.97902
27.5774 59.5816 3.98098
23.8041 59.0696 3.97924
25.0388 60.8625 3.97848
26.8725 61.4894 2
26.2306 63.4717 3.97947
28.0631 64.1411 2
27.4639 66.179 3.98283
29.8841 64.7126 0.0190959
29.4071 66.7551 2
28.9074 68.9412 3.98613
31.3774 67.1906 0.0180074
31.0148 69.4159 2
30.6151 71.7776 3.99145
33.1573 69.7503 0.0134113
32.8921 72.1469 2
32.6054 74.6784 4
35.1953 72.372 0.00824791
35.0474 74.9197 2
37.5 75 0
33.7246 6.98224 3.98463
35.4358 4.6866 3.98945
35.6215 6.72562 2
37.515 2.38725 3.99328
37.5238 4.61544 2
39.6242 4.71695 0.0105607
39.7892 2.47407 2
39.9526 0.0806499 4
42.0629 2.71819 0.00671931
42.3947 0.320817 2
44.8158 0.721173 0
44.0006 35.6095 3.75168
42.1294 34.1527 3.6231
46.9563 40.3549 0.087495
49.9735 38.5208 0.010711
53.443 36.6295 0.0225165
47.6241 37.752 2
50.7761 35.5715 2
45.4803 35.1283 2
43.2822 33.8749 2
41.8003 33.0178 2
47.7975 34.3066 3.95675
44.5563 33.0713 3.84912
42.1771 32.4319 3.76314
40.7238 32.7297 3.61128
37.311 10.6344 3.98102
37.4586 8.53513 2
37.517 6.67566 0.0141916
39.2112 8.6953 0.0166732
38.9778 10.1286 2
34.7552 10.3854 3.98138
35.8998 9.7741 2
32.3791 9.37383 3.97999
34.1511 8.82375 2
35.9429 8.49523 0.0159221
51.931 32.89 0.0188506
50.8953 29.2859 0.0238016
50.5235 25.8439 0.0271729
49.8548 22.3365 0.0161192
47.482 19.3542 0.0222578
45.7897 15.4372 0.0169238
43.8567 11.9149 0.0200439
40.5688 11.6126 0.0191108
49.498 31.4936 2
38.3024 12.7405 2
42.0993 14.3116 2
48.9477 27.6152 2
49.2176 24.5146 2
47.1342 22.0949 2
44.7868 18.5564 2
47.3297 29.6094 3.9843
46.9017 25.259 3.97796
44.2582 21.4701 3.97875
36.5837 12.9428 3.97568
38.683 14.8262 3.97573
41.7444 17.8882 3.97815
42.5793 37.4816 3.66128
44.3963 37.4891 2
45.8388 37.4837 0.12774
46.8086 57.3279 0.0206845
47.0879 54.2093 0.0305081
47.7287 47.202 0.0202325
47.4158 50.7079 0.0282928
43.9901 39.3682 0.246948
44.5504 41.8953 0.144528
44.5675 44.4481 0.0774314
44.5111 47.3188 0.0229733
42.1697 42.5584 0.228489
42.1259 40.832 0.371077
40.7201 42.2666 0.385729
45.3517 55.9138 2
42.4453 39.2596 2
40.6057 40.6986 2
45.8611 48.869 2
45.4167 52.4993 2
43.232 48.3361 2
43.1965 46.0086 2
43.3474 43.6985 2
40.8832 43.7018 2
39.2332 42.5478 2
43.683 54.4027 3.99892
40.7028 39.1267 3.75179
39.1069 40.7841 3.72552
43.5346 50.3864 4.00461
41.8373 47.5151 3.94185
41.7397 45.0744 3.86721
39.3354 44.3236 3.74603
37.5066 42.6412 3.65458
43.8597 57.6933 0.0193238
42.0869 56.2947 2
40.3992 54.8703 3.98152
35.573 65.4223 0.0209579
37.8369 63.1988 0.0227857
40.6228 61.6301 0.0212716
40.4384 58.1744 0.0202944
35.6065 63.1932 2
38.2508 60.3132 2
38.9155 56.4695 2
37.9913 55.1888 3.99214
36.933 57.6101 3.98605
35.364 60.8981 3.97665
33.6289 63.3265 0.0227771
30.3792 62.8477 0.0199495
32.1244 61.9913 0.0162008
33.3464 61.5015 2
28.6831 62.193 2
31.0709 61.2094 2
29.4089 60.278 3.9775
32.3619 59.7277 3.98772
28.04 58.3634 3.99318
27.5787 59.5821 2
25.3931 58.5843 3.9775
22.7749 58.223 3.96799
23.4069 60.3383 3.97945
23.8052 59.0706 2
25.0394 60.863 2
24.4341 62.7635 3.9795
26.8722 61.4889 0.0225346
26.2306 63.4724 2
25.5483 65.4882 3.98166
28.0632 64.1412 0.0196622
27.4639 66.1793 2
26.837 68.3297 3.98614
29.4071 66.7547 0.0172704
28.9072 68.9413 2
28.3701 71.2628 3.9913
31.015 69.4153 0.0135772
30.6144 71.7778 2
30.1842 74.2788 4
32.8926 72.1465 0.00819415
32.6053 74.6792 2
35.0474 74.9194 0
31.7891 7.42232 3.98329
33.3482 4.92621 3.98881
33.7242 6.98046 2
35.2453 2.46327 3.99318
35.4356 4.68596 2
35.6217 6.72669 0.0145296
37.5 0 4
37.5147 2.38676 2
37.5238 4.61636 0.0104309
39.7894 2.47479 0.00676182
39.9526 0.0802889 2
42.3946 0.32156 0
42.4403 35.7099 3.63655
44.0435 35.5859 2
40.6072 34.2768 3.73811
42.1213 34.1407 2
47.6258 37.7589 0.0710017
50.7639 35.577 0.0244531
45.4366 35.1532 0.125353
43.2485 33.9074 0.251273
41.7768 33.0382 0.421172
47.8145 34.31 2
44.5856 33.0525 2
42.2305 32.3939 2
40.7426 32.7273 2
45.8374 31.6628 3.92702
43.3108 31.3227 3.85154
40.8538 31.3419 3.75109
39.2376 32.4631 3.62525
35.6941 11.7825 3.9794
37.3128 10.6318 2
37.4585 8.53694 0.0156845
38.9765 10.1302 0.0165419
33.1002 11.2245 3.97641
34.7544 10.3811 2
35.8992 9.77715 0.0189556
30.4842 10.0237 3.97974
32.3781 9.37278 2
34.1521 8.82624 0.0173702
49.4825 31.4983 0.0127257
48.9389 27.6128 0.0243485
49.2139 24.5158 0.0232039
47.1383 22.1011 0.0154347
44.7858 18.532 0.022921
42.0984 14.3074 0.0204946
38.3023 12.7423 0.0223467
36.5821 12.9345 2
47.346 29.581 2
38.6813 14.8147 2
41.7411 17.881 2
46.9084 25.2576 2
44.2533 21.4577 2
45.2285 27.7395 4.00399
43.6812 24.1821 4.01168
41.3193 20.8601 3.98048
35.7739 14.7779 3.9775
38.6815 17.6286 3.97865
40.753 37.4746 3.76434
42.5787 37.4845 2
44.3577 37.4902 0.238474
45.3537 55.914 0.0103823
45.4179 52.4928 0.017158
45.8584 48.8605 0.00753311
42.4535 39.2583 0.360786
43.3076 43.6716 0.148457
43.1506 45.9755 0.0947108
43.2258 48.3196 0.0027765
40.8489 43.6557 0.250416
40.6003 40.7154 0.260887
39.2359 42.5449 0.372878
43.6799 54.4019 2
40.6913 39.1226 2
39.1077 40.7676 2
43.5342 50.4033 2
41.8272 47.5392 2
41.764 45.1103 2
37.5036 42.6476 2
39.3505 44.3687 2
41.8359 52.9286 3.99517
39.1214 39.1406 3.74607
37.5076 40.8339 3.74288
35.7796 42.5527 3.62822
40.8506 49.5711 3.99625
39.7856 45.8929 3.84371
37.5043 44.5567 3.75148
42.0872 56.2939 0.0163621
40.3944 54.8839 2
38.719 53.7458 3.99637
35.6069 63.1927 0.0235598
38.2506 60.3125 0.0208588
38.9156 56.4704 0.00897988
35.3644 60.8976 2
36.9339 57.6104 2
37.9899 55.1792 2
36.3223 55.2635 3.99754
34.4902 58.5035 3.98714
33.3458 61.5007 0.0218255
28.6829 62.1932 0.0200691
31.0703 61.2086 0.0209841
32.3627 59.7292 2
29.4101 60.2776 2
30.3167 57.8051 3.98496
28.0416 58.3636 2
26.9786 56.8177 3.97515
27.5774 59.5816 0.0190198
25.3948 58.5851 2
23.874 56.7843 3.96135
21.3594 57.3737 3.96632
22.0036 59.6073 3.9766
22.7759 58.2248 2
22.7392 62.014 3.9777
23.4076 60.3389 2
23.8041 59.0696 0.0207625
25.0388 60.8625 0.0215188
24.4343 62.7642 2
23.6826 64.7057 3.98094
26.2306 63.4717 0.0205346
25.5482 65.4892 2
24.8093 67.5909 3.9857
27.4639 66.179 0.0171679
26.8369 68.3303 2
26.1652 70.6036 3.99133
28.9074 68.9412 0.0138696
28.3695 71.2628 2
27.7943 73.7221 4
30.6151 71.7776 0.00855213
30.1841 74.2794 2
32.6054 74.6784 0
29.8118 7.99708 3.98218
31.2537 5.33318 3.98785
31.7886 7.42106 2
32.9811 2.70156 3.99287
33.3479 4.92499 2
33.7246 6.98224 0.0153653
35.0474 0.080333 4
35.2449 2.46299 2
35.4358 4.6866 0.010552
37.5 0 2
37.515 2.38725 0.00672247
39.9526 0.0806499 0
40.7112 35.838 3.74929
42.4344 35.7128 2
44.0006 35.6095 0.248316
28.5447 10.6989 3.97865
39.1019 34.2225 3.72489
40.6042 34.2928 2
42.1294 34.1527 0.376897
47.7975 34.3066 0.0432545
44.5563 33.0713 0.150882
42.1771 32.4319 0.23686
40.7238 32.7297 0.388716
45.8678 31.6413 2
43.348 31.2904 2
40.8912 31.2927 2
39.2399 32.4612 2
44.126 29.8589 3.92194
41.7366 29.9189 3.86711
39.3415 30.6786 3.74523
37.5118 32.3761 3.65456
34.0953 12.9461 3.97536
35.693 11.7751 2
37.311 10.6344 0.018982
31.1885 11.9944 3.97785
33.0999 11.2232 2
34.7552 10.3854 0.0186231
30.4826 10.0209 2
32.3791 9.37383 0.0200106
47.3297 29.6094 0.0156964
46.9017 25.259 0.0220375
36.5837 12.9428 0.0243236
44.2582 21.4701 0.021252
41.7444 17.8882 0.0218461
38.683 14.8262 0.0242741
35.775 14.7843 2
45.2336 27.7363 2
38.6784 17.6308 2
41.3144 20.855 2
43.6833 24.1742 2
33.6115 15.8954 3.97722
42.8582 26.5917 3.99103
40.8484 23.4343 4.00284
38.4101 20.4052 3.98661
35.852 17.5312 3.9799
39.1275 37.4889 3.7686
40.7418 37.4759 2
42.5793 37.4816 0.338722
43.683 54.4027 0.00108165
43.5346 50.3864 -0.00461392
40.7028 39.1267 0.248214
41.7397 45.0744 0.13279
41.8373 47.5151 0.0581483
39.3354 44.3236 0.253974
39.1069 40.7841 0.274477
37.5066 42.6412 0.345422
41.8315 52.9269 2
39.1135 39.1268 2
37.5065 40.814 2
40.8495 49.588 2
35.7767 42.5551 2
39.8052 45.9369 2
37.4964 44.5954 2
39.7754 51.7806 4.00113
37.5041 39.1496 3.77503
35.9116 40.7969 3.72641
34.2927 42.2811 3.61265
35.6751 44.3348 3.74221
38.6664 48.5371 3.95597
37.5161 46.1807 3.86334
40.3992 54.8703 0.0184842
38.718 53.7356 2
36.7471 53.0752 3.99811
35.364 60.8981 0.0233501
36.933 57.6101 0.0139483
37.9913 55.1888 0.00785796
34.4908 58.5026 2
36.3219 55.2655 2
33.2481 55.4531 3.99271
32.3619 59.7277 0.0122831
29.4089 60.278 0.0224961
30.3185 57.8044 2
28.743 55.3036 3.98048
28.04 58.3634 0.00681813
26.98 56.818 2
25.3706 55.1217 3.96549
21.8581 55.3227 3.96346
25.3931 58.5843 0.0224961
23.8746 56.7872 2
20.2462 57.0032 3.96754
20.6593 58.7574 3.96978
21.3597 57.3753 2
21.1719 61.1582 3.97653
22.0044 59.6083 2
22.7749 58.223 0.0320058
21.8965 63.8325 3.97959
22.7396 62.0145 2
23.4069 60.3383 0.0205471
24.4341 62.7635 0.0204952
23.6826 64.7064 2
22.8377 66.7341 3.98467
25.5483 65.4882 0.0183395
24.8092 67.5918 2
24.0094 69.8049 3.99141
26.837 68.3297 0.0138592
26.1645 70.6038 2
25.446 73.0099 4
28.3701 71.2628 0.00870045
27.7943 73.7222 2
30.1842 74.2788 0
27.8216 8.65659 3.98193
29.1559 5.87952 3.98658
29.8109 7.99478 2
30.7265 3.09855 3.99259
31.2532 5.33207 2
31.7891 7.42232 0.0167092
32.6053 0.320823 4
32.9806 2.70099 2
33.3482 4.92621 0.0111939
35.0474 0.0802903 2
35.2453 2.46327 0.00682154
37.5 0 0
39.1181 35.8495 3.74792
40.6951 35.8425 2
42.4403 35.7099 0.363455
28.5433 10.6976 2
26.623 11.395 3.97863
29.2277 12.6499 3.97908
37.5039 34.1852 3.74144
39.1046 34.2407 2
40.6072 34.2768 0.26189
45.8374 31.6628 0.0729808
43.3108 31.3227 0.148463
40.8538 31.3419 0.248909
39.2376 32.4631 0.374755
44.1359 29.8463 2
41.7579 29.8874 2
39.3515 30.6331 2
37.5134 32.369 2
42.1835 28.5324 3.89137
39.7834 29.1006 3.86423
37.5126 30.4552 3.74988
35.7857 32.4651 3.62701
31.9189 14.4941 3.97782
34.0957 12.9471 2
35.6941 11.7825 0.0206048
31.1875 11.9902 2
33.1002 11.2245 0.0235938
30.4842 10.0237 0.0202602
45.2285 27.7395 -0.00399344
43.6812 24.1821 -0.0116786
35.7739 14.7779 0.022498
41.3193 20.8601 0.0195228
38.6815 17.6286 0.0213488
33.6098 15.8898 2
35.8485 17.5351 2
42.8649 26.5914 2
38.4061 20.4076 2
40.8377 23.4184 2
33.5553 17.4062 3.97919
40.2961 25.8088 3.97342
38.0637 23.1117 4.00012
35.5828 20.1177 3.98487
37.5028 37.4985 3.7931
39.1196 37.4868 2
40.753 37.4746 0.23566
41.8359 52.9286 0.00482519
40.8506 49.5711 0.00375209
39.1214 39.1406 0.253931
39.7856 45.8929 0.156293
37.5043 44.5567 0.248519
37.5076 40.8339 0.25712
35.7796 42.5527 0.37178
39.7741 51.7853 2
37.5049 39.1381 2
35.91 40.7816 2
38.6777 48.5822 2
34.2741 42.2832 2
35.6559 44.3811 2
37.5163 46.2256 2
37.6626 50.8322 4.00019
35.893 39.1576 3.7475
34.4161 40.7379 3.73934
33.2355 41.9686 3.58117
34.1513 43.6587 3.74953
35.1981 45.8935 3.85762
36.9214 48.1544 3.92372
38.719 53.7458 0.00362746
36.7468 53.0776 2
34.4091 52.3911 3.99736
34.4902 58.5035 0.0128557
36.3223 55.2635 0.00246048
33.2492 55.4572 2
30.5771 53.3261 3.99023
30.3167 57.8051 0.0150422
28.7441 55.3042 2
26.9721 53.4156 3.97121
26.9786 56.8177 0.0248476
25.3712 55.1259 2
23.6737 53.4495 3.95881
20.5895 53.182 3.96094
19.9732 55.8045 3.96448
21.8564 55.3245 2
23.874 56.7843 0.0386536
19.4567 57.8647 3.96892
20.2458 57.0047 2
19.7139 60.1836 3.97416
20.6597 58.7578 2
21.3594 57.3737 0.0336824
20.2098 62.8524 3.97682
21.1726 61.1603 2
22.0036 59.6073 0.0233985
20.939 65.7626 3.98325
21.8966 63.8333 2
22.7392 62.014 0.0222987
23.6826 64.7057 0.019061
22.8375 66.7345 2
21.912 68.872 3.99105
24.8093 67.5909 0.014303
24.0085 69.8049 2
23.1494 72.1454 4
26.1652 70.6036 0.00867152
25.446 73.0099 2
27.7943 73.7221 0
25.8607 9.38552 3.9809
27.0706 6.54354 3.98551
27.8205 8.65549 2
28.4888 3.64455 3.99198
29.1552 5.87802 2
29.8118 7.99708 0.0178223
30.1841 0.720592 4
30.7257 3.09812 2
31.2537 5.33318 0.0121527
32.6053 0.320817 2
32.9811 2.70156 0.0071309
35.0474 0.080333 0
37.5034 35.8538 3.77381
39.106 35.8583 2
40.7112 35.838 0.250711
24.7782 12.0814 3.97808
23.7547 14.3718 3.97571
28.5447 10.6989 0.0213533
26.622 11.3947 2
29.2266 12.6486 2
27.294 13.3831 3.97831
29.785 14.2116 3.97895
35.9061 34.2232 3.72458
37.5067 34.2047 2
39.1019 34.2225 0.275106
37.5118 32.3761 0.345438
44.126 29.8589 0.078059
41.7366 29.9189 0.132893
39.3415 30.6786 0.254767
42.2067 28.4962 2
39.7971 29.058 2
37.5156 30.414 2
35.7853 32.462 2
39.9585 27.7405 3.89945
37.4956 28.8229 3.8622
35.6814 30.6921 3.74886
34.3025 32.7371 3.61229
30.9324 16.8547 3.97903
31.9174 14.4874 2
34.0953 12.9461 0.0246413
31.1885 11.9944 0.0221532
42.8582 26.5917 0.00897233
40.8484 23.4343 -0.00284036
33.6115 15.8954 0.0227781
35.852 17.5312 0.0201008
38.4101 20.4052 0.0133865
33.5511 17.4162 2
35.5828 20.1218 2
40.3229 25.7976 2
38.0496 23.1001 2
32.8717 19.8098 3.9927
37.7442 25.4196 3.98608
35.1962 22.8174 3.99618
35.878 37.5025 3.76998
37.5021 37.4988 2
39.1275 37.4889 0.2314
39.7754 51.7806 -0.00112898
38.6664 48.5371 0.0440253
37.5041 39.1496 0.224974
37.5161 46.1807 0.136657
35.6751 44.3348 0.257792
35.9116 40.7969 0.273591
34.2927 42.2811 0.387353
37.6503 50.8548 2
35.9041 39.1452 2
34.4102 40.7232 2
36.898 48.2006 2
33.2117 41.9866 2
34.1233 43.7049 2
35.1818 45.9312 2
35.5204 50.0041 3.98953
34.3117 39.1594 3.75119
32.8811 40.8522 3.62553
32.8357 42.5762 3.76579
33.2776 45.0806 3.8632
34.368 47.2667 3.89828
36.7471 53.0752 0.00189481
34.4031 52.3977 2
32.1037 51.1403 4.0146
33.2481 55.4531 0.00728915
30.5775 53.3288 2
28.5415 51.5497 3.98728
28.743 55.3036 0.0195249
26.972 53.4193 2
25.2181 51.7005 3.95474
25.3706 55.1217 0.0345067
23.6727 53.4529 2
22.1292 51.7541 3.95354
19.3851 51.5844 3.96183
18.9998 54.2743 3.96296
20.5886 53.1815 2
18.4738 56.6987 3.96717
19.9717 55.8061 2
21.8581 55.3227 0.0365393
18.38 59.0874 3.96797
19.4565 57.8657 2
20.2462 57.0032 0.0324642
18.623 61.7515 3.97387
19.7146 60.1848 2
20.6593 58.7574 0.0302168
19.1281 64.6715 3.98156
20.21 62.8533 2
21.1719 61.1582 0.02347
19.8862 67.8086 3.99088
20.9388 65.7632 2
21.8965 63.8325 0.020413
22.8377 66.7341 0.0153331
21.911 68.8716 2
20.9142 71.1327 4
24.0094 69.8049 0.00859286
23.1494 72.1455 2
25.446 73.0099 0
23.0979 12.7975 3.97725
23.9732 10.1743 3.97959
25.0241 7.31431 3.98441
25.8597 9.38487 2
26.2806 4.32863 3.99143
27.0698 6.54271 2
27.8216 8.65659 0.0180708
27.7943 1.27781 4
28.4877 3.64416 2
29.1559 5.87952 0.0134173
30.1841 0.720551 2
30.7265 3.09855 0.00741467
32.6053 0.320823 0
35.8822 35.8509 3.74383
37.505 35.8663 2
39.1181 35.8495 0.252079
24.7769 12.0794 2
23.7551 14.3728 2
22.4846 15.0502 3.9789
25.3606 13.9202 3.97583
24.0337 15.6352 3.98052
26.623 11.395 0.0213676
29.2277 12.6499 0.0209174
27.294 13.383 2
29.7828 14.2098 2
28.364 15.9861 3.97877
34.4168 34.2873 3.73791
35.9035 34.2397 2
37.5039 34.1852 0.258562
35.7857 32.4651 0.372992
37.5126 30.4552 0.250115
42.1835 28.5324 0.108631
39.7834 29.1006 0.135773
39.9752 27.7078 2
37.4974 28.7794 2
35.6653 30.6416 2
34.2814 32.7382 2
37.5764 27.4602 3.90872
35.2117 29.1181 3.86326
34.159 31.3574 3.74961
33.2485 33.0504 3.58024
30.2191 19.3802 3.98085
30.9298 16.848 2
31.9189 14.4941 0.02218
40.2961 25.8088 0.0265803
38.0637 23.1117 -0.000116798
33.5553 17.4062 0.0208131
35.5828 20.1177 0.0151337
32.8681 19.8188 2
35.187 22.8033 2
37.7669 25.4051 2
32.3298 22.5195 3.99612
35.0285 25.3686 4.00055
34.2562 37.5129 3.76547
35.8856 37.5039 2
37.5028 37.4985 0.206895
37.6626 50.8322 -0.000191893
36.9214 48.1544 0.0762824
35.893 39.1576 0.252503
35.1981 45.8935 0.142382
34.1513 43.6587 0.250468
34.4161 40.7379 0.260663
33.2355 41.9686 0.418833
35.5068 50.0108 2
34.3267 39.1542 2
32.8852 40.8617 2
34.3637 47.3079 2
32.7962 42.6108 2
33.2593 45.1139 2
33.3442 49.0268 3.97974
32.5594 39.2885 3.63941
31.7576 41.0941 3.75158
31.6935 43.6817 3.85339
32.4586 46.2194 3.89822
34.4091 52.3911 0.00263638
32.1054 51.1508 2
30.0317 49.695 3.99847
30.5771 53.3261 0.00977431
28.5402 51.547 2
26.6914 49.9256 3.96888
26.9721 53.4156 0.0287915
25.2165 51.6996 2
23.5465 50.1227 3.96337
23.6737 53.4495 0.0411871
22.1279 51.7524 2
20.6842 50.2531 3.9647
18.1946 50.2785 3.96802
17.9781 52.7495 3.9639
19.3832 51.5838 2
17.4909 55.3119 3.96253
18.9957 54.2747 2
20.5895 53.182 0.039057
17.1508 57.8512 3.96561
18.4731 56.6991 2
19.9732 55.8045 0.0355188
17.1419 60.5282 3.97075
18.3801 59.0885 2
19.4567 57.8647 0.031076
17.4092 63.4626 3.9768
18.6234 61.7522 2
19.7139 60.1836 0.025841
17.9427 66.617 3.98962
19.1277 64.6721 2
20.2098 62.8524 0.0231821
18.75 69.9759 4
19.885 67.8081 2
20.939 65.7626 0.0167459
21.912 68.872 0.00894608
20.9142 71.1327 2
23.1494 72.1454 0
21.5898 13.6204 3.97708
22.1913 11.035 3.97824
23.0975 12.7982 2
23.0419 8.18087 3.98331
23.9721 10.1728 2
24.1182 5.14345 3.99085
25.0233 7.31352 2
25.8607 9.38552 0.019101
25.446 1.99014 4
26.2792 4.32867 2
27.0706 6.54354 0.0144924
27.7943 1.27778 2
28.4888 3.64455 0.00801929
30.1841 0.720592 0
34.3103 35.8647 3.75151
35.8906 35.8644 2
37.5034 35.8538 0.226185
21.3138 15.8487 3.98198
24.7782 12.0814 0.021921
23.7547 14.3718 0.0242861
25.3604 13.9169 2
22.4853 15.0503 2
24.0341 15.6375 2
23.2763 16.2653 3.97511
25.3897 16.1063 3.97973
27.294 13.3831 0.0216884
29.785 14.2116 0.0210458
28.3615 15.9901 2
27.4515 18.8316 3.97918
32.8849 34.169 3.62729
34.4136 34.304 2
35.9061 34.2232 0.275418
34.3025 32.7371 0.387706
35.6814 30.6921 0.251135
37.4956 28.8229 0.137804
39.9585 27.7405 0.10055
37.5729 27.4245 2
33.2245 33.0337 2
35.2047 29.068 2
34.122 31.3055 2
35.1079 27.5692 3.90814
33.2701 29.9328 3.86235
32.8494 32.4365 3.7515
29.6235 21.982 3.99586
30.2168 19.3888 2
30.9324 16.8547 0.0209664
37.7442 25.4196 0.0139229
35.1962 22.8174 0.00382373
32.8717 19.8098 0.00730352
32.3284 22.5124 2
35.0575 25.3567 2
31.8379 25.7539 4.00661
32.4149 37.5135 3.66396
34.2726 37.5109 2
35.878 37.5025 0.230016
35.5204 50.0041 0.0104683
34.368 47.2667 0.101721
34.3117 39.1594 0.248807
33.2776 45.0806 0.136796
32.8357 42.5762 0.234207
32.8811 40.8522 0.374468
33.3313 49.0267 2
32.5734 39.288 2
31.7208 41.1228 2
32.4265 46.2539 2
31.6589 43.7108 2
31.3598 47.8693 3.9827
31.0091 39.3928 3.75278
30.4497 41.9327 3.85267
30.7275 44.8308 3.91858
32.1037 51.1403 -0.0145967
30.0319 49.7141 2
28.1289 48.1096 3.95901
28.5415 51.5497 0.012724
26.6898 49.9245 2
24.9118 48.3887 3.97186
25.2181 51.7005 0.0452632
23.5456 50.121 2
21.9379 48.7123 3.97035
22.1292 51.7541 0.0464582
20.6816 50.252 2
19.2749 49.0325 3.97207
17.085 49.2854 3.97352
16.931 51.3652 3.96707
18.1972 50.2772 2
16.4748 53.8389 3.96465
17.976 52.7493 2
19.3851 51.5844 0.0381734
15.9976 56.4559 3.96421
17.4874 55.3126 2
18.9998 54.2743 0.0370385
15.7586 59.1919 3.96733
17.1512 57.8518 2
18.4738 56.6987 0.0328266
15.7912 62.126 3.97269
17.1423 60.5301 2
18.38 59.0874 0.0320303
16.0897 65.2993 3.98862
17.4086 63.4637 2
18.623 61.7515 0.0261296
16.6661 68.6801 4
17.9413 66.6162 2
19.1281 64.6715 0.0184414
18.75 69.9759 2
19.8862 67.8086 0.00911578
20.9142 71.1327 0
20.2238 14.6138 3.97576
21.5897 13.6205 2
20.5311 12.0073 3.97705
21.1446 9.15145 3.98231
22.1906 11.0352 2
23.0979 12.7975 0.0227545
22.0173 6.08261 3.99027
23.0408 8.1797 2
23.9732 10.1743 0.0204131
23.1494 2.85457 4
24.1166 5.14365 2
25.0241 7.31431 0.0155878
25.446 1.99012 2
26.2806 4.32863 0.00857039
27.7943 1.27781 0
32.5471 35.7376 3.63917
34.3237 35.8687 2
35.8822 35.8509 0.256169
21.3145 15.8479 2
20.3169 16.981 3.97906
22.1085 16.6534 3.97127
25.3606 13.9202 0.0241725
22.4846 15.0502 0.0210961
24.0337 15.6352 0.0194832
25.3894 16.1035 2
23.2769 16.2655 2
24.2182 18.4931 3.97277
27.0646 21.5061 3.99331
28.364 15.9861 0.0212346
27.4506 18.8311 2
31.7726 33.9374 3.74759
32.8921 34.1576 2
34.4168 34.2873 0.262086
33.2485 33.0504 0.419762
34.159 31.3574 0.250388
35.2117 29.1181 0.136739
37.5764 27.4602 0.0912822
35.1141 27.5262 2
32.7795 32.4027 2
33.2542 29.9107 2
32.7084 28.267 3.91857
31.693 31.3446 3.85274
28.949 24.4684 3.98398
29.6178 21.9911 2
30.2191 19.3802 0.019149
35.0285 25.3686 -0.000549669
32.3298 22.5195 0.00388279
31.8358 25.7322 2
29.8656 27.4018 3.97692
30.6349 37.5129 3.76008
32.4269 37.5119 2
34.2562 37.5129 0.234533
33.3442 49.0268 0.0202555
32.4586 46.2194 0.101778
32.5594 39.2885 0.360591
31.6935 43.6817 0.146607
31.7576 41.0941 0.248417
31.3552 47.8748 2
30.9608 39.4166 2
30.4205 41.9491 2
30.7012 44.857 2
29.5092 46.4805 3.99969
29.5598 39.8531 3.87714
29.1514 43.069 3.9198
30.0317 49.695 0.00153093
28.1247 48.1037 2
26.2802 46.5675 3.9768
26.6914 49.9256 0.0311237
24.9109 48.3869 2
23.1507 46.9862 3.97511
23.5465 50.1227 0.0366271
21.9356 48.7113 2
20.253 47.5503 3.97715
20.6842 50.2531 0.0352996
19.2766 49.0309 2
17.8931 48.1266 3.97686
16.3224 48.6415 3.97629
17.0864 49.2845 2
16.0106 50.1305 3.97087
15.4863 52.3832 3.96675
16.9323 51.3644 2
18.1946 50.2785 0.0319798
14.9131 54.9558 3.96404
16.4754 53.8386 2
17.9781 52.7495 0.0360986
14.4707 57.7243 3.96649
15.998 56.4561 2
17.4909 55.3119 0.0374714
14.2706 60.6807 3.97126
15.7592 59.1927 2
17.1508 57.8512 0.034392
14.3351 63.8574 3.98398
15.7908 62.1276 2
17.1419 60.5282 0.0292547
14.6715 67.2507 4
16.0878 65.2981 2
17.4092 63.4626 0.0232049
16.6661 68.6801 2
17.9427 66.617 0.0103758
18.75 69.9759 0
18.9402 15.8002 3.97686
20.2242 14.6131 2
18.9822 13.121 3.97568
21.5898 13.6204 0.022925
20.5306 12.0074 2
19.344 10.2408 3.98113
19.9918 7.14733 3.98958
21.1439 9.15136 2
22.1913 11.035 0.0217616
20.9142 3.86727 4
22.0153 6.08302 2
23.0419 8.18087 0.0166873
23.1494 2.85451 2
24.1182 5.14345 0.00915313
25.446 1.99014 0
31.0283 35.6368 3.75151
32.5599 35.7375 2
34.3103 35.8647 0.248489
21.3138 15.8487 0.0180212
22.109 16.6533 2
20.3173 16.9792 2
19.2717 18.4317 3.96936
21.7966 17.8787 3.98115
25.3897 16.1063 0.0202667
23.2763 16.2653 0.0248868
24.2165 18.4961 2
22.3237 19.933 3.96701
24.6469 21.3904 3.98775
26.5579 23.774 3.97453
27.0638 21.499 2
27.4515 18.8316 0.0208236
30.485 33.105 3.86524
31.7428 33.8967 2
32.8849 34.169 0.372707
32.8494 32.4365 0.248503
33.2701 29.9328 0.137649
35.1079 27.5692 0.0918566
32.666 28.2377 2
31.6509 31.3083 2
30.4126 29.6714 3.94081
28.1161 26.6142 3.99082
28.9411 24.4821 2
29.6235 21.982 0.00414361
31.8379 25.7539 -0.00661268
29.8571 27.3778 2
29.1496 37.5179 3.8731
30.6012 37.5134 2
32.4149 37.5135 0.336039
31.3598 47.8693 0.0173023
30.7275 44.8308 0.0814231
31.0091 39.3928 0.247225
30.4497 41.9327 0.147335
29.5092 46.4908 2
29.5202 39.8724 2
29.1212 43.1005 2
27.7211 44.789 3.97085
27.3305 40.5915 3.94658
28.1289 48.1096 0.0409877
26.2755 46.5686 2
24.4214 45.1069 3.97637
24.9118 48.3887 0.0281422
23.1494 46.9862 2
21.2441 45.8174 3.97812
21.9379 48.7123 0.0296547
20.2516 47.549 2
18.5866 46.6775 3.97763
19.2749 49.0325 0.0279266
17.8939 48.1255 2
16.5371 47.6692 3.97698
16.3237 48.6407 2
15.355 48.9787 3.97449
17.085 49.2854 0.0264754
16.0124 50.1297 2
14.6063 50.9539 3.96913
13.8887 53.4131 3.9656
15.4872 52.3827 2
16.931 51.3652 0.032932
13.2672 56.1564 3.96529
14.9127 54.9559 2
16.4748 53.8389 0.0353519
12.8545 59.116 3.96997
14.4719 57.7244 2
15.9976 56.4559 0.0357858
12.681 62.2994 3.98106
14.271 60.6814 2
15.7586 59.1919 0.0326744
12.7746 65.6939 4
14.3331 63.855 2
15.7912 62.126 0.02731
14.6714 67.2507 2
16.0897 65.2993 0.011382
16.6661 68.6801 0
17.6834 17.1787 3.96875
18.9405 15.7993 2
17.5152 14.3868 3.97534
20.2238 14.6138 0.0242433
18.982 13.1211 2
17.64 11.4612 3.97894
20.5311 12.0073 0.0229504
19.3434 10.2406 2
18.0519 8.34052 3.98889
18.75 5.0241 4
19.9897 7.14856 2
21.1446 9.15145 0.0176886
20.9142 3.86727 2
22.0173 6.08261 0.00973349
23.1494 2.85457 0
29.5786 35.1804 3.87811
30.9757 35.614 2
32.5471 35.7376 0.360829
22.1085 16.6534 0.0287329
20.3169 16.981 0.0209416
21.7968 17.8768 2
19.2714 18.4301 2
18.0395 19.973 3.95904
20.9167 19.4095 3.97018
24.2182 18.4931 0.0272289
22.322 19.9333 2
24.646 21.3909 2
22.4382 21.7673 3.9788
24.8259 23.215 3.9742
25.7067 26.0065 3.97817
26.5585 23.7697 2
27.0646 21.5061 0.00668779
28.8636 32.4421 3.92332
30.4422 33.0803 2
31.7726 33.9374 0.252405
31.693 31.3446 0.147261
32.7084 28.267 0.0814347
30.4014 29.6728 2
27.3729 29.202 4.00774
28.1044 26.6244 2
28.949 24.4684 0.0160157
29.8656 27.4018 0.0230783
27.4405 37.3676 3.92605
29.0877 37.5073 2
30.6349 37.5129 0.239916
29.5092 46.4805 0.00030839
29.1514 43.069 0.0802049
29.5598 39.8531 0.12286
27.71 44.8176 2
27.309 40.5934 2
25.7553 43.0947 3.98829
24.587 39.4526 3.97429
26.2802 46.5675 0.0231993
24.4117 45.1074 2
22.3083 43.8651 3.97759
23.1507 46.9862 0.0248945
21.241 45.8172 2
19.3036 44.9113 3.97733
20.253 47.5503 0.0228481
18.5867 46.6764 2
16.8674 46.1648 3.9771
17.8931 48.1266 0.0231383
16.5383 47.6684 2
15.1059 47.6338 3.9759
16.3224 48.6415 0.0237068
15.3568 48.978 2
13.9105 49.5171 3.97141
16.0106 50.1305 0.0291315
14.6072 50.9534 2
12.9621 51.8541 3.96701
12.1606 54.5174 3.96537
13.8887 53.413 2
15.4863 52.3832 0.0332455
11.5403 57.4512 3.96929
13.2678 56.1565 2
14.9131 54.9558 0.03596
11.1357 60.6252 3.97914
12.8554 59.1156 2
14.4707 57.7243 0.0335135
10.9835 64.0165 4
12.679 62.2961 2
14.2706 60.6807 0.0287418
12.7745 65.694 2
14.3351 63.8574 0.0160235
14.6715 67.2507 0
16.4287 18.6741 3.96387
17.6832 17.1775 2
16.1094 15.7981 3.97145
18.9402 15.8002 0.02314
17.515 14.3861 2
16.0222 12.8162 3.9764
18.9822 13.121 0.0243173
17.6395 11.4613 2
16.203 9.66384 3.98803
19.344 10.2408 0.0188738
18.0498 8.34215 2
16.6661 6.31991 4
18.75 5.02404 2
19.9918 7.14733 0.0104226
20.9142 3.86727 0
27.9746 34.8173 3.91595
29.5334 35.1582 2
31.0283 35.6368 0.248491
16.7526 21.4085 3.96535
21.7966 17.8787 0.0188463
19.2717 18.4317 0.0306413
20.9158 19.4077 2
18.039 19.9722 2
19.8134 21.6146 3.96814
22.3237 19.933 0.032988
24.6469 21.3904 0.0122469
22.437 21.7677 2
24.8248 23.2144 2
23.0438 24.6584 3.97379
24.9152 28.5907 3.97886
25.7009 26.0038 2
26.5579 23.774 0.0254725
26.7133 31.7896 3.98001
28.8354 32.4204 2
30.485 33.105 0.134757
30.4126 29.6714 0.0591876
27.3919 29.1832 2
28.1161 26.6142 0.00917908
25.2707 36.8583 3.97868
27.4289 37.36 2
29.1496 37.5179 0.126904
27.7211 44.789 0.0291544
27.3305 40.5915 0.0534245
25.7369 43.1104 2
24.5688 39.4533 2
23.4804 41.8132 3.98053
22.3037 38.5216 3.97778
24.4214 45.1069 0.0236269
22.3076 43.8653 2
20.1432 42.8477 3.97653
21.2441 45.8174 0.0218836
19.304 44.9112 2
17.2483 44.3334 3.97661
18.5866 46.6775 0.0223659
16.8692 46.164 2
15.052 46.0544 3.97616
16.5371 47.6692 0.0230245
15.1073 47.6332 2
13.4323 47.981 3.97323
15.355 48.9787 0.0255092
13.9116 49.5166 2
12.1877 50.2341 3.96833
14.6063 50.9539 0.0308656
12.9624 51.8538 2
11.1595 52.8284 3.96588
10.3307 55.7064 3.96916
12.161 54.5173 2
13.8887 53.4131 0.0344029
9.70229 58.8476 3.97826
11.5409 57.4509 2
13.2672 56.1564 0.0347099
9.30605 62.2254 4
11.1341 60.6214 2
12.8545 59.116 0.0300253
10.9835 64.0165 2
12.681 62.2994 0.0189391
12.7746 65.6939 0
15.1849 20.2084 3.96337
16.429 18.6741 2
14.7619 17.3229 3.96487
17.6834 17.1787 0.0312535
16.1095 15.7966 2
14.4863 14.3008 3.97354
17.5152 14.3868 0.024664
16.0218 12.8159 2
14.4459 11.1155 3.98681
17.64 11.4612 0.021064
16.2009 9.66605 2
14.6715 7.74927 4
18.0519 8.34052 0.0111105
16.6661 6.31988 2
18.75 5.0241 0
25.9347 34.3118 3.98635
27.9521 34.8257 2
29.5786 35.1804 0.121891
17.969 22.362 3.97118
15.6325 22.9525 3.96825
16.7526 21.4087 2
20.9167 19.4095 0.0298194
18.0395 19.973 0.0409564
19.8128 21.614 2
19.88 24.4392 3.97073
22.4382 21.7673 0.0211968
24.8259 23.215 0.0258039
23.0404 24.6584 2
22.281 27.8971 3.97329
24.2708 31.2679 3.97659
24.9262 28.5922 2
25.7067 26.0065 0.0218337
26.6955 31.7569 2
28.8636 32.4421 0.0766764
27.3729 29.202 -0.00773994
23.0243 36.2879 3.98254
25.2564 36.8626 2
27.4405 37.3676 0.0739512
25.7553 43.0947 0.0117102
24.587 39.4526 0.0257134
23.4677 41.8125 2
22.2947 38.519 2
21.1911 40.6325 3.97537
20.5764 37.8031 3.97697
22.3083 43.8651 0.0224052
20.1416 42.8491 2
17.7124 42.0629 3.97627
19.3036 44.9113 0.0226745
17.2495 44.3336 2
15.0899 44.1647 3.97611
16.8674 46.1648 0.0229021
15.0533 46.0538 2
13.1253 46.2696 3.97434
15.1059 47.6338 0.0241026
13.4335 47.9805 2
11.5692 48.5321 3.96944
13.9105 49.5171 0.0285945
12.1885 50.2337 2
10.2879 51.0732 3.96622
12.9621 51.8541 0.0329866
11.16 52.8281 2
9.23947 53.8866 3.96907
8.38568 56.9811 3.97907
10.3313 55.7058 2
12.1606 54.5174 0.0346281
7.74927 60.3285 4
9.70103 58.8437 2
11.5403 57.4512 0.0307067
9.306 62.2255 2
11.1357 60.6252 0.0208553
10.9835 64.0165 0
14.0143 21.7746 3.96505
15.1846 20.2083 2
13.4628 18.9168 3.96552
16.4287 18.6741 0.0361313
14.7626 17.3226 2
13.0337 15.8983 3.97068
16.1094 15.7981 0.0285505
14.4855 14.2999 2
12.7837 12.6896 3.98417
16.0222 12.8162 0.0236027
14.4437 11.118 2
12.7746 9.30605 4
16.203 9.66384 0.0119749
14.6715 7.74924 2
16.6661 6.31991 0
23.6119 33.8493 3.98363
25.9102 34.3034 2
27.9746 34.8173 0.0840543
17.8166 24.0902 3.96996
17.9712 22.3624 2
14.4688 24.4866 3.96995
15.6336 22.9528 2
16.7526 21.4085 0.0346484
19.3434 27.2679 3.97235
19.8134 21.6146 0.0318559
19.8754 24.4392 2
21.6277 30.741 3.97565
23.0438 24.6584 0.0262087
22.2875 27.8992 2
24.2489 31.2689 2
24.9152 28.5907 0.021138
26.7133 31.7896 0.0199873
20.6984 35.9551 3.97657
23.0249 36.2874 2
25.2707 36.8583 0.0213187
23.4804 41.8132 0.0194746
22.3037 38.5216 0.0222237
21.1973 40.6328 2
20.5748 37.8014 2
18.4579 39.0021 3.97714
20.1432 42.8477 0.0234651
17.7126 42.0628 2
15.0751 41.8889 3.97665
17.2483 44.3334 0.02339
15.0911 44.1642 2
12.8866 44.369 3.97536
15.052 46.0544 0.0238356
13.1269 46.269 2
11.0815 46.7173 3.97038
13.4323 47.981 0.0267707
11.5701 48.5318 2
9.5543 49.2337 3.96643
12.1877 50.2341 0.0316736
10.2883 51.0729 2
8.27226 52.0007 3.96886
11.1595 52.8284 0.0341203
9.24009 53.8858 2
7.19465 55.0321 3.97983
6.31991 58.3339 4
8.38477 56.9774 2
10.3307 55.7064 0.0308385
7.74924 60.3285 2
9.70229 58.8476 0.0217442
9.30605 62.2254 0
13.3549 25.3917 3.97313
12.9091 23.3045 3.96727
14.0133 21.7746 2
12.2505 20.5623 3.96545
15.1849 20.2084 0.0366331
13.4641 18.9167 2
11.6646 17.5756 3.97025
14.7619 17.3229 0.0351298
13.0344 15.8973 2
11.222 14.3758 3.9795
14.4863 14.3008 0.0264561
12.7813 12.6927 2
10.9835 10.9835 4
14.4459 11.1155 0.0131897
12.7745 9.306 2
14.6715 7.74927 0
21.0627 33.4558 3.97571
23.612 33.8448 2
25.9347 34.3118 0.013646
16.1386 26.4484 3.97241
17.8169 24.0904 2
17.969 22.362 0.0288177
14.4691 24.4872 2
15.6325 22.9525 0.0317532
18.7313 30.2369 3.97495
19.3409 27.2683 2
19.88 24.4392 0.029269
21.6338 30.7413 2
22.281 27.8971 0.0267114
24.2708 31.2679 0.0234113
18.0698 35.9866 3.97786
20.7 35.9556 2
23.0243 36.2879 0.0174575
21.1911 40.6325 0.0246278
20.5764 37.8031 0.0230317
18.4559 39.0019 2
14.5807 39.169 3.97743
17.7124 42.0629 0.0237289
15.0759 41.8887 2
12.5816 42.2594 3.97649
15.0899 44.1647 0.0238858
12.8879 44.3685 2
10.6684 44.7884 3.97159
13.1253 46.2696 0.025659
11.0826 46.717 2
8.93922 47.3134 3.96671
11.5692 48.5321 0.0305557
9.55443 49.2334 2
7.43912 50.0344 3.96848
10.2879 51.0732 0.0337831
8.2727 51.9999 2
6.13529 53.0074 3.98023
9.23947 53.8866 0.0309324
7.19412 55.0291 2
5.0241 56.25 4
6.31988 58.3339 2
8.38568 56.9811 0.0209311
7.74927 60.3285 0
13.622 26.8458 3.97272
12.0194 24.8088 3.96931
13.3544 25.392 2
11.1663 22.2457 3.96595
12.9096 23.3049 2
14.0143 21.7746 0.0349457
12.2515 20.5623 2
10.3957 19.3267 3.96962
13.4628 18.9168 0.0344755
11.6658 17.576 2
9.76291 16.1596 3.97825
13.0337 15.8983 0.0293152
11.22 14.3801 2
9.30607 12.7746 4
12.7837 12.6896 0.015829
10.9835 10.9835 2
12.7746 9.30605 0
18.2416 33.1637 3.97698
21.0635 33.4576 2
23.6119 33.8493 0.0163656
15.7618 29.6817 3.97535
16.1388 26.4491 2
17.8166 24.0902 0.030035
14.4688 24.4866 0.0300498
18.7305 30.2378 2
19.3434 27.2679 0.0276545
21.6277 30.741 0.0243521
15.2009 36.036 3.97759
18.0698 35.9865 2
20.6984 35.9551 0.0234324
12.8123 37.8303 3.97771
18.4579 39.0021 0.022861
14.5813 39.1688 2
12.0861 40.1316 3.97732
15.0751 41.8889 0.0233541
12.583 42.259 2
10.2747 42.7672 3.97165
12.8866 44.369 0.0246388
10.6694 44.7881 2
8.4185 45.316 3.96709
11.0815 46.7173 0.0296156
8.93891 47.3131 2
6.73024 47.9998 3.96824
9.5543 49.2337 0.0335699
7.4394 50.0337 2
5.21209 50.9108 3.97992
8.27226 52.0007 0.031141
6.13504 53.0054 2
3.86727 54.0858 4
7.19465 55.0321 0.0201736
5.02404 56.25 2
6.31991 58.3339 0
13.1007 29.0625 3.97235
11.4638 26.5079 3.96981
13.6218 26.8462 2
10.2276 23.9769 3.96671
12.0208 24.8092 2
13.3549 25.3917 0.0268734
9.24806 21.1425 3.96902
11.1667 22.2458 2
12.9091 23.3045 0.0327264
12.2505 20.5623 0.0345507
10.397 19.3273 2
8.4185 18.0303 3.97853
11.6646 17.5756 0.0297459
9.76136 16.1643 2
7.74928 14.6715 4
11.222 14.3758 0.0204976
9.30602 12.7745 2
10.9835 10.9835 0
14.7541 32.8975 3.97709
18.2401 33.1634 2
21.0627 33.4558 0.0242932
15.7633 29.6825 2
16.1386 26.4484 0.027591
18.7313 30.2369 0.0250484
13.1043 36.2201 3.97727
15.2006 36.0359 2
18.0698 35.9866 0.0221411
12.8142 37.83 2
11.4294 38.3083 3.97738
14.5807 39.169 0.0225659
12.0887 40.1312 2
9.85796 40.7478 3.97202
12.5816 42.2594 0.0235106
10.2767 42.7669 2
7.9684 43.2659 3.96756
10.6684 44.7884 0.0284099
8.41892 45.3157 2
6.13629 45.905 3.96812
8.93922 47.3134 0.0332898
6.73048 47.9992 2
4.42355 48.7515 3.97934
7.43912 50.0344 0.0315226
5.21201 50.9097 2
2.85457 51.8506 4
6.13529 53.0074 0.019771
3.86727 54.0858 2
5.0241 56.25 0
12.2433 31.2803 3.97347
10.8857 28.4339 3.97004
13.1021 29.0631 2
9.44564 25.8061 3.96707
11.4648 26.5083 2
13.622 26.8458 0.0272835
8.23484 23.0257 3.96889
10.2281 23.9772 2
12.0194 24.8088 0.0306887
7.20059 19.9797 3.97934
9.24915 21.1433 2
11.1663 22.2457 0.0340466
10.3957 19.3267 0.0303769
8.41765 18.0348 2
6.31992 16.6661 4
9.76291 16.1596 0.0217494
7.74926 14.6714 2
9.30607 12.7746 0
12.2709 34.3127 3.97723
14.7553 32.8983 2
18.2416 33.1637 0.0230182
15.7618 29.6817 0.0246517
10.9755 36.6156 3.97693
13.1057 36.22 2
15.2009 36.036 0.0224127
12.8123 37.8303 0.0222904
11.4323 38.3082 2
9.44389 38.8212 3.97272
12.0861 40.1316 0.0226844
9.85932 40.7476 2
7.57838 41.2089 3.96812
10.2747 42.7672 0.0283537
7.96775 43.2657 2
5.64795 43.768 3.96828
8.4185 45.316 0.0329096
6.13646 45.9045 2
3.7691 46.537 3.97895
6.73024 47.9998 0.0317573
4.42369 48.7509 2
1.99014 49.554 4
5.21209 50.9108 0.0200795
2.85451 51.8506 2
3.86727 54.0858 0
11.0652 32.935 3.97558
10.2 30.3979 3.9707
12.2451 31.2809 2
8.75757 27.7392 3.96719
10.8868 28.4343 2
13.1007 29.0625 0.0276452
7.36019 24.9839 3.96865
9.44571 25.8064 2
11.4638 26.5079 0.0301936
6.11754 22.0027 3.9801
8.23551 23.0264 2
10.2276 23.9769 0.0332888
5.02411 18.75 4
7.20021 19.9832 2
9.24806 21.1425 0.0309803
8.4185 18.0303 0.0214701
6.3199 16.6661 2
7.74928 14.6715 0
10.5741 35.0087 3.97615
12.2733 34.3133 2
14.7541 32.8975 0.0229055
9.10552 36.9865 3.97323
10.9782 36.6157 2
13.1043 36.2201 0.0227258
11.4294 38.3083 0.0226163
9.44539 38.8211 2
7.25535 39.1814 3.96846
9.85796 40.7478 0.0279833
7.57853 41.2087 2
5.26285 41.6139 3.96841
7.9684 43.2659 0.0324368
5.64808 43.7677 2
3.24674 44.2818 3.97912
6.13629 45.905 0.0318788
3.76932 46.5366 2
1.27781 47.2057 4
4.42355 48.7515 0.0206605
1.99012 49.554 2
2.85457 51.8506 0
10.2113 33.8923 3.97637
9.48109 32.166 3.97154
11.0674 32.9354 2
8.10356 29.7015 3.96766
10.2014 30.3983 2
12.2433 31.2803 0.0265251
6.60361 27.0095 3.96854
8.75722 27.7395 2
10.8857 28.4339 0.0299583
5.17292 24.0952 3.98003
7.36054 24.9845 2
9.44564 25.8061 0.0329341
3.86728 20.9142 4
6.11741 22.0047 2
8.23484 23.0257 0.0311056
5.02406 18.75 2
7.20059 19.9797 0.0206571
6.31992 16.6661 0
8.92623 35.2843 3.97333
10.5763 35.0089 2
12.2709 34.3127 0.0227746
7.03419 37.2066 3.9684
9.10695 36.9865 2
10.9755 36.6156 0.0230666
9.44389 38.8212 0.0272802
7.2559 39.1812 2
4.99042 39.4674 3.96856
7.57838 41.2089 0.0318824
5.26334 41.6136 2
2.85709 42.0021 3.97929
5.64795 43.768 0.03172
3.24683 44.2815 2
0.720592 44.8159 4
3.7691 46.537 0.0210516
1.27778 47.2057 2
1.99014 49.554 0
8.96759 33.7056 3.97279
10.2133 33.8926 2
7.53742 31.6136 3.96797
9.4827 32.1663 2
11.0652 32.935 0.0244153
5.94845 29.0703 3.96867
8.10304 29.7017 2
10.2 30.3979 0.0293045
4.36053 26.2475 3.97959
6.60379 27.0099 2
8.75757 27.7392 0.0328072
2.85458 23.1494 4
5.17293 24.0961 2
7.36019 24.9839 0.0313536
3.86728 20.9142 2
6.11754 22.0027 0.0198957
5.02411 18.75 0
6.98226 35.3079 3.96836
8.92763 35.2844 2
10.5741 35.0087 0.0238455
4.84055 37.3399 3.9689
7.03489 37.2065 2
9.10552 36.9865 0.026766
7.25535 39.1814 0.0315394
4.99092 39.4673 2
2.60511 39.7137 3.97927
5.26285 41.6139 0.0315895
2.85747 42.002 2
0.320823 42.3947 4
3.24674 44.2818 0.0208829
0.720551 44.8159 2
1.27781 47.2057 0
7.14652 33.464 3.96815
8.96887 33.7058 2
10.2113 33.8923 0.0236269
5.41904 31.134 3.96892
7.53734 31.6138 2
9.48109 32.166 0.0284618
3.68211 28.4435 3.97931
5.94863 29.0707 2
8.10356 29.7015 0.032342
1.99015 25.446 4
4.36063 26.2479 2
6.60361 27.0095 0.0314645
2.85453 23.1494 2
5.17292 24.0952 0.0199717
3.86728 20.9142 0
4.85489 35.2518 3.96894
6.98225 35.308 2
8.92623 35.2843 0.0266728
2.49655 37.4284 3.97996
4.8406 37.34 2
7.03419 37.2066 0.031599
4.99042 39.4674 0.0314399
2.60559 39.7141 2
0.080333 39.9526 4
2.85709 42.0021 0.0207149
0.320817 42.3947 2
0.720592 44.8159 0
5.04832 33.1905 3.96895
7.14658 33.4641 2
8.96759 33.7056 0.0272064
3.1463 30.6662 3.97938
5.41921 31.1345 2
7.53742 31.6136 0.0320266
1.27793 27.7943 4
3.68234 28.4437 2
5.94845 29.0703 0.0313253
1.99013 25.446 2
4.36053 26.2475 0.0204055
2.85458 23.1494 0
2.54866 35.159 3.97973
4.85547 35.2521 2
6.98226 35.3079 0.0316422
0 37.5 4
2.4966 37.4288 2
4.84055 37.3399 0.0310983
2.60511 39.7137 0.0207321
0.0802903 39.9526 2
0.320823 42.3947 0
2.7663 32.9057 3.97986
5.04849 33.1909 2
7.14652 33.464 0.0318457
0.721173 30.1842 4
3.14656 30.6666 2
5.41904 31.134 0.0310757
1.27779 27.7943 2
3.68211 28.4435 0.0206915
1.99015 25.446 0
0.0806499 35.0474 4
2.54922 35.1594 2
4.85489 35.2518 0.0310554
0 37.5 2
2.49655 37.4284 0.0200378
0.080333 39.9526 0
0.32156 32.6054 4
2.76642 32.9063 2
5.04832 33.1905 0.0310463
0.72056 30.1841 2
3.1463 30.6662 0.0206231
1.27793 27.7943 0
0.0802889 35.0474 2
2.54866 35.159 0.0202725
0 37.5 0
0.320817 32.6053 2
2.7663 32.9057 0.0201441
0.721173 30.1842 0
0.0806499 35.0474 0
0.32156 32.6054 0
CELLS 1910 17190
8 18 6 25 56 2 0 5 16
8 57 23 6 18 17 4 0 2
8 78 36 9 29 31 11 1 7
8 31 11 1 7 79 37 10 30
8 110 57 18 50 48 17 2 14
8 50 18 56 111 14 2 16 49
8 116 62 22 55 52 20 3 15
8 56 25 67 118 16 5 24 53
8 119 63 23 57 54 21 4 17
8 55 22 63 119 15 3 21 54
8 58 26 68 121 18 6 25 56
8 122 65 26 58 57 23 6 18
8 73 31 7 27 142 79 30 71
8 143 78 29 72 73 31 7 27
8 83 147 76 34 32 74 28 8
8 84 148 78 36 33 75 29 9
8 76 34 8 28 148 84 33 75
8 37 79 150 86 10 30 77 35
8 151 87 36 78 80 38 11 31
8 80 38 11 31 152 88 37 79
8 175 100 42 94 96 44 12 40
8 44 96 176 101 12 40 95 43
8 101 176 98 46 43 95 41 13
8 46 98 178 103 13 41 97 45
8 178 103 45 97 147 83 32 74
8 189 116 55 109 106 52 15 47
8 111 56 118 191 49 16 53 107
8 192 119 57 110 108 54 17 48
8 109 55 119 192 47 15 54 108
8 194 122 58 112 110 57 18 50
8 112 58 121 195 50 18 56 111
8 115 61 19 51 197 124 59 113
8 115 61 125 198 51 19 60 114
8 198 125 62 116 114 60 20 52
8 200 127 64 120 116 62 22 55
8 118 67 132 202 53 24 66 117
8 121 68 133 203 56 25 67 118
8 120 64 128 204 55 22 63 119
8 204 128 65 122 119 63 23 57
8 206 134 68 121 123 69 26 58
8 123 69 26 58 207 131 65 122
8 226 147 74 138 140 76 28 70
8 229 148 75 139 143 78 29 72
8 140 76 28 70 229 148 75 139
8 142 79 30 71 231 150 77 141
8 144 80 31 73 232 152 79 142
8 233 151 78 143 144 80 31 73
8 150 86 35 77 235 154 81 145
8 235 154 81 145 146 82 39 91
8 146 82 39 91 236 155 90 165
8 238 157 83 147 149 85 34 76
8 239 158 84 148 151 87 36 78
8 149 85 34 76 239 158 84 148
8 152 88 37 79 241 160 86 150
8 242 161 87 151 153 89 38 80
8 153 89 38 80 243 162 88 152
8 171 98 41 92 265 178 97 169
8 265 178 97 169 226 147 74 138
8 172 96 40 93 266 176 95 170
8 266 176 95 170 171 98 41 92
8 269 175 94 173 172 96 40 93
8 271 180 99 174 175 100 42 94
8 197 124 59 113 271 180 99 174
8 272 181 100 175 177 102 44 96
8 273 182 101 176 179 104 46 98
8 177 102 44 96 273 182 101 176
8 179 104 46 98 275 184 103 178
8 275 184 103 178 238 157 83 147
8 188 115 51 105 283 197 113 186
8 188 115 198 284 105 51 114 187
8 284 198 116 189 187 114 52 106
8 286 200 120 193 189 116 55 109
8 191 118 202 288 107 53 117 190
8 195 121 203 289 111 56 118 191
8 193 120 204 290 109 55 119 192
8 290 204 122 194 192 119 57 110
8 196 123 58 112 292 207 122 194
8 293 206 121 195 196 123 58 112
8 199 126 61 115 297 211 124 197
8 298 212 127 200 198 125 62 116
8 199 126 212 298 115 61 125 198
8 205 129 64 120 300 214 127 200
8 301 217 130 201 202 132 66 117
8 209 136 168 264 301 217 130 201
8 302 219 132 202 203 133 67 118
8 303 220 133 203 206 134 68 121
8 205 129 215 304 120 64 128 204
8 304 215 131 207 204 128 65 122
8 306 221 134 206 208 135 69 123
8 208 135 69 123 307 218 131 207
8 210 137 167 263 309 223 136 209
8 328 238 147 226 230 149 76 140
8 228 146 91 166 329 236 165 260
8 231 150 77 141 330 235 145 227
8 330 235 145 227 228 146 91 166
8 332 239 148 229 233 151 78 143
8 230 149 76 140 332 239 148 229
8 232 152 79 142 334 241 150 231
8 234 153 80 144 335 243 152 232
8 336 242 151 233 234 153 80 144
8 236 155 90 165 338 245 164 259
8 241 160 86 150 339 246 154 235
8 339 246 154 235 237 156 82 146
8 237 156 82 146 340 247 155 236
8 342 249 157 238 240 159 85 149
8 343 250 158 239 242 161 87 151
8 240 159 85 149 343 250 158 239
8 243 162 88 152 345 252 160 241
8 244 163 253 346 153 89 161 242
8 244 163 89 153 347 254 162 243
8 311 224 261 371 210 137 167 263
8 263 167 262 372 209 136 168 264
8 267 179 98 171 375 275 178 265
8 375 275 178 265 328 238 147 226
8 376 273 176 266 267 179 98 171
8 268 177 96 172 376 273 176 266
8 379 272 175 269 268 177 96 172
8 380 271 174 270 269 175 94 173
8 283 197 113 186 380 271 174 270
8 381 277 180 271 272 181 100 175
8 297 211 124 197 381 277 180 271
8 382 278 181 272 274 183 102 177
8 274 183 102 177 383 279 182 273
8 383 279 182 273 276 185 104 179
8 385 281 184 275 342 249 157 238
8 276 185 104 179 385 281 184 275
8 285 199 115 188 393 297 197 283
8 394 298 200 286 284 198 116 189
8 285 199 298 394 188 115 198 284
8 291 205 120 193 396 300 200 286
8 397 301 201 287 288 202 117 190
8 295 209 264 374 397 301 201 287
8 398 302 202 288 289 203 118 191
8 399 303 203 289 293 206 121 195
8 291 205 304 400 193 120 204 290
8 400 304 207 292 290 204 122 194
8 294 208 123 196 402 307 207 292
8 403 306 206 293 294 208 123 196
8 296 210 263 373 405 309 209 295
8 408 312 213 299 297 211 126 199
8 299 213 313 409 199 126 212 298
8 409 313 214 300 298 212 127 200
8 305 216 129 205 411 315 214 300
8 412 318 217 301 302 219 132 202
8 309 223 136 209 412 318 217 301
8 413 320 219 302 303 220 133 203
8 306 221 321 414 206 134 220 303
8 307 218 131 207 415 316 215 304
8 305 216 316 415 205 129 215 304
8 417 322 221 306 308 222 135 208
8 308 222 135 208 418 319 218 307
8 310 225 137 210 420 325 223 309
8 423 326 224 311 310 225 137 210
8 329 236 165 260 441 338 259 368
8 442 342 238 328 333 240 149 230
8 331 237 146 228 443 340 236 329
8 334 241 150 231 444 339 235 330
8 444 339 235 330 331 237 146 228
8 446 343 239 332 336 242 151 233
8 333 240 149 230 446 343 239 332
8 335 243 152 232 448 345 241 334
8 337 244 153 234 449 347 243 335
8 337 244 346 450 234 153 242 336
8 338 245 164 259 452 349 258 367
8 340 247 155 236 453 350 245 338
8 345 252 160 241 454 351 246 339
8 454 351 246 339 341 248 156 237
8 341 248 156 237 455 352 247 340
8 240 159 251 344 342 249 354 457
8 242 161 253 346 343 250 355 458
8 343 250 355 458 240 159 251 344
8 347 254 162 243 460 357 252 345
8 348 255 358 461 244 163 253 346
8 348 255 163 244 462 359 254 347
8 473 360 257 365 363 256 364 482
8 452 349 258 367 365 257 366 485
8 422 324 369 488 311 224 261 371
8 371 261 370 490 263 167 262 372
8 407 311 371 491 296 210 263 373
8 373 263 372 492 295 209 264 374
8 493 385 275 375 442 342 238 328
8 377 276 179 267 493 385 275 375
8 378 274 177 268 494 383 273 376
8 494 383 273 376 377 276 179 267
8 497 382 272 379 378 274 177 268
8 498 381 271 380 379 272 175 269
8 393 297 197 283 498 381 271 380
8 499 387 277 381 382 278 181 272
8 408 312 211 297 499 387 277 381
8 500 388 278 382 384 280 183 274
8 501 389 279 383 386 282 185 276
8 384 280 183 274 501 389 279 383
8 386 282 185 276 503 391 281 385
8 503 391 281 385 457 354 249 342
8 511 408 299 395 393 297 199 285
8 395 299 409 512 285 199 298 394
8 512 409 300 396 394 298 200 286
8 401 305 205 291 514 411 300 396
8 515 412 301 397 398 302 202 288
8 405 309 209 295 515 412 301 397
8 516 413 302 398 399 303 203 289
8 403 306 414 517 293 206 303 399
8 402 307 207 292 518 415 304 400
8 401 305 415 518 291 205 304 400
8 404 308 208 294 520 418 307 402
8 521 417 306 403 404 308 208 294
8 406 310 210 296 523 420 309 405
8 526 423 311 407 406 310 210 296
8 410 314 213 299 527 424 312 408
8 528 425 315 411 409 313 214 300
8 410 314 425 528 299 213 313 409
8 416 317 216 305 530 427 315 411
8 531 430 318 412 413 320 219 302
8 420 325 223 309 531 430 318 412
8 532 432 320 413 414 321 220 303
8 417 322 433 533 306 221 321 414
8 418 319 218 307 534 428 316 415
8 416 317 428 534 305 216 316 415
8 419 323 434 536 308 222 322 417
8 419 323 222 308 537 431 319 418
8 421 327 225 310 539 438 325 420
8 421 327 439 541 310 225 326 423
8 543 437 324 422 423 326 224 311
8 441 338 259 368 559 452 367 486
8 443 340 236 329 560 453 338 441
8 333 240 344 447 442 342 457 561
8 445 341 237 331 562 455 340 443
8 448 345 241 334 563 454 339 444
8 563 454 339 444 445 341 237 331
8 336 242 346 450 446 343 458 565
8 446 343 458 565 333 240 344 447
8 449 347 243 335 567 460 345 448
8 451 348 244 337 568 462 347 449
8 451 348 461 569 337 244 346 450
8 570 463 349 452 473 360 257 365
8 453 350 245 338 570 463 349 452
8 455 352 247 340 571 464 350 453
8 460 357 252 345 572 465 351 454
8 572 465 351 454 456 353 248 341
8 456 353 248 341 573 466 352 455
8 344 251 356 459 457 354 468 575
8 458 355 469 576 344 251 356 459
8 346 253 358 461 458 355 469 576
8 462 359 254 347 578 471 357 460
8 348 255 359 462 461 358 472 579
8 591 474 360 473 475 361 256 363
8 475 361 256 363 594 477 362 479
8 363 256 364 482 479 362 480 603
8 590 473 365 484 481 363 482 605
8 482 364 257 365 606 483 366 485
8 559 452 367 486 484 365 485 607
8 542 436 487 609 422 324 369 488
8 525 422 488 611 407 311 371 491
8 488 369 489 612 371 261 370 490
8 491 371 490 613 373 263 372 492
8 495 386 276 377 614 503 385 493
8 614 503 385 493 561 457 342 442
8 615 501 383 494 495 386 276 377
8 496 384 274 378 615 501 383 494
8 618 500 382 497 496 384 274 378
8 619 499 381 498 497 382 272 379
8 511 408 297 393 619 499 381 498
8 620 505 387 499 500 388 278 382
8 527 424 312 408 620 505 387 499
8 502 390 506 621 384 280 388 500
8 622 507 389 501 504 392 282 386
8 502 390 280 384 622 507 389 501
8 504 392 282 386 624 509 391 503
8 624 509 391 503 575 468 354 457
8 513 410 299 395 630 527 408 511
8 631 528 411 514 512 409 300 396
8 513 410 528 631 395 299 409 512
8 519 416 305 401 633 530 411 514
8 634 531 412 515 516 413 302 398
8 523 420 309 405 634 531 412 515
8 635 532 413 516 517 414 303 399
8 521 417 533 636 403 306 414 517
8 520 418 307 402 637 534 415 518
8 519 416 534 637 401 305 415 518
8 522 419 308 404 639 537 418 520
8 522 419 536 640 404 308 417 521
8 524 421 310 406 642 539 420 523
8 524 421 541 644 406 310 423 526
8 646 543 422 525 526 423 311 407
8 529 426 314 410 647 544 424 527
8 528 425 545 648 411 315 427 530
8 529 426 545 648 410 314 425 528
8 535 429 317 416 649 546 427 530
8 650 548 430 531 532 432 320 413
8 539 438 325 420 650 548 430 531
8 533 433 550 651 414 321 432 532
8 536 434 551 652 417 322 433 533
8 537 431 319 418 653 547 428 534
8 535 429 547 653 416 317 428 534
8 538 435 552 654 419 323 434 536
8 538 435 323 419 655 549 431 537
8 540 440 327 421 657 556 438 539
8 540 440 557 659 421 327 439 541
8 541 439 555 660 423 326 437 543
8 661 554 436 542 543 437 324 422
8 676 570 452 559 590 473 365 484
8 560 453 338 441 676 570 452 559
8 562 455 340 443 677 571 453 560
8 447 344 459 566 561 457 575 678
8 564 456 341 445 679 573 455 562
8 567 460 345 448 680 572 454 563
8 680 572 454 563 564 456 341 445
8 565 458 576 682 447 344 459 566
8 450 346 461 569 565 458 576 682
8 568 462 347 449 684 578 460 567
8 451 348 462 568 569 461 579 685
8 686 580 463 570 591 474 360 473
8 571 464 350 453 686 580 463 570
8 573 466 352 455 687 581 464 571
8 572 465 582 688 460 357 471 578
8 574 467 582 688 456 353 465 572
8 574 467 353 456 689 583 466 573
8 459 356 470 577 575 468 585 691
8 576 469 586 692 459 356 470 577
8 461 358 472 579 576 469 586 692
8 462 359 471 578 579 472 588 694
8 704 591 473 590 593 475 363 481
8 595 476 592 705 475 361 474 591
8 593 475 363 481 707 594 479 602
8 594 477 362 479 709 598 478 600
8 595 476 361 475 711 597 477 594
8 479 362 480 603 600 478 601 720
8 481 363 482 605 602 479 603 722
8 603 480 364 482 723 604 483 606
8 605 482 365 484 724 606 485 607
8 656 553 608 726 542 436 487 609
8 645 542 609 728 525 422 488 611
8 609 487 610 729 488 369 489 612
8 611 488 612 730 491 371 490 613
8 616 504 386 495 731 624 503 614
8 731 624 503 614 678 575 457 561
8 732 622 501 615 616 504 386 495
8 617 502 384 496 732 622 501 615
8 617 502 621 735 496 384 500 618
8 736 620 499 619 618 500 382 497
8 630 527 408 511 736 620 499 619
8 621 506 626 737 500 388 505 620
8 647 544 424 527 737 626 505 620
8 623 508 627 738 502 390 506 621
8 623 508 390 502 739 628 507 622
8 625 510 628 739 504 392 507 622
8 740 629 509 624 691 585 468 575
8 625 510 392 504 740 629 509 624
8 632 529 410 513 744 647 527 630
8 631 528 648 745 514 411 530 633
8 632 529 648 745 513 410 528 631
8 638 535 416 519 746 649 530 633
8 747 650 531 634 635 532 413 516
8 642 539 420 523 747 650 531 634
8 636 533 651 748 517 414 532 635
8 640 536 652 749 521 417 533 636
8 639 537 418 520 750 653 534 637
8 638 535 653 750 519 416 534 637
8 641 538 419 522 751 655 537 639
8 641 538 654 752 522 419 536 640
8 643 540 421 524 753 657 539 642
8 643 540 659 755 524 421 541 644
8 644 541 660 757 526 423 543 646
8 758 661 542 645 646 543 422 525
8 529 426 544 647 648 545 662 759
8 530 427 545 648 649 546 663 760
8 535 429 546 649 653 547 664 761
8 762 666 548 650 651 550 432 532
8 657 556 438 539 762 666 548 650
8 652 551 668 763 533 433 550 651
8 654 552 669 764 536 434 551 652
8 655 549 431 537 765 665 547 653
8 538 435 549 655 654 552 667 766
8 661 554 671 768 542 436 553 656
8 658 558 440 540 769 674 556 657
8 658 558 675 770 540 440 557 659
8 659 557 673 771 541 439 555 660
8 660 555 672 772 543 437 554 661
8 788 686 570 676 704 591 473 590
8 677 571 453 560 788 686 570 676
8 679 573 455 562 789 687 571 677
8 566 459 577 683 678 575 691 790
8 681 574 456 564 791 689 573 679
8 680 572 688 792 567 460 578 684
8 681 574 688 792 564 456 572 680
8 682 576 692 794 566 459 577 683
8 569 461 579 685 682 576 692 794
8 568 462 578 684 685 579 694 796
8 687 581 464 571 798 696 580 686
8 798 696 580 686 705 592 474 591
8 689 583 466 573 799 697 581 687
8 688 582 698 800 578 471 588 694
8 690 584 698 800 574 467 582 688
8 690 584 467 574 801 699 583 689
8 693 587 701 803 577 470 585 691
8 693 587 470 577 804 702 586 692
8 695 589 702 804 579 472 586 692
8 695 589 472 579 805 703 588 694
8 708 595 705 813 593 475 591 704
8 710 596 706 814 595 476 592 705
8 707 594 479 602 816 709 600 719
8 708 595 475 593 817 711 594 707
8 709 598 478 600 819 715 599 717
8 711 597 477 594 820 714 598 709
8 710 596 476 595 822 713 597 711
8 600 478 601 720 717 599 718 832
8 602 479 603 722 719 600 720 834
8 720 601 480 603 835 721 604 723
8 722 603 482 605 836 723 606 724
8 767 670 725 839 656 553 608 726
8 756 656 726 841 645 542 609 728
8 726 608 727 842 609 487 610 729
8 728 609 729 843 611 488 612 730
8 844 740 624 731 790 691 575 678
8 733 625 504 616 844 740 624 731
8 734 623 502 617 845 739 622 732
8 733 625 739 845 616 504 622 732
8 734 623 738 846 617 502 621 735
8 735 621 737 847 618 500 620 736
8 744 647 527 630 847 737 620 736
8 621 506 627 738 737 626 741 848
8 647 544 626 737 759 662 741 848
8 623 508 628 739 738 627 742 849
8 740 629 585 691 850 743 700 802
8 625 510 629 740 739 628 743 850
8 632 529 647 744 745 648 759 854
8 633 530 648 745 746 649 760 855
8 638 535 649 746 750 653 761 856
8 857 762 650 747 748 651 532 635
8 753 657 539 642 857 762 650 747
8 749 652 763 858 636 533 651 748
8 752 654 764 859 640 536 652 749
8 751 655 537 639 860 765 653 750
8 641 538 655 751 752 654 766 861
8 754 658 540 643 862 769 657 753
8 754 658 770 863 643 540 659 755
8 755 659 771 864 644 541 660 757
8 758 661 768 866 645 542 656 756
8 757 660 772 867 646 543 661 758
8 759 662 773 868 648 545 663 760
8 649 546 663 760 761 664 774 871
8 765 665 547 653 872 775 664 761
8 873 777 666 762 763 668 550 651
8 769 674 556 657 873 777 666 762
8 764 669 779 874 652 551 668 763
8 654 552 667 766 764 669 778 875
8 655 549 665 765 766 667 776 876
8 768 671 782 877 656 553 670 767
8 772 672 783 878 661 554 671 768
8 658 558 674 769 770 675 786 879
8 659 557 675 770 771 673 785 881
8 882 784 672 772 771 673 555 660
8 789 687 571 677 897 798 686 788
8 897 798 686 788 813 705 591 704
8 791 689 573 679 898 799 687 789
8 795 693 803 900 683 577 691 790
8 793 690 574 681 901 801 689 791
8 792 688 800 902 684 578 694 796
8 793 690 800 902 681 574 688 792
8 795 693 577 683 903 804 692 794
8 797 695 804 903 685 579 692 794
8 797 695 579 685 904 805 694 796
8 905 806 697 799 798 696 581 687
8 814 706 806 905 705 592 696 798
8 689 583 697 799 801 699 808 907
8 800 698 809 908 694 588 703 805
8 690 584 699 801 800 698 809 908
8 803 701 810 909 691 585 700 802
8 693 587 702 804 803 701 811 910
8 695 589 703 805 804 702 812 911
8 818 710 814 919 708 595 705 813
8 821 712 815 920 710 596 706 814
8 816 709 600 719 922 819 717 831
8 817 711 594 707 923 820 709 816
8 818 710 595 708 924 822 711 817
8 819 715 599 717 926 827 716 829
8 820 714 598 709 927 826 715 819
8 929 825 713 822 820 714 597 711
8 821 712 596 710 930 824 713 822
8 717 599 718 832 829 716 830 942
8 719 600 720 834 831 717 832 944
8 832 718 601 720 945 833 721 835
8 834 720 603 722 946 835 723 836
8 869 780 838 950 767 670 725 839
8 865 767 839 952 756 656 726 841
8 839 725 840 953 726 608 727 842
8 841 726 842 954 728 609 729 843
8 844 740 691 790 955 850 802 899
8 733 625 740 844 845 739 850 955
8 734 623 739 845 846 738 849 956
8 735 621 738 846 847 737 848 957
8 744 647 737 847 854 759 848 957
8 738 627 742 849 848 741 851 958
8 848 741 851 958 759 662 773 868
8 850 743 700 802 959 852 807 906
8 849 742 628 739 959 852 743 850
8 854 759 868 965 745 648 760 855
8 746 649 760 855 856 761 871 966
8 860 765 653 750 967 872 761 856
8 968 873 762 857 858 763 651 748
8 862 769 657 753 968 873 762 857
8 859 764 874 969 749 652 763 858
8 752 654 766 861 859 764 875 970
8 751 655 765 860 861 766 876 971
8 754 658 769 862 863 770 879 972
8 755 659 770 863 864 771 881 974
8 976 882 772 867 864 771 660 757
8 866 768 877 977 756 656 767 865
8 867 772 878 978 758 661 768 866
8 760 663 773 868 871 774 883 980
8 870 781 837 948 982 890 780 869
8 982 890 780 869 877 782 670 767
8 761 664 774 871 872 775 884 984
8 876 776 665 765 985 885 775 872
8 873 777 668 763 986 887 779 874
8 769 674 777 873 879 786 887 986
8 764 669 778 875 874 779 888 987
8 766 667 776 876 875 778 886 988
8 878 783 892 989 768 671 782 877
8 878 783 672 772 990 893 784 882
8 880 787 675 770 991 896 786 879
8 880 787 895 992 770 675 785 881
8 881 785 894 993 771 673 784 882
8 1006 905 799 898 897 798 687 789
8 919 814 905 1006 813 705 798 897
8 791 689 799 898 901 801 907 1007
8 900 803 909 1009 790 691 802 899
8 795 693 804 903 900 803 910 1010
8 902 800 908 1011 796 694 805 904
8 793 690 801 901 902 800 908 1011
8 797 695 805 904 903 804 911 1012
8 799 697 806 905 907 808 912 1013
8 920 815 912 1013 814 706 806 905
8 802 700 810 909 906 807 913 1014
8 801 699 808 907 908 809 914 1015
8 805 703 809 908 911 812 915 1016
8 803 701 811 910 909 810 916 1017
8 911 812 917 1018 804 702 811 910
8 925 821 920 1030 818 710 814 919
8 928 823 921 1031 821 712 815 920
8 922 819 717 831 1033 926 829 941
8 923 820 709 816 1034 927 819 922
8 1035 929 822 924 923 820 711 817
8 925 821 710 818 1036 930 822 924
8 1038 933 825 929 927 826 714 820
8 926 827 716 829 1039 935 828 939
8 927 826 715 819 1040 934 827 926
8 928 823 712 821 1041 931 824 930
8 1042 932 824 930 929 825 713 822
8 829 716 830 942 939 828 940 1058
8 831 717 832 944 941 829 942 1060
8 942 830 718 832 1061 943 833 945
8 944 832 720 834 1062 945 835 946
8 981 889 947 1064 870 781 837 948
8 948 837 949 1067 869 780 838 950
8 975 869 950 1069 865 767 839 952
8 950 838 951 1070 839 725 840 953
8 952 839 953 1071 841 726 842 954
8 955 850 802 899 1072 959 906 1008
8 956 849 739 845 1072 959 850 955
8 846 738 849 956 957 848 958 1073
8 957 848 958 1073 854 759 868 965
8 849 742 852 959 958 851 961 1076
8 960 853 961 1076 906 807 852 959
8 958 851 961 1076 868 773 883 980
8 960 853 807 906 1077 963 913 1014
8 855 760 868 965 966 871 980 1085
8 856 761 871 966 967 872 984 1086
8 971 876 765 860 1087 985 872 967
8 968 873 763 858 1088 986 874 969
8 862 769 873 968 972 879 986 1088
8 859 764 875 970 969 874 987 1089
8 861 766 876 971 970 875 988 1090
8 973 880 770 863 1091 991 879 972
8 973 880 992 1092 863 770 881 974
8 974 881 993 1093 864 771 882 976
8 979 870 948 1066 1094 982 869 975
8 1094 982 869 975 977 877 767 865
8 978 878 772 867 1095 990 882 976
8 978 878 989 1096 866 768 877 977
8 871 774 883 980 984 884 994 1099
8 983 891 999 1100 870 781 889 981
8 1101 1000 890 982 989 892 782 877
8 983 891 781 870 1101 1000 890 982
8 872 775 884 984 985 885 995 1103
8 876 776 885 985 988 886 996 1104
8 986 887 779 874 1105 998 888 987
8 879 786 887 986 991 896 998 1105
8 875 778 886 988 987 888 997 1106
8 990 893 1002 1107 878 783 892 989
8 1108 1003 893 990 993 894 784 882
8 880 787 896 991 992 895 1005 1109
8 993 894 785 881 1110 1004 895 992
8 898 799 905 1006 1007 907 1013 1120
8 1030 920 1013 1120 919 814 905 1006
8 901 801 907 1007 1011 908 1015 1121
8 899 802 909 1009 1008 906 1014 1122
8 900 803 910 1010 1009 909 1017 1123
8 1012 911 1018 1124 903 804 910 1010
8 904 805 908 1011 1012 911 1016 1125
8 1013 912 1020 1127 907 808 914 1015
8 1031 921 1020 1127 920 815 912 1013
8 1019 918 962 1075 1128 1021 913 1014
8 1128 1021 913 1014 1017 916 810 909
8 1015 914 1022 1129 908 809 915 1016
8 1016 915 1023 1130 911 812 917 1018
8 1018 917 1024 1131 910 811 916 1017
8 1037 928 1031 1148 925 821 920 1030
8 928 823 931 1041 1031 921 1032 1149
8 1033 926 829 941 1151 1039 939 1057
8 1034 927 819 922 1152 1040 926 1033
8 1153 1038 929 1035 1034 927 820 923
8 1154 1042 930 1036 1035 929 822 924
8 1037 928 821 925 1155 1041 930 1036
8 1039 935 828 939 1156 1047 938 1055
8 1157 1043 932 1042 1038 933 825 929
8 1038 933 826 927 1158 1045 934 1040
8 1040 934 827 926 1159 1046 935 1039
8 930 824 932 1042 1041 931 1044 1160
8 1051 936 1048 1165 1175 1052 937 1053
8 1156 1047 938 1055 1053 937 1054 1178
8 939 828 940 1058 1055 938 1056 1181
8 941 829 942 1060 1057 939 1058 1183
8 942 830 943 1061 1058 940 1059 1184
8 1060 942 832 944 1185 1061 945 1062
8 1082 964 1063 1188 981 889 947 1064
8 1097 981 1064 1190 979 870 948 1066
8 1064 947 1065 1191 948 837 949 1067
8 1066 948 1067 1193 975 869 950 1069
8 1067 949 1068 1194 950 838 951 1070
8 1069 950 1070 1195 952 839 953 1071
8 956 849 959 1072 1073 958 1076 1197
8 1074 960 1076 1197 1008 906 959 1072
8 1073 958 1076 1197 965 868 980 1085
8 1074 960 906 1008 1198 1077 1014 1122
8 1133 1026 1079 1199 1019 918 962 1075
8 1077 963 913 1014 1200 1080 962 1075
8 960 853 963 1077 1076 961 1078 1201
8 980 883 961 1076 1099 994 1078 1201
8 1210 1083 964 1082 1100 999 889 981
8 966 871 980 1085 1086 984 1099 1215
8 967 872 984 1086 1087 985 1103 1216
8 971 876 985 1087 1090 988 1104 1217
8 1088 986 874 969 1218 1105 987 1089
8 972 879 986 1088 1091 991 1105 1218
8 970 875 988 1090 1089 987 1106 1219
8 973 880 991 1091 1092 992 1109 1220
8 1093 993 881 974 1221 1110 992 1092
8 1222 1108 990 1095 1093 993 882 976
8 1223 1101 982 1094 1096 989 877 977
8 1098 983 870 979 1223 1101 982 1094
8 1095 990 1107 1224 978 878 989 1096
8 1098 983 1100 1225 979 870 981 1097
8 984 884 994 1099 1103 995 1111 1227
8 1102 1001 1115 1228 983 891 999 1100
8 1101 1000 892 989 1229 1116 1002 1107
8 1102 1001 891 983 1229 1116 1000 1101
8 985 885 995 1103 1104 996 1112 1230
8 988 886 996 1104 1106 997 1113 1231
8 1105 998 888 987 1232 1114 997 1106
8 991 896 998 1105 1109 1005 1114 1232
8 1108 1003 1117 1233 990 893 1002 1107
8 1108 1003 894 993 1233 1117 1004 1110
8 992 895 1005 1109 1110 1004 1118 1234
8 1120 1013 1127 1244 1007 907 1015 1121
8 1148 1031 1127 1244 1030 920 1013 1120
8 1121 1015 1129 1245 1011 908 1016 1125
8 1126 1019 1075 1196 1246 1128 1014 1122
8 1246 1128 1014 1122 1123 1017 909 1009
8 1124 1018 1131 1247 1010 910 1017 1123
8 1125 1016 1130 1248 1012 911 1018 1124
8 1127 1020 1137 1254 1015 914 1022 1129
8 1031 921 1032 1149 1127 1020 1137 1254
8 1134 1027 918 1019 1257 1140 1021 1128
8 1257 1140 1021 1128 1131 1024 916 1017
8 1129 1022 1141 1258 1016 915 1023 1130
8 1130 1023 1142 1259 1018 917 1024 1131
8 1261 1144 1025 1132 1133 1026 1079 1199
8 1255 1138 1025 1132 1135 1028 1144 1261
8 1133 1026 918 1019 1262 1145 1027 1134
8 1136 1029 1139 1256 1263 1146 1028 1135
8 1037 928 1041 1155 1148 1031 1149 1275
8 1041 931 1044 1160 1149 1032 1150 1276
8 1151 1039 939 1057 1278 1156 1055 1180
8 1152 1040 926 1033 1279 1159 1039 1151
8 1153 1038 927 1034 1280 1158 1040 1152
8 1281 1157 1042 1154 1153 1038 929 1035
8 1036 930 1042 1154 1155 1041 1160 1282
8 1283 1164 1046 1159 1156 1047 935 1039
8 1165 1048 1164 1283 1053 937 1047 1156
8 1157 1043 933 1038 1284 1161 1045 1158
8 1157 1043 1161 1284 1042 932 1044 1160
8 1040 934 1046 1159 1158 1045 1163 1285
8 1166 1049 1167 1292 1051 936 1048 1165
8 1166 1049 936 1051 1293 1168 1050 1172
8 1051 936 1052 1175 1172 1050 1173 1306
8 1174 1051 1165 1290 1308 1175 1053 1177
8 1053 937 1054 1178 1175 1052 1176 1309
8 1278 1156 1055 1180 1177 1053 1178 1311
8 1055 938 1056 1181 1178 1054 1179 1312
8 1057 939 1058 1183 1180 1055 1181 1314
8 1058 940 1059 1184 1181 1056 1182 1315
8 1060 942 1061 1185 1183 1058 1184 1316
8 1208 1081 1187 1321 1082 964 1063 1188
8 1209 1082 1188 1322 1097 981 1064 1190
8 1188 1063 1189 1323 1064 947 1065 1191
8 1190 1064 1191 1325 1066 948 1067 1193
8 1191 1065 1192 1326 1067 949 1068 1194
8 1067 1193 1069 950 1194 1327 1195 1070
8 1250 1133 1199 1330 1126 1019 1075 1196
8 1198 1077 1014 1122 1331 1200 1075 1196
8 1074 960 1077 1198 1197 1076 1201 1332
8 1085 980 1076 1197 1215 1099 1201 1332
8 1199 1079 1203 1333 1075 962 1080 1200
8 1132 1025 1119 1243 1199 1079 1203 1333
8 1201 1078 963 1077 1334 1202 1080 1200
8 1099 994 1078 1201 1227 1111 1202 1334
8 1343 1207 1081 1208 1210 1083 964 1082
8 1214 1084 1186 1319 1343 1207 1081 1208
8 1345 1210 1082 1209 1225 1100 981 1097
8 1346 1211 1083 1210 1228 1115 999 1100
8 1086 984 1099 1215 1216 1103 1227 1352
8 1087 985 1103 1216 1217 1104 1230 1353
8 1090 988 1104 1217 1219 1106 1231 1354
8 1218 1105 987 1089 1355 1232 1106 1219
8 1091 991 1105 1218 1220 1109 1232 1355
8 1092 992 1109 1220 1221 1110 1234 1356
8 1222 1108 1233 1357 1095 990 1107 1224
8 1222 1108 993 1093 1357 1233 1110 1221
8 1223 1101 989 1096 1358 1229 1107 1224
8 1226 1102 983 1098 1358 1229 1101 1223
8 1226 1102 1228 1359 1098 983 1100 1225
8 1103 995 1111 1227 1230 1112 1235 1360
8 1107 1002 1117 1233 1229 1116 1240 1362
8 1102 1001 1116 1229 1228 1115 1240 1362
8 1104 996 1112 1230 1231 1113 1236 1363
8 1364 1237 1114 1232 1231 1113 997 1106
8 1109 1005 1114 1232 1234 1118 1238 1365
8 1110 1004 1118 1234 1233 1117 1241 1366
8 1242 1374 1255 1138 1119 1243 1132 1025
8 1244 1127 1254 1376 1121 1015 1129 1245
8 1148 1031 1149 1275 1244 1127 1254 1376
8 1245 1129 1258 1377 1125 1016 1130 1248
8 1251 1134 1019 1126 1378 1257 1128 1246
8 1378 1257 1128 1246 1247 1131 1017 1123
8 1248 1130 1259 1379 1124 1018 1131 1247
8 1261 1381 1250 1133 1132 1249 1330 1199
8 1255 1380 1252 1135 1132 1249 1381 1261
8 1250 1133 1019 1126 1382 1262 1134 1251
8 1253 1136 1256 1385 1384 1263 1135 1252
8 1254 1137 1265 1387 1129 1022 1141 1258
8 1149 1032 1150 1276 1254 1137 1265 1387
8 1028 1135 1255 1138 1139 1256 1388 1266
8 1136 1029 1147 1264 1256 1139 1267 1389
8 1390 1268 1140 1257 1259 1142 1024 1131
8 1260 1143 1027 1134 1390 1268 1140 1257
8 1258 1141 1269 1391 1130 1023 1142 1259
8 1262 1145 1027 1134 1393 1271 1143 1260
8 1261 1144 1026 1133 1394 1272 1145 1262
8 1135 1028 1144 1261 1263 1146 1272 1394
8 1136 1029 1146 1263 1264 1147 1273 1395
8 1155 1041 1160 1282 1275 1149 1276 1405
8 1276 1150 1044 1160 1406 1277 1162 1286
8 1408 1283 1159 1279 1278 1156 1039 1151
8 1290 1165 1283 1408 1177 1053 1156 1278
8 1152 1040 1159 1279 1280 1158 1285 1409
8 1281 1157 1038 1153 1410 1284 1158 1280
8 1281 1157 1284 1410 1154 1042 1160 1282
8 1159 1046 1164 1283 1285 1163 1289 1412
8 1292 1167 1289 1412 1165 1048 1164 1283
8 1158 1045 1163 1285 1284 1161 1288 1413
8 1284 1161 1288 1413 1160 1044 1162 1286
8 1291 1166 1292 1418 1174 1051 1165 1290
8 1291 1166 1051 1174 1419 1293 1172 1305
8 1294 1169 1296 1421 1166 1049 1167 1292
8 1293 1168 1050 1172 1422 1295 1171 1303
8 1294 1169 1049 1166 1423 1297 1168 1293
8 1422 1295 1171 1303 1301 1170 1302 1435
8 1172 1050 1173 1306 1303 1171 1304 1438
8 1174 1051 1175 1308 1305 1172 1306 1440
8 1175 1052 1176 1309 1306 1173 1307 1441
8 1177 1053 1178 1311 1308 1175 1309 1443
8 1178 1054 1179 1312 1309 1176 1310 1444
8 1180 1055 1181 1314 1311 1178 1312 1446
8 1056 1181 1312 1179 1182 1315 1447 1313
8 1183 1058 1184 1316 1314 1181 1315 1448
8 1319 1186 1084 1214 1451 1317 1213 1350
8 1319 1186 1318 1453 1208 1081 1187 1321
8 1321 1187 1320 1456 1188 1063 1189 1323
8 1344 1208 1321 1457 1209 1082 1188 1322
8 1322 1188 1323 1458 1190 1064 1191 1325
8 1323 1189 1324 1459 1191 1065 1192 1326
8 1191 1325 1193 1067 1326 1460 1327 1194
8 1242 1374 1243 1119 1328 1462 1335 1204
8 1330 1199 1333 1465 1196 1075 1200 1331
8 1132 1249 1330 1199 1243 1375 1465 1333
8 1332 1201 1077 1198 1466 1334 1200 1331
8 1215 1099 1201 1332 1352 1227 1334 1466
8 1119 1243 1333 1203 1204 1335 1470 1338
8 1333 1203 1338 1470 1200 1080 1202 1334
8 1227 1111 1202 1334 1360 1235 1338 1470
8 1328 1462 1335 1204 1205 1336 1471 1339
8 1337 1206 1340 1472 1464 1329 1205 1336
8 1346 1211 1342 1479 1210 1083 1207 1343
8 1346 1211 1115 1228 1479 1342 1239 1361
8 1348 1212 1084 1214 1479 1342 1207 1343
8 1480 1343 1208 1344 1345 1210 1082 1209
8 1351 1214 1319 1454 1480 1343 1208 1344
8 1481 1346 1210 1345 1359 1228 1100 1225
8 1348 1212 1347 1483 1214 1084 1213 1350
8 1216 1103 1227 1352 1353 1230 1360 1488
8 1217 1104 1230 1353 1354 1231 1363 1489
8 1490 1364 1232 1355 1354 1231 1106 1219
8 1220 1109 1232 1355 1356 1234 1365 1491
8 1221 1110 1234 1356 1357 1233 1366 1492
8 1224 1107 1233 1357 1358 1229 1362 1493
8 1226 1102 1229 1358 1359 1228 1362 1493
8 1230 1112 1235 1360 1363 1236 1367 1496
8 1361 1239 1115 1228 1497 1371 1240 1362
8 1366 1241 1372 1498 1233 1117 1240 1362
8 1364 1237 1113 1231 1499 1368 1236 1363
8 1364 1237 1368 1499 1232 1114 1238 1365
8 1234 1118 1238 1365 1366 1241 1369 1500
8 1507 1373 1242 1374 1388 1266 1138 1255
8 1508 1374 1243 1375 1380 1255 1132 1249
8 1376 1254 1387 1509 1245 1129 1258 1377
8 1275 1149 1276 1405 1376 1254 1387 1509
8 1377 1258 1391 1510 1248 1130 1259 1379
8 1511 1390 1257 1378 1379 1259 1131 1247
8 1383 1260 1134 1251 1511 1390 1257 1378
8 1252 1135 1256 1385 1380 1255 1388 1512
8 1261 1381 1513 1394 1133 1250 1382 1262
8 1135 1252 1384 1263 1261 1381 1513 1394
8 1382 1262 1134 1251 1514 1393 1260 1383
8 1253 1136 1263 1384 1386 1264 1395 1516
8 1253 1136 1264 1386 1385 1256 1389 1517
8 1387 1265 1397 1519 1258 1141 1269 1391
8 1276 1150 1277 1406 1387 1265 1397 1519
8 1256 1139 1267 1389 1388 1266 1398 1520
8 1264 1147 1274 1396 1389 1267 1399 1521
8 1392 1270 1143 1260 1522 1400 1268 1390
8 1390 1268 1142 1259 1522 1400 1269 1391
8 1392 1270 1401 1523 1260 1143 1271 1393
8 1272 1394 1524 1402 1145 1262 1393 1271
8 1395 1273 1146 1263 1524 1402 1272 1394
8 1273 1395 1264 1147 1403 1526 1396 1274
8 1405 1276 1160 1282 1534 1406 1286 1411
8 1414 1287 1407 1535 1286 1162 1277 1406
8 1279 1159 1283 1408 1409 1285 1412 1537
8 1418 1292 1412 1537 1290 1165 1283 1408
8 1280 1158 1285 1409 1410 1284 1413 1538
8 1410 1284 1413 1538 1282 1160 1286 1411
8 1285 1163 1289 1412 1413 1288 1417 1540
8 1421 1296 1417 1540 1292 1167 1289 1412
8 1414 1287 1162 1286 1541 1416 1288 1413
8 1420 1294 1421 1545 1291 1166 1292 1418
8 1419 1293 1172 1305 1546 1422 1303 1437
8 1420 1294 1166 1291 1547 1423 1293 1419
8 1294 1169 1297 1423 1421 1296 1425 1548
8 1423 1297 1168 1293 1549 1424 1295 1422
8 1301 1170 1298 1427 1422 1295 1424 1549
8 1432 1300 1428 1554 1301 1170 1298 1427
8 1431 1299 1428 1554 1560 1430 1300 1432
8 1563 1433 1300 1432 1435 1302 1170 1301
8 1546 1422 1303 1437 1434 1301 1435 1565
8 1303 1171 1304 1438 1435 1302 1436 1566
8 1305 1172 1306 1440 1437 1303 1438 1568
8 1306 1173 1307 1441 1438 1304 1439 1569
8 1308 1175 1309 1443 1440 1306 1441 1571
8 1309 1176 1310 1444 1441 1307 1442 1572
8 1311 1178 1312 1446 1443 1309 1444 1574
8 1179 1312 1444 1310 1313 1447 1575 1445
8 1314 1181 1315 1448 1446 1312 1447 1576
8 1350 1213 1349 1486 1451 1317 1449 1579
8 1451 1317 1450 1581 1319 1186 1318 1453
8 1454 1319 1214 1351 1582 1451 1350 1487
8 1453 1318 1452 1584 1321 1187 1320 1456
8 1454 1319 1453 1585 1344 1208 1321 1457
8 1456 1320 1455 1586 1323 1189 1324 1459
8 1457 1321 1456 1587 1322 1188 1323 1458
8 1458 1323 1459 1588 1325 1191 1326 1460
8 1205 1336 1464 1329 1328 1462 1590 1461
8 1507 1373 1461 1590 1374 1242 1328 1462
8 1508 1374 1462 1591 1375 1243 1335 1467
8 1337 1206 1329 1464 1473 1341 1463 1594
8 1375 1243 1335 1467 1465 1333 1470 1596
8 1465 1333 1470 1596 1331 1200 1334 1466
8 1352 1227 1334 1466 1488 1360 1470 1596
8 1591 1462 1336 1468 1467 1335 1471 1597
8 1469 1337 1472 1598 1595 1464 1336 1468
8 1471 1339 1474 1600 1335 1204 1338 1470
8 1600 1474 1367 1496 1470 1338 1235 1360
8 1336 1205 1340 1472 1471 1339 1475 1601
8 1337 1206 1341 1473 1472 1340 1476 1602
8 1495 1370 1478 1609 1361 1239 1342 1479
8 1348 1212 1342 1479 1483 1347 1478 1609
8 1481 1346 1479 1610 1345 1210 1343 1480
8 1481 1346 1228 1359 1610 1479 1361 1494
8 1484 1348 1214 1351 1610 1479 1343 1480
8 1483 1347 1482 1612 1350 1213 1349 1486
8 1484 1348 1483 1613 1351 1214 1350 1487
8 1353 1230 1360 1488 1489 1363 1496 1616
8 1490 1364 1231 1354 1617 1499 1363 1489
8 1490 1364 1499 1617 1355 1232 1365 1491
8 1356 1234 1365 1491 1492 1366 1500 1619
8 1492 1366 1498 1620 1357 1233 1362 1493
8 1494 1361 1228 1359 1621 1497 1362 1493
8 1495 1370 1239 1361 1622 1504 1371 1497
8 1363 1236 1367 1496 1499 1368 1501 1623
8 1497 1371 1240 1362 1624 1505 1372 1498
8 1625 1503 1372 1498 1500 1369 1241 1366
8 1365 1238 1368 1499 1500 1369 1502 1626
8 1520 1398 1506 1633 1388 1266 1373 1507
8 1634 1507 1374 1508 1512 1388 1255 1380
8 1509 1387 1519 1635 1377 1258 1391 1510
8 1405 1276 1406 1534 1509 1387 1519 1635
8 1515 1392 1260 1383 1636 1522 1390 1511
8 1511 1390 1259 1379 1636 1522 1391 1510
8 1385 1256 1389 1517 1512 1388 1520 1637
8 1513 1394 1262 1382 1638 1524 1393 1514
8 1395 1516 1638 1524 1263 1384 1513 1394
8 1515 1392 1523 1639 1383 1260 1393 1514
8 1516 1395 1526 1640 1386 1264 1396 1518
8 1386 1264 1396 1518 1517 1389 1521 1641
8 1519 1397 1527 1643 1391 1269 1400 1522
8 1535 1407 1527 1643 1406 1277 1397 1519
8 1389 1267 1399 1521 1520 1398 1528 1644
8 1645 1529 1399 1521 1525 1404 1274 1396
8 1392 1270 1400 1522 1523 1401 1531 1646
8 1524 1402 1271 1393 1648 1532 1401 1523
8 1403 1526 1648 1532 1273 1395 1524 1402
8 1525 1404 1274 1396 1649 1533 1403 1526
8 1539 1414 1535 1657 1411 1286 1406 1534
8 1542 1415 1536 1658 1414 1287 1407 1535
8 1409 1285 1412 1537 1538 1413 1540 1660
8 1545 1421 1540 1660 1418 1292 1412 1537
8 1539 1414 1286 1411 1661 1541 1413 1538
8 1540 1417 1544 1663 1413 1288 1416 1541
8 1421 1296 1425 1548 1540 1417 1544 1663
8 1542 1415 1287 1414 1664 1543 1416 1541
8 1420 1294 1423 1547 1545 1421 1548 1666
8 1547 1423 1293 1419 1667 1549 1422 1546
8 1434 1301 1427 1553 1546 1422 1549 1667
8 1423 1297 1424 1549 1548 1425 1550 1668
8 1551 1426 1550 1668 1427 1298 1424 1549
8 1551 1426 1298 1427 1671 1552 1428 1554
8 1562 1432 1554 1674 1434 1301 1427 1553
8 1431 1299 1429 1558 1554 1428 1555 1675
8 1431 1299 1430 1560 1558 1429 1557 1680
8 1560 1430 1300 1432 1683 1559 1433 1563
8 1561 1431 1554 1674 1684 1560 1432 1562
8 1685 1563 1432 1562 1565 1435 1301 1434
8 1435 1302 1436 1566 1563 1433 1564 1686
8 1437 1303 1438 1568 1565 1435 1566 1688
8 1438 1304 1439 1569 1566 1436 1567 1689
8 1440 1306 1441 1571 1568 1438 1569 1691
8 1441 1307 1442 1572 1569 1439 1570 1692
8 1443 1309 1444 1574 1571 1441 1572 1694
8 1310 1444 1572 1442 1445 1575 1695 1573
8 1446 1312 1447 1576 1574 1444 1575 1696
8 1486 1349 1485 1614 1579 1449 1577 1699
8 1451 1317 1449 1579 1581 1450 1578 1701
8 1487 1350 1486 1615 1582 1451 1579 1702
8 1581 1450 1580 1704 1453 1318 1452 1584
8 1582 1451 1581 1705 1454 1319 1453 1585
8 1584 1452 1583 1706 1456 1320 1455 1586
8 1585 1453 1584 1707 1457 1321 1456 1587
8 1587 1456 1586 1708 1458 1323 1459 1588
8 1633 1506 1589 1710 1507 1373 1461 1590
8 1464 1329 1461 1590 1594 1463 1589 1710
8 1468 1336 1462 1591 1595 1464 1590 1711
8 1634 1507 1590 1711 1508 1374 1462 1591
8 1473 1341 1463 1594 1603 1477 1593 1716
8 1469 1337 1464 1595 1599 1473 1594 1717
8 1471 1597 1467 1335 1600 1718 1596 1470
8 1718 1600 1496 1616 1596 1470 1360 1488
8 1336 1468 1597 1471 1472 1598 1719 1601
8 1469 1337 1473 1599 1598 1472 1602 1720
8 1722 1604 1501 1623 1600 1474 1367 1496
8 1475 1601 1471 1339 1604 1722 1600 1474
8 1602 1476 1605 1723 1472 1340 1475 1601
8 1476 1602 1724 1606 1341 1473 1603 1477
8 1483 1347 1478 1609 1612 1482 1608 1731
8 1495 1370 1504 1622 1609 1478 1608 1731
8 1618 1495 1609 1732 1494 1361 1479 1610
8 1484 1348 1479 1610 1613 1483 1609 1732
8 1486 1349 1482 1612 1614 1485 1611 1733
8 1613 1483 1612 1734 1487 1350 1486 1615
8 1489 1363 1496 1616 1617 1499 1623 1736
8 1491 1365 1499 1617 1619 1500 1626 1737
8 1618 1495 1361 1494 1738 1622 1497 1621
8 1739 1625 1498 1620 1619 1500 1366 1492
8 1621 1497 1362 1493 1740 1624 1498 1620
8 1742 1631 1504 1622 1624 1505 1371 1497
8 1743 1628 1502 1626 1623 1501 1368 1499
8 1744 1630 1505 1624 1625 1503 1372 1498
8 1745 1629 1503 1625 1626 1502 1369 1500
8 1520 1398 1528 1644 1633 1506 1632 1751
8 1637 1520 1633 1752 1512 1388 1507 1634
8 1635 1519 1643 1753 1510 1391 1522 1636
8 1657 1535 1643 1753 1534 1406 1519 1635
8 1515 1392 1522 1636 1639 1523 1646 1754
8 1517 1389 1521 1641 1637 1520 1644 1755
8 1524 1638 1756 1648 1393 1514 1639 1523
8 1640 1526 1395 1516 1756 1648 1524 1638
8 1642 1525 1396 1518 1757 1649 1526 1640
8 1758 1645 1521 1641 1642 1525 1396 1518
8 1646 1531 1400 1522 1760 1650 1527 1643
8 1535 1407 1536 1658 1643 1527 1650 1760
8 1521 1399 1529 1645 1644 1528 1651 1761
8 1647 1530 1652 1762 1525 1404 1529 1645
8 1401 1523 1648 1532 1531 1646 1763 1655
8 1525 1404 1533 1649 1647 1530 1654 1765
8 1533 1649 1766 1656 1403 1526 1648 1532
8 1662 1542 1658 1774 1539 1414 1535 1657
8 1542 1415 1543 1664 1658 1536 1659 1775
8 1660 1540 1663 1777 1538 1413 1541 1661
8 1545 1421 1548 1666 1660 1540 1663 1777
8 1662 1542 1414 1539 1778 1664 1541 1661
8 1664 1543 1416 1541 1779 1665 1544 1663
8 1548 1425 1550 1668 1663 1544 1665 1779
8 1547 1423 1549 1667 1666 1548 1668 1781
8 1670 1551 1668 1781 1553 1427 1549 1667
8 1551 1426 1552 1671 1668 1550 1669 1782
8 1670 1551 1427 1553 1784 1671 1554 1674
8 1675 1555 1672 1785 1554 1428 1552 1671
8 1678 1556 1673 1789 1558 1429 1555 1675
8 1561 1431 1558 1681 1674 1554 1675 1790
8 1794 1677 1556 1678 1680 1557 1429 1558
8 1560 1430 1559 1683 1680 1557 1679 1797
8 1561 1431 1560 1684 1681 1558 1680 1798
8 1563 1433 1564 1686 1683 1559 1682 1800
8 1684 1560 1432 1562 1801 1683 1563 1685
8 1565 1435 1566 1688 1685 1563 1686 1802
8 1566 1436 1567 1689 1686 1564 1687 1803
8 1568 1438 1569 1691 1688 1566 1689 1805
8 1569 1439 1570 1692 1689 1567 1690 1806
8 1571 1441 1572 1694 1691 1569 1692 1808
8 1442 1572 1692 1570 1573 1695 1809 1693
8 1574 1444 1575 1696 1694 1572 1695 1810
8 1614 1485 1592 1712 1699 1577 1697 1813
8 1579 1449 1577 1699 1701 1578 1698 1815
8 1615 1486 1614 1735 1702 1579 1699 1816
8 1701 1578 1700 1818 1581 1450 1580 1704
8 1582 1451 1579 1702 1705 1581 1701 1819
8 1704 1580 1703 1820 1584 1452 1583 1706
8 1705 1581 1704 1821 1585 1453 1584 1707
8 1707 1584 1706 1822 1587 1456 1586 1708
8 1710 1589 1506 1633 1824 1709 1632 1751
8 1594 1463 1589 1710 1716 1593 1709 1824
8 1752 1633 1710 1825 1634 1507 1590 1711
8 1595 1464 1590 1711 1717 1594 1710 1825
8 1830 1714 1592 1712 1733 1611 1485 1614
8 1603 1477 1593 1716 1725 1607 1715 1834
8 1599 1473 1594 1717 1721 1603 1716 1835
8 1837 1722 1623 1736 1718 1600 1496 1616
8 1719 1601 1722 1837 1597 1471 1600 1718
8 1602 1720 1598 1472 1723 1838 1719 1601
8 1720 1602 1473 1599 1839 1724 1603 1721
8 1723 1605 1726 1840 1601 1475 1604 1722
8 1840 1726 1628 1743 1722 1604 1501 1623
8 1724 1606 1727 1841 1602 1476 1605 1723
8 1725 1607 1728 1842 1603 1477 1606 1724
8 1612 1482 1608 1731 1733 1611 1730 1849
8 1741 1627 1730 1849 1622 1504 1608 1731
8 1613 1483 1609 1732 1734 1612 1731 1850
8 1618 1495 1622 1738 1732 1609 1731 1850
8 1615 1486 1612 1734 1735 1614 1733 1851
8 1852 1743 1626 1737 1736 1623 1499 1617
8 1853 1745 1625 1739 1737 1626 1500 1619
8 1855 1742 1622 1738 1740 1624 1497 1621
8 1856 1744 1624 1740 1739 1625 1498 1620
8 1741 1627 1504 1622 1857 1746 1631 1742
8 1742 1631 1505 1624 1858 1749 1630 1744
8 1859 1747 1629 1745 1743 1628 1502 1626
8 1860 1748 1630 1744 1745 1629 1503 1625
8 1644 1528 1651 1761 1751 1632 1750 1865
8 1637 1520 1644 1755 1752 1633 1751 1866
8 1754 1646 1522 1636 1867 1760 1643 1753
8 1657 1535 1658 1774 1753 1643 1760 1867
8 1639 1523 1646 1754 1756 1648 1763 1868
8 1641 1521 1645 1758 1755 1644 1761 1869
8 1757 1649 1526 1640 1870 1766 1648 1756
8 1642 1525 1649 1757 1759 1647 1765 1871
8 1759 1647 1762 1872 1642 1525 1645 1758
8 1760 1650 1767 1874 1646 1531 1655 1763
8 1658 1536 1659 1775 1760 1650 1767 1874
8 1762 1652 1768 1875 1645 1529 1651 1761
8 1764 1653 1769 1876 1647 1530 1652 1762
8 1656 1766 1877 1773 1532 1648 1763 1655
8 1771 1879 1765 1654 1653 1764 1647 1530
8 1533 1649 1765 1654 1656 1766 1880 1772
8 1662 1542 1664 1778 1774 1658 1775 1887
8 1664 1543 1665 1779 1775 1659 1776 1888
8 1778 1664 1541 1661 1890 1779 1663 1777
8 1666 1548 1668 1781 1777 1663 1779 1890
8 1782 1669 1780 1891 1668 1550 1665 1779
8 1670 1551 1671 1784 1781 1668 1782 1893
8 1671 1552 1672 1785 1782 1669 1783 1894
8 1790 1675 1785 1896 1674 1554 1671 1784
8 1675 1555 1673 1789 1785 1672 1786 1897
8 1792 1676 1788 1903 1678 1556 1673 1789
8 1795 1678 1789 1904 1681 1558 1675 1790
8 1792 1676 1556 1678 1906 1791 1677 1794
8 1680 1557 1679 1797 1794 1677 1793 1909
8 1910 1794 1678 1795 1798 1680 1558 1681
8 1683 1559 1682 1800 1797 1679 1796 1912
8 1684 1560 1683 1801 1798 1680 1797 1913
8 1686 1564 1687 1803 1800 1682 1799 1915
8 1685 1563 1686 1802 1801 1683 1800 1916
8 1688 1566 1689 1805 1802 1686 1803 1917
8 1689 1567 1690 1806 1803 1687 1804 1918
8 1691 1569 1692 1808 1805 1689 1806 1920
8 1692 1570 1693 1809 1806 1690 1807 1921
8 1694 1572 1695 1810 1808 1692 1809 1922
8 1829 1713 1811 1926 1712 1592 1697 1813
8 1813 1697 1812 1928 1699 1577 1698 1815
8 1735 1614 1712 1828 1816 1699 1813 1929
8 1815 1698 1814 1931 1701 1578 1700 1818
8 1702 1579 1699 1816 1819 1701 1815 1932
8 1818 1700 1817 1933 1704 1580 1703 1820
8 1819 1701 1818 1934 1705 1581 1704 1821
8 1821 1704 1820 1935 1707 1584 1706 1822
8 1824 1709 1632 1751 1937 1823 1750 1865
8 1716 1593 1709 1824 1834 1715 1823 1937
8 1825 1710 1633 1752 1938 1824 1751 1866
8 1717 1594 1710 1825 1835 1716 1824 1938
8 1945 1830 1712 1828 1851 1733 1614 1735
8 1830 1714 1831 1946 1712 1592 1713 1829
8 1947 1832 1714 1830 1849 1730 1611 1733
8 1843 1729 1607 1725 1950 1833 1715 1834
8 1721 1603 1716 1835 1836 1725 1834 1951
8 1836 1725 1842 1953 1721 1603 1724 1839
8 1723 1838 1719 1601 1840 1954 1837 1722
8 1954 1840 1743 1852 1837 1722 1623 1736
8 1724 1839 1720 1602 1841 1955 1838 1723
8 1841 1727 1844 1956 1723 1605 1726 1840
8 1956 1844 1747 1859 1840 1726 1628 1743
8 1728 1842 1724 1606 1845 1957 1841 1727
8 1725 1607 1729 1843 1842 1728 1846 1958
8 1741 1627 1746 1857 1849 1730 1848 1965
8 1734 1612 1731 1850 1851 1733 1849 1966
8 1854 1741 1849 1966 1738 1622 1731 1850
8 1967 1859 1745 1853 1852 1743 1626 1737
8 1968 1860 1744 1856 1853 1745 1625 1739
8 1854 1741 1622 1738 1969 1857 1742 1855
8 1855 1742 1624 1740 1970 1858 1744 1856
8 1857 1746 1631 1742 1971 1861 1749 1858
8 1858 1749 1630 1744 1972 1863 1748 1860
8 1859 1747 1862 1973 1745 1629 1748 1860
8 1875 1768 1864 1977 1761 1651 1750 1865
8 1755 1644 1761 1869 1866 1751 1865 1978
8 1867 1760 1874 1979 1754 1646 1763 1868
8 1774 1658 1775 1887 1867 1760 1874 1979
8 1870 1766 1648 1756 1980 1877 1763 1868
8 1872 1762 1875 1981 1758 1645 1761 1869
8 1757 1649 1766 1870 1871 1765 1880 1982
8 1983 1879 1764 1873 1871 1765 1647 1759
8 1873 1764 1876 1984 1759 1647 1762 1872
8 1877 1773 1655 1763 1986 1881 1767 1874
8 1775 1659 1776 1888 1874 1767 1881 1986
8 1876 1769 1882 1987 1762 1652 1768 1875
8 1878 1770 1883 1988 1764 1653 1769 1876
8 1880 1772 1656 1766 1989 1886 1773 1877
8 1878 1770 1653 1764 1990 1884 1771 1879
8 1765 1654 1772 1880 1879 1771 1885 1991
8 1778 1664 1779 1890 1887 1775 1888 1997
8 1998 1889 1776 1888 1891 1780 1665 1779
8 1893 1782 1891 2000 1781 1668 1779 1890
8 1894 1783 1892 2001 1782 1669 1780 1891
8 1784 1671 1785 1896 1893 1782 1894 2003
8 1897 1786 1895 2004 1785 1672 1783 1894
8 1790 1675 1789 1904 1896 1785 1897 2006
8 1901 1787 1898 2007 1789 1673 1786 1897
8 1903 1788 1900 2013 1789 1673 1787 1901
8 1792 1676 1791 1906 1903 1788 1902 2016
8 1907 1792 1903 2017 1795 1678 1789 1904
8 1906 1791 1677 1794 2019 1905 1793 1909
8 1907 1792 1678 1795 2020 1906 1794 1910
8 1797 1679 1796 1912 1909 1793 1908 2022
8 1798 1680 1797 1913 1910 1794 1909 2023
8 1800 1682 1799 1915 1912 1796 1911 2025
8 1801 1683 1800 1916 1913 1797 1912 2026
8 1803 1687 1804 1918 1915 1799 1914 2028
8 1802 1686 1803 1917 1916 1800 1915 2029
8 1805 1689 1806 1920 1917 1803 1918 2030
8 1806 1690 1807 1921 1918 1804 1919 2031
8 1808 1692 1809 1922 1920 1806 1921 2032
8 1939 1826 1924 2037 1829 1713 1811 1926
8 1926 1811 1925 2039 1813 1697 1812 1928
8 1944 1829 1926 2040 1828 1712 1813 1929
8 1928 1812 1927 2042 1815 1698 1814 1931
8 1929 1813 1928 2043 1816 1699 1815 1932
8 1931 1814 1930 2044 1818 1700 1817 1933
8 1932 1815 1931 2045 1819 1701 1818 1934
8 1934 1818 1933 2046 1821 1704 1820 1935
8 2048 1936 1823 1937 1977 1864 1750 1865
8 1950 1833 1715 1834 2048 1936 1823 1937
8 1938 1824 1751 1866 2049 1937 1865 1978
8 1835 1716 1824 1938 1951 1834 1937 2049
8 1939 1826 1713 1829 2053 1942 1831 1946
8 1940 1827 1923 2035 2053 1942 1826 1939
8 1945 1830 1946 2058 1828 1712 1829 1944
8 2059 1947 1830 1945 1966 1849 1733 1851
8 1947 1832 1730 1849 2060 1948 1848 1965
8 1947 1832 1948 2060 1830 1714 1831 1946
8 1959 1847 1729 1843 2063 1949 1833 1950
8 1952 1843 1725 1836 2064 1950 1834 1951
8 1836 1725 1843 1952 1953 1842 1958 2066
8 1953 1842 1957 2067 1839 1724 1841 1955
8 1841 1955 1838 1723 1956 2068 1954 1840
8 2068 1956 1859 1967 1954 1840 1743 1852
8 1956 1844 1960 2069 1859 1747 1862 1973
8 1845 1957 1841 1727 1960 2069 1956 1844
8 1728 1842 1957 1845 1846 1958 2071 1961
8 1962 2072 1959 1847 1846 1958 1843 1729
8 1971 1861 1964 2077 1857 1746 1848 1965
8 1854 1741 1857 1969 1966 1849 1965 2078
8 1967 1859 1973 2079 1853 1745 1860 1968
8 1970 1858 1744 1856 2080 1972 1860 1968
8 1969 1857 1742 1855 2081 1971 1858 1970
8 1971 1861 1749 1858 2082 1974 1863 1972
8 1973 1862 1975 2083 1860 1748 1863 1972
8 1987 1882 1976 2086 1875 1768 1864 1977
8 1981 1875 1977 2087 1869 1761 1865 1978
8 1980 1877 1763 1868 2088 1986 1874 1979
8 1887 1775 1888 1997 1979 1874 1986 2088
8 1880 1982 2089 1989 1766 1870 1980 1877
8 1984 1876 1987 2090 1872 1762 1875 1981
8 1765 1871 1983 1879 1880 1982 2091 1991
8 1985 1878 1764 1873 2092 1990 1879 1983
8 1985 1878 1988 2093 1873 1764 1876 1984
8 2094 1992 1881 1986 1998 1889 1776 1888
8 1986 1881 1992 2094 1877 1773 1886 1989
8 1988 1883 1993 2095 1876 1769 1882 1987
8 1878 1770 1884 1990 1988 1883 1994 2096
8 1991 1885 1772 1880 2097 1996 1886 1989
8 1879 1771 1885 1991 1990 1884 1995 2098
8 2103 1998 1888 1997 2000 1891 1779 1890
8 2104 1999 1889 1998 2001 1892 1780 1891
8 2003 1894 2001 2106 1893 1782 1891 2000
8 2004 1895 2002 2107 1894 1783 1892 2001
8 2006 1897 2004 2109 1896 1785 1894 2003
8 2007 1898 2005 2110 1897 1786 1895 2004
8 2014 1901 2007 2112 1904 1789 1897 2006
8 2011 1899 2008 2113 1901 1787 1898 2007
8 2119 2010 1899 2011 2013 1900 1787 1901
8 2016 1902 2012 2122 1903 1788 1900 2013
8 2017 1903 2013 2123 1904 1789 1901 2014
8 1906 1791 1905 2019 2016 1902 2015 2125
8 1907 1792 1906 2020 2017 1903 2016 2126
8 1909 1793 1908 2022 2019 1905 2018 2128
8 2020 1906 1794 1910 2129 2019 1909 2023
8 1912 1796 1911 2025 2022 1908 2021 2131
8 1913 1797 1912 2026 2023 1909 2022 2132
8 1915 1799 1914 2028 2025 1911 2024 2134
8 1916 1800 1915 2029 2026 1912 2025 2135
8 1918 1804 1919 2031 2028 1914 2027 2136
8 1917 1803 1918 2030 2029 1915 2028 2137
8 1920 1806 1921 2032 2030 1918 2031 2138
8 1940 1827 1941 2054 2035 1923 2033 2140
8 2035 1923 2034 2143 1939 1826 1924 2037
8 2037 1924 2036 2146 1926 1811 1925 2039
8 2051 1939 2037 2147 1944 1829 1926 2040
8 2039 1925 2038 2149 1928 1812 1927 2042
8 2040 1926 2039 2150 1929 1813 1928 2043
8 2042 1927 2041 2151 1931 1814 1930 2044
8 2043 1928 2042 2152 1932 1815 1931 2045
8 2045 1931 2044 2153 1934 1818 1933 2046
8 2155 2047 1936 2048 2086 1976 1864 1977
8 2063 1949 1833 1950 2155 2047 1936 2048
8 2156 2048 1937 2049 2087 1977 1865 1978
8 2064 1950 1834 1951 2156 2048 1937 2049
8 2051 1939 1829 1944 2160 2053 1946 2058
8 2052 1940 2035 2144 2160 2053 1939 2051
8 2053 1942 1831 1946 2163 2057 1948 2060
8 2055 1943 1827 1940 2163 2057 1942 2053
8 2055 1943 2056 2164 1940 1827 1941 2054
8 2059 1947 1849 1966 2167 2060 1965 2078
8 2059 1947 2060 2167 1945 1830 1946 2058
8 2077 1964 2061 2168 1965 1848 1948 2060
8 2070 1963 1847 1959 2170 2062 1949 2063
8 2065 1959 1843 1952 2171 2063 1950 2064
8 2173 2072 1958 2066 2065 1959 1843 1952
8 1953 1842 1958 2066 2067 1957 2071 2174
8 2068 1956 2069 2175 1967 1859 1973 2079
8 2067 1957 2069 2175 1955 1841 1956 2068
8 1845 1957 2069 1960 1961 2071 2176 2073
8 2069 1960 2073 2176 1973 1862 1975 2083
8 2070 1963 2075 2177 1959 1847 1962 2072
8 1846 1958 2071 1961 1962 2072 2178 2074
8 2077 1964 1861 1971 2182 2076 1974 2082
8 2081 1971 2077 2183 1969 1857 1965 2078
8 2079 1973 2083 2184 1968 1860 1972 2080
8 2081 1971 1858 1970 2185 2082 1972 2080
8 2083 1975 2084 2186 1972 1863 1974 2082
8 2086 1976 1882 1987 2189 2085 1993 2095
8 2090 1987 2086 2190 1981 1875 1977 2087
8 2191 2094 1986 2088 2103 1998 1888 1997
8 2088 1986 2094 2191 1980 1877 1989 2089
8 1991 2091 2192 2097 1880 1982 2089 1989
8 2093 1988 2095 2193 1984 1876 1987 2090
8 1879 1983 2092 1990 1991 2091 2194 2098
8 1985 1878 1990 2092 2093 1988 2096 2195
8 2097 1996 1886 1989 2196 2099 1992 2094
8 2196 2099 1992 2094 2104 1999 1889 1998
8 1994 2096 1988 1883 2100 2197 2095 1993
8 2096 1994 1884 1990 2198 2101 1995 2098
8 1995 2098 2199 2102 1885 1991 2097 1996
8 2203 2104 1998 2103 2106 2001 1891 2000
8 2107 2002 2105 2204 2001 1892 1999 2104
8 2109 2004 2107 2206 2003 1894 2001 2106
8 2110 2005 2108 2207 2004 1895 2002 2107
8 2112 2007 2110 2209 2006 1897 2004 2109
8 2113 2008 2111 2210 2007 1898 2005 2110
8 2120 2011 2113 2212 2014 1901 2007 2112
8 2117 2009 2114 2213 2011 1899 2008 2113
8 2219 2116 2009 2117 2119 2010 1899 2011
8 2222 2118 2010 2119 2122 2012 1900 2013
8 2223 2119 2011 2120 2123 2013 1901 2014
8 2016 1902 2015 2125 2122 2012 2121 2225
8 2126 2016 2122 2226 2017 1903 2013 2123
8 2019 1905 2018 2128 2125 2015 2124 2228
8 2020 1906 2019 2129 2126 2016 2125 2229
8 2022 1908 2021 2131 2128 2018 2127 2231
8 2023 1909 2022 2132 2129 2019 2128 2232
8 2025 1911 2024 2134 2131 2021 2130 2234
8 2026 1912 2025 2135 2132 2022 2131 2235
8 1914 2028 2134 2024 2027 2136 2236 2133
8 2029 1915 2028 2137 2135 2025 2134 2237
8 2030 1918 2031 2138 2137 2028 2136 2238
8 2157 2050 2139 2240 2054 1941 2033 2140
8 2052 1940 2054 2161 2144 2035 2140 2242
8 2140 2033 2141 2243 2035 1923 2034 2143
8 2143 2034 2142 2246 2037 1924 2036 2146
8 2144 2035 2143 2247 2051 1939 2037 2147
8 2146 2036 2145 2249 2039 1925 2038 2149
8 2147 2037 2146 2250 2040 1926 2039 2150
8 2149 2038 2148 2251 2042 1927 2041 2151
8 2150 2039 2149 2252 2043 1928 2042 2152
8 2152 2042 2151 2253 2045 1931 2044 2153
8 2255 2154 2047 2155 2189 2085 1976 2086
8 2170 2062 1949 2063 2255 2154 2047 2155
8 2256 2155 2048 2156 2190 2086 1977 2087
8 2171 2063 1950 2064 2256 2155 2048 2156
8 2258 2159 2050 2157 2164 2056 1941 2054
8 2160 2053 1946 2058 2262 2163 2060 2167
8 2162 2055 1940 2052 2262 2163 2053 2160
8 2162 2055 2164 2263 2052 1940 2054 2161
8 2163 2057 1948 2060 2264 2165 2061 2168
8 2055 1943 2057 2163 2164 2056 2165 2264
8 2182 2076 2166 2268 2077 1964 2061 2168
8 2183 2077 2168 2269 2078 1965 2060 2167
8 2070 1963 2062 2170 2177 2075 2169 2271
8 2172 2070 1959 2065 2272 2170 2063 2171
8 2172 2070 2177 2273 2065 1959 2072 2173
8 2066 1958 2072 2173 2174 2071 2178 2274
8 2067 1957 2071 2174 2175 2069 2176 2275
8 2175 2069 2176 2275 2079 1973 2083 2184
8 2071 1961 2074 2178 2176 2073 2179 2276
8 2176 2073 2179 2276 2083 1975 2084 2186
8 2072 1962 2075 2177 2178 2074 2180 2277
8 2182 2076 1974 2082 2280 2181 2084 2186
8 2183 2077 1971 2081 2281 2182 2082 2185
8 2184 2083 2186 2282 2080 1972 2082 2185
8 2189 2085 1993 2095 2285 2188 2100 2197
8 2190 2086 1987 2090 2286 2189 2095 2193
8 2192 2097 1989 2089 2287 2196 2094 2191
8 2287 2196 2094 2191 2203 2104 1998 2103
8 2194 2098 1991 2091 2288 2199 2097 2192
8 2195 2096 2197 2289 2093 1988 2095 2193
8 2096 2195 2290 2198 1990 2092 2194 2098
8 2097 1996 2099 2196 2199 2102 2200 2291
8 2196 2099 1999 2104 2291 2200 2105 2204
8 2100 2197 2292 2201 1994 2096 2198 2101
8 1995 2098 2198 2101 2102 2199 2293 2202
8 2206 2107 2204 2296 2106 2001 2104 2203
8 2207 2108 2205 2297 2107 2002 2105 2204
8 2209 2110 2207 2299 2109 2004 2107 2206
8 2210 2111 2208 2300 2110 2005 2108 2207
8 2212 2113 2210 2302 2112 2007 2110 2209
8 2213 2114 2211 2303 2113 2008 2111 2210
8 2220 2117 2213 2305 2120 2011 2113 2212
8 2216 2115 2214 2306 2117 2009 2114 2213
8 2216 2115 2009 2117 2311 2217 2116 2219
8 2219 2116 2010 2119 2314 2218 2118 2222
8 2315 2219 2117 2220 2223 2119 2011 2120
8 2122 2012 2121 2225 2222 2118 2221 2317
8 2318 2222 2119 2223 2226 2122 2013 2123
8 2125 2015 2124 2228 2225 2121 2224 2320
8 2126 2016 2125 2229 2226 2122 2225 2321
8 2128 2018 2127 2231 2228 2124 2227 2323
8 2129 2019 2128 2232 2229 2125 2228 2324
8 2131 2021 2130 2234 2231 2127 2230 2326
8 2132 2022 2131 2235 2232 2128 2231 2327
8 2134 2024 2133 2236 2234 2130 2233 2328
8 2135 2025 2134 2237 2235 2131 2234 2329
8 2137 2028 2136 2238 2237 2134 2236 2330
8 2157 2050 2158 2259 2240 2139 2239 2332
8 2257 2157 2240 2334 2161 2054 2140 2242
8 2240 2139 2241 2335 2140 2033 2141 2243
8 2242 2140 2243 2337 2144 2035 2143 2247
8 2243 2141 2244 2338 2143 2034 2142 2246
8 2246 2142 2245 2341 2146 2036 2145 2249
8 2247 2143 2246 2342 2147 2037 2146 2250
8 2249 2145 2248 2343 2149 2038 2148 2251
8 2250 2146 2249 2344 2150 2039 2149 2252
8 2252 2149 2251 2345 2152 2042 2151 2253
8 2169 2271 2347 2254 2062 2170 2255 2154
8 2189 2085 2188 2285 2255 2154 2254 2347
8 2348 2255 2155 2256 2286 2189 2086 2190
8 2272 2170 2063 2171 2348 2255 2155 2256
8 2349 2258 2157 2257 2263 2164 2054 2161
8 2258 2159 2261 2351 2157 2050 2158 2259
8 2258 2159 2056 2164 2351 2261 2165 2264
8 2262 2163 2060 2167 2355 2264 2168 2269
8 2162 2055 2163 2262 2263 2164 2264 2355
8 2357 2266 2165 2264 2268 2166 2061 2168
8 2268 2166 2076 2182 2361 2267 2181 2280
8 2281 2182 2268 2362 2183 2077 2168 2269
8 2271 2169 2270 2364 2177 2075 2180 2277
8 2172 2070 2170 2272 2273 2177 2271 2365
8 2072 2173 2274 2178 2177 2273 2366 2277
8 2071 2174 2275 2176 2178 2274 2367 2276
8 2275 2176 2276 2367 2184 2083 2186 2282
8 2283 2187 2084 2186 2368 2278 2179 2276
8 2178 2074 2180 2277 2276 2179 2278 2368
8 2283 2187 2279 2370 2186 2084 2181 2280
8 2281 2182 2082 2185 2371 2280 2186 2282
8 2188 2285 2374 2284 2100 2197 2292 2201
8 2286 2189 2095 2193 2375 2285 2197 2289
8 2192 2097 2196 2287 2288 2199 2291 2376
8 2287 2196 2104 2203 2376 2291 2204 2296
8 2194 2098 2199 2288 2290 2198 2293 2377
8 2289 2197 2096 2195 2378 2292 2198 2290
8 2291 2200 2105 2204 2379 2294 2205 2297
8 2199 2102 2200 2291 2293 2202 2294 2379
8 2198 2101 2202 2293 2292 2201 2295 2380
8 2299 2207 2297 2383 2206 2107 2204 2296
8 2300 2208 2298 2384 2207 2108 2205 2297
8 2302 2210 2300 2386 2209 2110 2207 2299
8 2303 2211 2301 2387 2210 2111 2208 2300
8 2305 2213 2303 2389 2212 2113 2210 2302
8 2306 2214 2304 2390 2213 2114 2211 2303
8 2310 2216 2306 2392 2220 2117 2213 2305
8 2308 2215 2307 2393 2216 2115 2214 2306
8 2308 2215 2115 2216 2396 2309 2217 2311
8 2310 2216 2117 2220 2398 2311 2219 2315
8 2311 2217 2116 2219 2399 2312 2218 2314
8 2314 2218 2118 2222 2402 2313 2221 2317
8 2315 2219 2119 2223 2403 2314 2222 2318
8 2225 2121 2224 2320 2317 2221 2316 2405
8 2226 2122 2225 2321 2318 2222 2317 2406
8 2228 2124 2227 2323 2320 2224 2319 2408
8 2229 2125 2228 2324 2321 2225 2320 2409
8 2231 2127 2230 2326 2323 2227 2322 2411
8 2232 2128 2231 2327 2324 2228 2323 2412
8 2234 2130 2233 2328 2326 2230 2325 2413
8 2235 2131 2234 2329 2327 2231 2326 2414
8 2237 2134 2236 2330 2329 2234 2328 2415
8 2259 2158 2260 2352 2332 2239 2331 2417
8 2257 2157 2259 2350 2334 2240 2332 2419
8 2240 2139 2239 2332 2335 2241 2333 2420
8 2334 2240 2335 2422 2242 2140 2243 2337
8 2335 2241 2336 2423 2243 2141 2244 2338
8 2337 2243 2338 2425 2247 2143 2246 2342
8 2338 2244 2339 2426 2246 2142 2245 2341
8 2341 2245 2340 2428 2249 2145 2248 2343
8 2342 2246 2341 2429 2250 2146 2249 2344
8 2344 2249 2343 2430 2252 2149 2251 2345
8 2188 2285 2347 2254 2284 2374 2432 2346
8 2347 2254 2346 2432 2271 2169 2270 2364
8 2365 2271 2170 2272 2433 2347 2255 2348
8 2286 2189 2285 2375 2348 2255 2347 2433
8 2349 2258 2351 2435 2257 2157 2259 2350
8 2349 2258 2164 2263 2435 2351 2264 2355
8 2259 2158 2261 2351 2352 2260 2354 2437
8 2356 2265 2354 2437 2264 2165 2261 2351
8 2441 2357 2264 2355 2362 2268 2168 2269
8 2356 2265 2165 2264 2442 2358 2266 2357
8 2443 2359 2266 2357 2361 2267 2166 2268
8 2370 2279 2360 2446 2280 2181 2267 2361
8 2362 2268 2182 2281 2447 2361 2280 2371
8 2180 2277 2368 2278 2270 2364 2449 2363
8 2271 2365 2273 2177 2364 2450 2366 2277
8 2372 2283 2186 2282 2451 2368 2276 2367
8 2178 2274 2367 2276 2277 2366 2451 2368
8 2283 2187 2278 2368 2370 2279 2369 2452
8 2372 2283 2370 2453 2282 2186 2280 2371
8 2284 2374 2455 2373 2201 2292 2380 2295
8 2375 2285 2197 2289 2456 2374 2292 2378
8 2376 2291 2204 2296 2457 2379 2297 2383
8 2288 2199 2291 2376 2377 2293 2379 2457
8 2198 2290 2378 2292 2293 2377 2458 2380
8 2293 2202 2294 2379 2380 2295 2381 2459
8 2384 2298 2381 2459 2297 2205 2294 2379
8 2386 2300 2384 2463 2299 2207 2297 2383
8 2387 2301 2385 2464 2300 2208 2298 2384
8 2389 2303 2387 2466 2302 2210 2300 2386
8 2390 2304 2388 2467 2303 2211 2301 2387
8 2392 2306 2390 2469 2305 2213 2303 2389
8 2393 2307 2391 2470 2306 2214 2304 2390
8 2395 2308 2393 2472 2310 2216 2306 2392
8 2308 2215 2309 2396 2393 2307 2394 2473
8 2395 2308 2216 2310 2475 2396 2311 2398
8 2396 2309 2217 2311 2476 2397 2312 2399
8 2398 2311 2219 2315 2478 2399 2314 2403
8 2399 2312 2218 2314 2479 2400 2313 2402
8 2317 2221 2316 2405 2402 2313 2401 2482
8 2403 2314 2222 2318 2483 2402 2317 2406
8 2320 2224 2319 2408 2405 2316 2404 2485
8 2321 2225 2320 2409 2406 2317 2405 2486
8 2323 2227 2322 2411 2408 2319 2407 2488
8 2324 2228 2323 2412 2409 2320 2408 2489
8 2326 2230 2325 2413 2411 2322 2410 2490
8 2327 2231 2326 2414 2412 2323 2411 2491
8 2329 2234 2328 2415 2414 2326 2413 2492
8 2417 2331 2260 2352 2494 2416 2353 2438
8 2350 2259 2352 2436 2419 2332 2417 2496
8 2332 2239 2331 2417 2420 2333 2418 2497
8 2334 2240 2332 2419 2422 2335 2420 2499
8 2420 2333 2421 2500 2335 2241 2336 2423
8 2422 2335 2423 2502 2337 2243 2338 2425
8 2423 2336 2424 2503 2338 2244 2339 2426
8 2425 2338 2426 2505 2342 2246 2341 2429
8 2426 2339 2427 2506 2341 2245 2340 2428
8 2429 2341 2428 2507 2344 2249 2343 2430
8 2432 2346 2284 2374 2509 2431 2373 2455
8 2432 2346 2431 2509 2364 2270 2363 2449
8 2375 2285 2374 2456 2433 2347 2432 2510
8 2347 2433 2365 2271 2432 2510 2450 2364
8 2350 2259 2351 2435 2436 2352 2437 2514
8 2440 2356 2437 2514 2355 2264 2351 2435
8 2352 2260 2354 2437 2438 2353 2439 2516
8 2356 2265 2358 2442 2437 2354 2439 2516
8 2440 2356 2264 2355 2518 2442 2357 2441
8 2519 2443 2357 2441 2447 2361 2268 2362
8 2443 2359 2444 2520 2357 2266 2358 2442
8 2443 2359 2267 2361 2520 2444 2360 2446
8 2446 2360 2279 2370 2523 2445 2369 2452
8 2453 2370 2446 2524 2371 2280 2361 2447
8 2449 2363 2448 2525 2368 2278 2369 2452
8 2366 2277 2364 2450 2451 2368 2449 2526
8 2372 2283 2368 2451 2453 2370 2452 2527
8 2455 2373 2295 2380 2529 2454 2382 2460
8 2456 2374 2292 2378 2530 2455 2380 2458
8 2377 2293 2379 2457 2458 2380 2459 2531
8 2463 2384 2459 2531 2383 2297 2379 2457
8 2533 2461 2382 2460 2459 2381 2295 2380
8 2464 2385 2461 2533 2384 2298 2381 2459
8 2466 2387 2464 2537 2386 2300 2384 2463
8 2467 2388 2465 2538 2387 2301 2385 2464
8 2469 2390 2467 2540 2389 2303 2387 2466
8 2470 2391 2468 2541 2390 2304 2388 2467
8 2472 2393 2470 2543 2392 2306 2390 2469
8 2393 2307 2394 2473 2470 2391 2471 2544
8 2395 2308 2396 2475 2472 2393 2473 2546
8 2396 2309 2397 2476 2473 2394 2474 2547
8 2475 2396 2311 2398 2549 2476 2399 2478
8 2476 2397 2312 2399 2550 2477 2400 2479
8 2478 2399 2314 2403 2552 2479 2402 2483
8 2479 2400 2313 2402 2553 2480 2401 2482
8 2405 2316 2404 2485 2482 2401 2481 2556
8 2406 2317 2405 2486 2483 2402 2482 2557
8 2408 2319 2407 2488 2485 2404 2484 2559
8 2409 2320 2408 2489 2486 2405 2485 2560
8 2411 2322 2410 2490 2488 2407 2487 2561
8 2412 2323 2411 2491 2489 2408 2488 2562
8 2414 2326 2413 2492 2491 2411 2490 2563
8 2513 2434 2493 2565 2438 2353 2416 2494
8 2496 2417 2352 2436 2567 2494 2438 2515
8 2494 2416 2495 2568 2417 2331 2418 2497
8 2419 2332 2417 2496 2499 2420 2497 2570
8 2497 2418 2498 2571 2420 2333 2421 2500
8 2499 2420 2500 2573 2422 2335 2423 2502
8 2500 2421 2501 2574 2423 2336 2424 2503
8 2502 2423 2503 2576 2425 2338 2426 2505
8 2503 2424 2504 2577 2426 2339 2427 2506
8 2505 2426 2506 2578 2429 2341 2428 2507
8 2509 2431 2373 2455 2580 2508 2454 2529
8 2509 2431 2508 2580 2449 2363 2448 2525
8 2432 2510 2581 2509 2374 2456 2530 2455
8 2432 2510 2450 2364 2509 2581 2526 2449
8 2583 2511 2434 2513 2516 2439 2353 2438
8 2436 2352 2437 2514 2515 2438 2516 2588
8 2440 2356 2442 2518 2514 2437 2516 2588
8 2442 2358 2444 2520 2516 2439 2517 2589
8 2519 2443 2520 2591 2441 2357 2442 2518
8 2519 2443 2361 2447 2591 2520 2446 2524
8 2446 2360 2445 2523 2520 2444 2521 2592
8 2525 2448 2522 2593 2452 2369 2445 2523
8 2524 2446 2370 2453 2594 2523 2452 2527
8 2526 2449 2525 2595 2451 2368 2452 2527
8 2534 2462 2528 2597 2460 2382 2454 2529
8 2530 2455 2380 2458 2598 2529 2460 2532
8 2599 2533 2460 2532 2531 2459 2380 2458
8 2537 2464 2533 2599 2463 2384 2459 2531
8 2534 2462 2382 2460 2601 2535 2461 2533
8 2538 2465 2535 2601 2464 2385 2461 2533
8 2540 2467 2538 2604 2466 2387 2464 2537
8 2541 2468 2539 2605 2467 2388 2465 2538
8 2543 2470 2541 2607 2469 2390 2467 2540
8 2470 2391 2471 2544 2541 2468 2542 2608
8 2472 2393 2473 2546 2543 2470 2544 2610
8 2473 2394 2474 2547 2544 2471 2545 2611
8 2475 2396 2476 2549 2546 2473 2547 2613
8 2476 2397 2477 2550 2547 2474 2548 2614
8 2549 2476 2399 2478 2616 2550 2479 2552
8 2479 2400 2480 2553 2550 2477 2551 2617
8 2552 2479 2402 2483 2619 2553 2482 2557
8 2482 2401 2481 2556 2553 2480 2554 2620
8 2485 2404 2484 2559 2556 2481 2555 2623
8 2486 2405 2485 2560 2557 2482 2556 2624
8 2488 2407 2487 2561 2559 2484 2558 2625
8 2489 2408 2488 2562 2560 2485 2559 2626
8 2491 2411 2490 2563 2562 2488 2561 2627
8 2513 2434 2512 2585 2565 2493 2564 2630
8 2586 2513 2565 2632 2515 2438 2494 2567
8 2565 2493 2566 2633 2494 2416 2495 2568
8 2567 2494 2568 2635 2496 2417 2497 2570
8 2568 2495 2569 2636 2497 2418 2498 2571
8 2570 2497 2571 2638 2499 2420 2500 2573
8 2571 2498 2572 2639 2500 2421 2501 2574
8 2573 2500 2574 2641 2502 2423 2503 2576
8 2574 2501 2575 2642 2503 2424 2504 2577
8 2576 2503 2577 2643 2505 2426 2506 2578
8 2597 2528 2579 2645 2529 2454 2508 2580
8 2580 2508 2579 2645 2525 2448 2522 2593
8 2581 2509 2455 2530 2646 2580 2529 2598
8 2581 2509 2580 2646 2526 2449 2525 2595
8 2583 2511 2582 2648 2513 2434 2512 2585
8 2583 2511 2439 2516 2648 2582 2517 2589
8 2649 2583 2513 2586 2588 2516 2438 2515
8 2589 2517 2444 2520 2653 2587 2521 2592
8 2518 2442 2520 2591 2588 2516 2589 2654
8 2593 2522 2590 2655 2523 2445 2521 2592
8 2524 2446 2523 2594 2591 2520 2592 2656
8 2595 2525 2593 2657 2527 2452 2523 2594
8 2602 2536 2596 2659 2534 2462 2528 2597
8 2600 2534 2597 2660 2532 2460 2529 2598
8 2600 2534 2460 2532 2661 2601 2533 2599
8 2604 2538 2601 2661 2537 2464 2533 2599
8 2602 2536 2462 2534 2663 2603 2535 2601
8 2601 2535 2465 2538 2663 2603 2539 2605
8 2607 2541 2605 2665 2540 2467 2538 2604
8 2608 2542 2606 2666 2541 2468 2539 2605
8 2543 2470 2544 2610 2607 2541 2608 2668
8 2544 2471 2545 2611 2608 2542 2609 2669
8 2546 2473 2547 2613 2610 2544 2611 2671
8 2547 2474 2548 2614 2611 2545 2612 2672
8 2549 2476 2550 2616 2613 2547 2614 2674
8 2550 2477 2551 2617 2614 2548 2615 2675
8 2552 2479 2553 2619 2616 2550 2617 2677
8 2553 2480 2554 2620 2617 2551 2618 2678
8 2557 2482 2556 2624 2619 2553 2620 2680
8 2556 2481 2555 2623 2620 2554 2621 2681
8 2559 2484 2558 2625 2623 2555 2622 2683
8 2560 2485 2559 2626 2624 2556 2623 2684
8 2562 2488 2561 2627 2626 2559 2625 2685
8 2690 2629 2564 2630 2650 2584 2512 2585
8 2586 2513 2585 2651 2632 2565 2630 2691
8 2630 2564 2631 2692 2565 2493 2566 2633
8 2632 2565 2633 2694 2567 2494 2568 2635
8 2633 2566 2634 2695 2568 2495 2569 2636
8 2635 2568 2636 2697 2570 2497 2571 2638
8 2636 2569 2637 2698 2571 2498 2572 2639
8 2638 2571 2639 2700 2573 2500 2574 2641
8 2639 2572 2640 2701 2574 2501 2575 2642
8 2641 2574 2642 2702 2576 2503 2577 2643
8 2597 2528 2596 2659 2645 2579 2644 2704
8 2645 2579 2644 2704 2593 2522 2590 2655
8 2660 2597 2645 2705 2598 2529 2580 2646
8 2646 2580 2645 2705 2595 2525 2593 2657
8 2650 2584 2512 2585 2707 2647 2582 2648
8 2648 2582 2517 2589 2707 2647 2587 2653
8 2649 2583 2648 2708 2586 2513 2585 2651
8 2649 2583 2516 2588 2708 2648 2589 2654
8 2655 2590 2652 2710 2592 2521 2587 2653
8 2654 2589 2520 2591 2711 2653 2592 2656
8 2657 2593 2655 2712 2594 2523 2592 2656
8 2602 2536 2603 2663 2659 2596 2658 2714
8 2662 2602 2659 2715 2600 2534 2597 2660
8 2662 2602 2534 2600 2717 2663 2601 2661
8 2661 2601 2538 2604 2717 2663 2605 2665
8 2666 2606 2664 2718 2605 2539 2603 2663
8 2668 2608 2666 2720 2607 2541 2605 2665
8 2608 2542 2609 2669 2666 2606 2667 2721
8 2610 2544 2611 2671 2668 2608 2669 2723
8 2611 2545 2612 2672 2669 2609 2670 2724
8 2613 2547 2614 2674 2671 2611 2672 2726
8 2614 2548 2615 2675 2672 2612 2673 2727
8 2616 2550 2617 2677 2674 2614 2675 2729
8 2617 2551 2618 2678 2675 2615 2676 2730
8 2619 2553 2620 2680 2677 2617 2678 2732
8 2620 2554 2621 2681 2678 2618 2679 2733
8 2624 2556 2623 2684 2680 2620 2681 2735
8 2681 2621 2555 2623 2736 2682 2622 2683
8 2626 2559 2625 2685 2684 2623 2683 2737
8 2688 2628 2584 2650 2740 2686 2647 2707
8 2688 2628 2687 2742 2650 2584 2629 2690
8 2690 2629 2689 2745 2630 2564 2631 2692
8 2746 2690 2630 2691 2709 2650 2585 2651
8 2691 2630 2692 2747 2632 2565 2633 2694
8 2692 2631 2693 2748 2633 2566 2634 2695
8 2694 2633 2695 2750 2635 2568 2636 2697
8 2695 2634 2696 2751 2636 2569 2637 2698
8 2697 2636 2698 2753 2638 2571 2639 2700
8 2698 2637 2699 2754 2639 2572 2640 2701
8 2700 2639 2701 2755 2641 2574 2642 2702
8 2659 2596 2658 2714 2704 2644 2703 2757
8 2704 2644 2703 2757 2655 2590 2652 2710
8 2660 2597 2659 2715 2705 2645 2704 2758
8 2705 2645 2704 2758 2657 2593 2655 2712
8 2759 2706 2647 2707 2710 2652 2587 2653
8 2709 2650 2585 2651 2760 2707 2648 2708
8 2708 2648 2589 2654 2760 2707 2653 2711
8 2712 2655 2710 2761 2656 2592 2653 2711
8 2763 2713 2658 2714 2718 2664 2603 2663
8 2662 2602 2663 2717 2715 2659 2714 2764
8 2720 2666 2718 2767 2665 2605 2663 2717
8 2768 2719 2664 2718 2721 2667 2606 2666
8 2668 2608 2669 2723 2720 2666 2721 2770
8 2669 2609 2670 2724 2721 2667 2722 2771
8 2671 2611 2672 2726 2723 2669 2724 2773
8 2672 2612 2673 2727 2724 2670 2725 2774
8 2674 2614 2675 2729 2726 2672 2727 2776
8 2675 2615 2676 2730 2727 2673 2728 2777
8 2677 2617 2678 2732 2729 2675 2730 2779
8 2678 2618 2679 2733 2730 2676 2731 2780
8 2680 2620 2681 2735 2732 2678 2733 2782
8 2733 2679 2621 2681 2783 2734 2682 2736
8 2735 2681 2623 2684 2784 2736 2683 2737
8 2740 2686 2647 2707 2787 2738 2706 2759
8 2688 2628 2686 2740 2742 2687 2739 2789
8 2743 2688 2650 2709 2790 2740 2707 2760
8 2742 2687 2741 2792 2690 2629 2689 2745
8 2743 2688 2742 2793 2709 2650 2690 2746
8 2745 2689 2744 2795 2692 2631 2693 2748
8 2746 2690 2745 2796 2691 2630 2692 2747
8 2747 2692 2748 2797 2694 2633 2695 2750
8 2748 2693 2749 2798 2695 2634 2696 2751
8 2750 2695 2751 2800 2697 2636 2698 2753
8 2751 2696 2752 2801 2698 2637 2699 2754
8 2753 2698 2754 2802 2700 2639 2701 2755
8 2763 2713 2756 2804 2714 2658 2703 2757
8 2759 2706 2652 2710 2804 2756 2703 2757
8 2715 2659 2714 2764 2758 2704 2757 2805
8 2758 2704 2757 2805 2712 2655 2710 2761
8 2806 2759 2707 2760 2761 2710 2653 2711
8 2765 2716 2762 2808 2718 2664 2713 2763
8 2809 2763 2714 2764 2767 2718 2663 2717
8 2765 2716 2664 2718 2811 2766 2719 2768
8 2813 2768 2718 2767 2770 2721 2666 2720
8 2814 2769 2719 2768 2771 2722 2667 2721
8 2723 2669 2724 2773 2770 2721 2771 2816
8 2724 2670 2725 2774 2771 2722 2772 2817
8 2726 2672 2727 2776 2773 2724 2774 2819
8 2727 2673 2728 2777 2774 2725 2775 2820
8 2729 2675 2730 2779 2776 2727 2777 2822
8 2730 2676 2731 2780 2777 2728 2778 2823
8 2732 2678 2733 2782 2779 2730 2780 2825
8 2780 2731 2679 2733 2826 2781 2734 2783
8 2782 2733 2681 2735 2827 2783 2736 2784
8 2830 2785 2738 2787 2804 2756 2706 2759
8 2789 2739 2686 2740 2832 2786 2738 2787
8 2790 2740 2707 2760 2833 2787 2759 2806
8 2742 2687 2739 2789 2792 2741 2788 2835
8 2743 2688 2740 2790 2793 2742 2789 2836
8 2792 2741 2791 2838 2745 2689 2744 2795
8 2793 2742 2792 2839 2746 2690 2745 2796
8 2795 2744 2794 2841 2748 2693 2749 2798
8 2796 2745 2795 2842 2747 2692 2748 2797
8 2797 2748 2798 2843 2750 2695 2751 2800
8 2798 2749 2799 2844 2751 2696 2752 2801
8 2800 2751 2801 2845 2753 2698 2754 2802
8 2808 2762 2803 2847 2763 2713 2756 2804
8 2809 2763 2804 2848 2764 2714 2757 2805
8 2806 2759 2710 2761 2848 2804 2757 2805
8 2765 2716 2766 2811 2808 2762 2807 2850
8 2810 2765 2808 2851 2767 2718 2763 2809
8 2810 2765 2718 2767 2852 2811 2768 2813
8 2811 2766 2719 2768 2853 2812 2769 2814
8 2855 2814 2768 2813 2816 2771 2721 2770
8 2856 2815 2769 2814 2817 2772 2722 2771
8 2773 2724 2774 2819 2816 2771 2817 2858
8 2774 2725 2775 2820 2817 2772 2818 2859
8 2776 2727 2777 2822 2819 2774 2820 2861
8 2777 2728 2778 2823 2820 2775 2821 2862
8 2779 2730 2780 2825 2822 2777 2823 2864
8 2823 2778 2731 2780 2865 2824 2781 2826
8 2825 2780 2733 2782 2866 2826 2783 2827
8 2869 2828 2785 2830 2847 2803 2756 2804
8 2871 2829 2786 2832 2830 2785 2738 2787
8 2872 2830 2787 2833 2848 2804 2759 2806
8 2789 2739 2786 2832 2835 2788 2831 2874
8 2836 2789 2740 2790 2875 2832 2787 2833
8 2792 2741 2788 2835 2838 2791 2834 2877
8 2793 2742 2789 2836 2839 2792 2835 2878
8 2838 2791 2837 2880 2795 2744 2794 2841
8 2839 2792 2838 2881 2796 2745 2795 2842
8 2841 2794 2840 2882 2798 2749 2799 2844
8 2842 2795 2841 2883 2797 2748 2798 2843
8 2843 2798 2844 2884 2800 2751 2801 2845
8 2886 2846 2803 2847 2850 2807 2762 2808
8 2851 2808 2847 2887 2809 2763 2804 2848
8 2850 2807 2766 2811 2889 2849 2812 2853
8 2810 2765 2811 2852 2851 2808 2850 2890
8 2852 2811 2768 2813 2891 2853 2814 2855
8 2853 2812 2769 2814 2892 2854 2815 2856
8 2894 2856 2814 2855 2858 2817 2771 2816
8 2817 2772 2818 2859 2856 2815 2857 2895
8 2819 2774 2820 2861 2858 2817 2859 2897
8 2820 2775 2821 2862 2859 2818 2860 2898
8 2822 2777 2823 2864 2861 2820 2862 2900
8 2823 2778 2824 2865 2862 2821 2863 2901
8 2864 2823 2780 2825 2902 2865 2826 2866
8 2904 2867 2828 2869 2886 2846 2803 2847
8 2869 2828 2868 2906 2830 2785 2829 2871
8 2907 2869 2830 2872 2887 2847 2804 2848
8 2871 2829 2870 2909 2832 2786 2831 2874
8 2910 2871 2832 2875 2872 2830 2787 2833
8 2835 2788 2831 2874 2877 2834 2873 2912
8 2836 2789 2832 2875 2878 2835 2874 2913
8 2877 2834 2876 2915 2838 2791 2837 2880
8 2839 2792 2835 2878 2881 2838 2877 2916
8 2880 2837 2879 2917 2841 2794 2840 2882
8 2881 2838 2880 2918 2842 2795 2841 2883
8 2883 2841 2882 2919 2843 2798 2844 2884
8 2921 2885 2846 2886 2889 2849 2807 2850
8 2922 2886 2847 2887 2890 2850 2808 2851
8 2889 2849 2812 2853 2924 2888 2854 2892
8 2890 2850 2811 2852 2925 2889 2853 2891
8 2891 2853 2814 2855 2926 2892 2856 2894
8 2892 2854 2815 2856 2927 2893 2857 2895
8 2858 2817 2859 2897 2894 2856 2895 2929
8 2859 2818 2860 2898 2895 2857 2896 2930
8 2861 2820 2862 2900 2897 2859 2898 2932
8 2862 2821 2863 2901 2898 2860 2899 2933
8 2864 2823 2865 2902 2900 2862 2901 2934
8 2904 2867 2846 2886 2936 2903 2885 2921
8 2904 2867 2903 2936 2869 2828 2868 2906
8 2937 2904 2869 2907 2922 2886 2847 2887
8 2906 2868 2905 2939 2871 2829 2870 2909
8 2907 2869 2906 2940 2872 2830 2871 2910
8 2909 2870 2908 2942 2874 2831 2873 2912
8 2910 2871 2909 2943 2875 2832 2874 2913
8 2912 2873 2911 2945 2877 2834 2876 2915
8 2878 2835 2874 2913 2916 2877 2912 2946
8 2915 2876 2914 2947 2880 2837 2879 2917
8 2916 2877 2915 2948 2881 2838 2880 2918
8 2918 2880 2917 2949 2883 2841 2882 2919
8 2921 2885 2849 2889 2951 2920 2888 2924
8 2952 2921 2886 2922 2925 2889 2850 2890
8 2924 2888 2854 2892 2954 2923 2893 2927
8 2925 2889 2853 2891 2955 2924 2892 2926
8 2926 2892 2856 2894 2956 2927 2895 2929
8 2895 2857 2896 2930 2927 2893 2928 2957
8 2897 2859 2898 2932 2929 2895 2930 2959
8 2898 2860 2899 2933 2930 2896 2931 2960
8 2900 2862 2901 2934 2932 2898 2933 2961
8 2936 2903 2885 2921 2963 2935 2920 2951
8 2936 2903 2935 2963 2906 2868 2905 2939
8 2937 2904 2886 2922 2964 2936 2921 2952
8 2937 2904 2936 2964 2907 2869 2906 2940
8 2939 2905 2938 2966 2909 2870 2908 2942
8 2940 2906 2939 2967 2910 2871 2909 2943
8 2942 2908 2941 2969 2912 2873 2911 2945
8 2943 2909 2942 2970 2913 2874 2912 2946
8 2945 2911 2944 2971 2915 2876 2914 2947
8 2946 2912 2945 2972 2916 2877 2915 2948
8 2948 2915 2947 2973 2918 2880 2917 2949
8 2951 2920 2888 2924 2975 2950 2923 2954
8 2952 2921 2889 2925 2976 2951 2924 2955
8 2927 2893 2928 2957 2954 2923 2953 2978
8 2955 2924 2892 2926 2979 2954 2927 2956
8 2929 2895 2930 2959 2956 2927 2957 2980
8 2930 2896 2931 2960 2957 2928 2958 2981
8 2932 2898 2933 2961 2959 2930 2960 2982
8 2951 2920 2950 2975 2963 2935 2962 2984
8 2963 2935 2962 2984 2939 2905 2938 2966
8 2964 2936 2921 2952 2985 2963 2951 2976
8 2964 2936 2963 2985 2940 2906 2939 2967
8 2966 2938 2965 2987 2942 2908 2941 2969
8 2967 2939 2966 2988 2943 2909 2942 2970
8 2969 2941 2968 2989 2945 2911 2944 2971
8 2970 2942 2969 2990 2946 2912 2945 2972
8 2972 2945 2971 2991 2948 2915 2947 2973
8 2954 2923 2953 2978 2975 2950 2974 2993
8 2976 2951 2924 2955 2994 2975 2954 2979
8 2957 2928 2958 2981 2978 2953 2977 2995
8 2956 2927 2957 2980 2979 2954 2978 2996
8 2959 2930 2960 2982 2980 2957 2981 2997
8 2984 2962 2983 2999 2966 2938 2965 2987
8 2975 2950 2974 2993 2984 2962 2983 2999
8 2976 2951 2975 2994 2985 2963 2984 3000
8 2985 2963 2984 3000 2967 2939 2966 2988
8 2987 2965 2986 3001 2969 2941 2968 2989
8 2988 2966 2987 3002 2970 2942 2969 2990
8 2990 2969 2989 3003 2972 2945 2971 2991
8 2978 2953 2977 2995 2993 2974 2992 3004
8 2979 2954 2978 2996 2994 2975 2993 3005
8 2980 2957 2981 2997 2996 2978 2995 3006
8 2974 2993 2999 2983 2992 3004 3007 2998
8 2983 2999 2987 2965 2998 3007 3001 2986
8 3000 2984 2999 3008 2988 2966 2987 3002
8 2994 2975 2993 3005 3000 2984 2999 3008
8 3002 2987 3001 3009 2990 2969 2989 3003
8 2996 2978 2995 3006 3005 2993 3004 3010
8 3005 2993 3004 3010 3008 2999 3007 3011
8 3008 2999 3007 3011 3002 2987 3001 3009

CELL_TYPES 1910
12
12
12
12
12
12
12
12
12
12
12
12
12
12
12
12
12
12
12
12
12
12
12
12
12
12
12
12
12
12
12
12
12
12
12
12
12
12
12
12
12
12
12
12
12
12
12
12
12
12
12
12
12
12
12
12
12
12
12
12
12
12
12
12
12
12
12
12
12
12
12
12
12
12
12
12
12
12
12
12
12
12
12
12
12
12
12
12
12
12
12
12
12
12
12
12
12
12
12
12
12
12
12
12
12
12
12
12
12
12
12
12
12
12
12
12
12
12
12
12
12
12
12
12
12
12
12
12
12
12
12
12
12
12
12
12
12
12
12
12
12
12
12
12
12
12
12
12
12
12
12
12
12
12
12
12
12
12
12
12
12
12
12
12
12
12
12
12
12
12
12
12
12
12
12
12
12
12
12
12
12
12
12
12
12
12
12
12
12
12
12
12
12
12
12
12
12
12
12
12
12
12
12
12
12
12
12
12
12
12
12
12
12
12
12
12
12
12
12
12
12
12
12
12
12
12
12
12
12
12
12
12
12
12
12
12
12
12
12
12
12
12
12
12
12
12
12
12
12
12
12
12
12
12
12
12
12
12
12
12
12
12
12
12
12
12
12
12
12
12
12
12
12
12
12
12
12
12
12
12
12
12
12
12
12
12
12
12
12
12
12
12
12
12
12
12
12
12
12
12
12
12
12
12
12
12
12
12
12
12
12
12
12
12
12
12
12
12
12
12
12
12
12
12
12
12
12
12
12
12
12
12
12
12
12
12
12
12
12
12
12
12
12
12
12
12
12
12
12
12
12
12
12
12
12
12
12
12
12
12
12
12
12
12
12
12
12
12
12
12
12
12
12
12
12
12
12
12
12
12
12
12
12
12
12
12
12
12
12
12
12
12
12
12
12
12
12
12
12
12
12
12
12
12
12
12
12
12
12
12
12
12
12
12
12
12
12
12
12
12
12
12
12
12
12
12
12
12
12
12
12
12
12
12
12
12
12
12
12
12
12
12
12
12
12
12
12
12
12
12
12
12
12
12
12
12
12
12
12
12
12
12
12
12
12
12
12
12
12
12
12
12
12
12
12
12
12
12
12
12
12
12
12
12
12
12
12
12
12
12
12
12
12
12
12
12
12
12
12
12
12
12
12
12
12
12
12
12
12
12
12
12
12
12
12
12
12
12
12
12
12
12
12
12
12
12
12
12
12
12
12
12
12
12
12
12
12
12
12
12
12
12
12
12
12
12
12
12
12
12
12
12
12
12
12
12
12
12
12
12
12
12
12
12
12
12
12
12
12
12
12
12
12
12
12
12
12
12
12
12
12
12
12
12
12
12
12
12
12
12
12
12
12
12
12
12
12
12
12
12
12
12
12
12
12
12
12
12
12
12
12
12
12
12
12
12
12
12
12
12
12
12
12
12
12
12
12
12
12
12
12
12
12
12
12
12
12
12
12
12
12
12
12
12
12
12
12
12
12
12
12
12
12
12
12
12
12
12
12
12
12
12
12
12
12
12
12
12
12
12
12
12
12
12
12
12
12
12
12
12
12
12
12
12
12
12
12
12
12
12
12
12
12
12
12
12
12
12
12
12
12
12
12
12
12
12
12
12
12
12
12
12
12
12
12
12
12
12
12
12
12
12
12
12
12
12
12
12
12
12
12
12
12
12
12
12
12
12
12
12
12
12
12
12
12
12
12
12
12
12
12
12
12
12
12
12
12
12
12
12
12
12
12
12
12
12
12
12
12
12
12
12
12
12
12
12
12
12
12
12
12
12
12
12
12
12
12
12
12
12
12
12
12
12
12
12
12
12
12
12
12
12
12
12
12
12
12
12
12
12
12
12
12
12
12
12
12
12
12
12
12
12
12
12
12
12
12
12
12
12
12
12
12
12
12
12
12
12
12
12
12
12
12
12
12
12
12
12
12
12
12
12
12
12
12
12
12
12
12
12
12
12
12
12
12
12
12
12
12
12
12
12
12
12
12
12
12
12
12
12
12
12
12
12
12
12
12
12
12
12
12
12
12
12
12
12
12
12
12
12
12
12
12
12
12
12
12
12
12
12
12
12
12
12
12
12
12
12
12
12
12
12
12
12
12
12
12
12
12
12
12
12
12
12
12
12
12
12
12
12
12
12
12
12
12
12
12
12
12
12
12
12
12
12
12
12
12
12
12
12
12
12
12
12
12
12
12
12
12
12
12
12
12
12
12
12
12
12
12
12
12
12
12
12
12
12
12
12
12
12
12
12
12
12
12
12
12
12
12
12
12
12
12
12
12
12
12
12
12
12
12
12
12
12
12
12
12
12
12
12
12
12
12
12
12
12
12
12
12
12
12
12
12
12
12
12
12
12
12
12
12
12
12
12
12
12
12
12
12
12
12
12
12
12
12
12
12
12
12
12
12
12
12
12
12
12
12
12
12
12
12
12
12
12
12
12
12
12
12
12
12
12
12
12
12
12
12
12
12
12
12
12
12
12
12
12
12
12
12
12
12
12
12
12
12
12
12
12
12
12
12
12
12
12
12
12
12
12
12
12
12
12
12
12
12
12
12
12
12
12
12
12
12
12
12
12
12
12
12
12
12
12
12
12
12
12
12
12
12
12
12
12
12
12
12
12
12
12
12
12
12
12
12
12
12
12
12
12
12
12
12
12
12
12
12
12
12
12
12
12
12
12
12
12
12
12
12
12
12
12
12
12
12
12
12
12
12
12
12
12
12
12
12
12
12
12
12
12
12
12
12
12
12
12
12
12
12
12
12
12
12
12
12
12
12
12
12
12
12
12
12
12
12
12
12
12
12
12
12
12
12
12
12
12
12
12
12
12
12
12
12
12
12
12
12
12
12
12
12
12
12
12
12
12
12
12
12
12
12
12
12
12
12
12
12
12
12
12
12
12
12
12
12
12
12
12
12
12
12
12
12
12
12
12
12
12
12
12
12
12
12
12
12
12
12
12
12
12
12
12
12
12
12
12
12
12
12
12
12
12
12
12
12
12
12
12
12
12
12
12
12
12
12
12
12
12
12
12
12
12
12
12
12
12
12
12
12
12
12
12
12
12
12
12
12
12
12
12
12
12
12
12
12
12
12
12
12
12
12
12
12
12
12
12
12
12
12
12
12
12
12
12
12
12
12
12
12
12
12
12
12
12
12
12
12
12
12
12
12
12
12
12
12
12
12
12
12
12
12
12
12
12
12
12
12
12
12
12
12
12
12
12
12
12
12
12
12
12
12
12
12
12
12
12
12
12
12
12
12
12
12
12
12
12
12
12
12
12
12
12
12
12
12
12
12
12
12
12
12
12
12
12
12
12
12
12
12
12
12
12
12
12
12
12
12
12
12
12
12
12
12
12
12
12
12
12
12
12
12
12
12
12
12
12
12
12
12
12
12
12
12
12
12
12
12
12
12
12
12
12
12
12
12
12
12
12
12
12
12
12
12
12
12
12
12
12
12
12
12
12
12
12
12
12
12
12
12
12
12
12
12
12
12
12
12
12
12
12
12
12
12
12
12
12
12
12
12
12
12
12
12
12
12
12
12
12
12
12
12
12
12
12
12
12
12
12
12
12
12
12
12
12
12
12
12
12
12
12
12
12
12
12
12
12
12
12
12
12
12
12
12
12
12
12
12
12
12
12
12
12
12
12
12
12
12
12
12
12
12
12
12
12
12
12
12
12
12
12
12
12
12
12
12
12
12
12
12
12
12
12
12
12
12
12
12
12
12
12
12
12
12
12
12
12
12
12
12
12
12
12
12
12
12
12
12
12
12
12
12
12
12
12
12
12
12
12
12
12
12
12
12
12
12
12
12
12
12
12
12
12
12
12
12
12
12
12
12
12
12
12
12
12
12
12
12
12
12
12
12
12
12
12
12
12
12
12
12
12
12
12
12
12
12
12
12
12
12
12
12
12
12
12
12
12
12
12
12
12
12
12
12
12
12
12
12
12
12
12
12
12
12
12
12
12
12
12
12
12
12
12
12
12
12
12
12
12
12
12
12
12
12
12
12
12
12
12
12
12
12
12
12
12
12
12
12
12
12
12
12
12
12
12
12
12
12
12
12
12
12
12
12
12
12
12
12
12
12
12
12
12
12
12
12
12
12
12
12
12
12
12
12
12
12
12
12
12
12
12
12
12
12
12
12
12
12
12
12
12
12
12
12
12
12
12
12
12
12
12
12
12
12
12
12
12
12
12
12
12
12
12
12
12
12
12
12
12
12
12
12
12
12
12
12
12
12
12
12
12
12
12
12
12
12
12
12
12
12
12
12
12
12
12
12
12
12
12
12
12
12
12
12
12
12
12
12
12
12
12
12
12

POINT_DATA 3012
SCALARS Jp_lamdaP float 4
LOOKUP_TABLE default
0.999831 1 1 0.999831
1 1 1 1
0.999836 1 1 0.999836
0.999785 1 1 0.999785
0.99983 1 1 0.99983
0.999823 1 1 0.999823
0.999253 1 1 0.999253
1 1 1 1
1 1 1 1
1 1 1 1
0.999903 1 1 0.999903
0.999406 1 1 0.999406
0.999752 1 1 0.999752
0.999778 1 1 0.999778
0.999836 1 1 0.999836
0.999802 1 1 0.999802
0.999828 1 1 0.999828
0.99984 1 1 0.99984
0.999256 1 1 0.999256
1 1 1 1
0.999765 1 1 0.999765
0.999812 1 1 0.999812
0.999123 1 1 0.999123
0.999223 1 1 0.999223
0.999841 1 1 0.999841
0.999283 1 1 0.999283
0.999935 1.00159 1 0.998345
1 1 1 1
0.999904 1 1 0.999904
0.999918 1 1 0.999918
1 1 1 1
0.999414 1 1 0.999414
0.999803 1 1 0.999803
0.999826 1 1 0.999826
0.999348 1 1 0.999348
1 1 1 1
0.999436 1 1 0.999436
0.999505 1 1 0.999505
0.998408 1.00003 1 0.998376
1 1 1 1
1 1 1 1
0.999887 1 1 0.999887
1 1 1 1
0.999771 1 1 0.999771
0.999051 1 1 0.999051
1 1 1 1
0.999252 1 1 0.999252
0.999817 1 1 0.999817
0.999846 1 1 0.999846
0.999829 1 1 0.999829
0.999261 1 1 0.999261
0.999871 1 1 0.999871
0.999782 1 1 0.999782
0.999852 1 1 0.999852
0.999826 1 1 0.999826
0.999123 1 1 0.999123
0.999288 1 1 0.999288
0.999226 1 1 0.999226
1.00024 1.00191 1 0.99833
1 1 1 1
0.999755 1 1 0.999755
0.999233 1 1 0.999233
0.999087 1 1 0.999087
0.999175 1 1 0.999175
1.0024 1.00436 1 0.998049
1.00088 1.00271 1 0.99818
0.999899 1 1 0.999899
0.999397 1 1 0.999397
0.998991 1.00054 1 0.998448
1.0086 1.01106 1 0.997569
1 1 1 1
1 1 1 1
1 1 1 1
0.999422 1 1 0.999422
1 1 1 1
1 1 1 1
0.999254 1 1 0.999254
0.999975 1 1 0.999975
0.999361 1 1 0.999361
0.999568 1 1 0.999568
0.998381 1.00001 1 0.998373
1 1 1 1
0.999931 1 1 0.999931
0.999191 1 1 0.999191
0.99929 1 1 0.99929
1.00226 1.00431 1 0.997952
0.99973 1 1 0.99973
0.999041 1.00077 1 0.998274
0.998512 1 1 0.998512
0.998873 1.00108 1 0.997791
1 1 1 1
1 1 1 1
1 1 1 1
1 1 1 1
1 1 1 1
0.999882 1 1 0.999882
0.999137 1 1 0.999137
0.999892 1 1 0.999892
0.999199 1 1 0.999199
1 1 1 1
0.999041 1 1 0.999041
0.999226 1 1 0.999226
1.002 1.00434 1 0.99767
0.999288 1 1 0.999288
1.00365 1.00591 1 0.99775
0.99977 1 1 0.99977
0.999796 1 1 0.999796
0.999861 1 1 0.999861
0.999838 1 1 0.999838
0.999124 1 1 0.999124
0.99923 1 1 0.99923
0.999293 1 1 0.999293
1.00054 1.00223 1 0.998315
1 1 1 1
0.999771 1 1 0.999771
0.999067 1 1 0.999067
0.999085 1 1 0.999085
0.999949 1 1 0.999949
0.999455 1 1 0.999455
0.999176 1 1 0.999176
1.00237 1.00438 1 0.998007
0.999263 1.00083 1 0.99843
1.0011 1.0029 1 0.998209
1.00864 1.0111 1 0.997574
0.999064 1 1 0.999064
0.999066 1 1 0.999066
1.00164 1.0038 1 0.997847
1.00242 1.0045 1 0.997932
1.00214 1.00409 1 0.998063
1.01591 1.01858 1 0.997381
1 1 1 1
1.0109 1.01343 1 0.997504
0.999626 1 1 0.999626
0.998519 1.00005 1 0.998474
1.00639 1.00877 1 0.997634
1.01922 1.02194 1 0.997336
0.999826 1 1 0.999826
1.00018 1 1.00111 0.999066
1 1 1 1
1 1 1 1
0.99926 1 1 0.99926
1 1 1 1
0.999561 1 1 0.999561
0.999366 1 1 0.999366
0.998369 1 1 0.998369
1 1 1 1
0.999947 1 1 0.999947
0.999257 1 1 0.999257
0.999351 1 1 0.999351
1.00176 1.00381 1 0.997954
0.999737 1 1 0.999737
0.998767 1.00049 1 0.998278
0.998511 1 1 0.998511
0.998713 1.00094 1 0.997774
0.999845 1 1 0.999845
0.999981 1 1 0.999981
0.999718 1 1.00045 0.999271
1.00342 1.00559 1 0.997841
1.00058 1.00247 1 0.998115
1.01208 1.01476 1 0.997366
0.998743 1 1 0.998743
1.00315 1.00547 1 0.997687
0.999083 1.00063 1.00057 0.997881
1.00361 1.00602 1 0.997606
1 1 1 1
1 1 1 1
1 1 1 1
0.999894 1 1 0.999894
1 1 1 1
1 1 1 1
1 1 1 1
0.999145 1 1 0.999145
0.999078 1 1 0.999078
1 1 1 1
1 1 1 1
0.999043 1 1 0.999043
0.999173 1 1 0.999173
1.00229 1.00463 1 0.99767
0.999172 1 1 0.999172
1.00372 1.00598 1 0.99775
0.999035 1 1 0.999035
1.00128 1.00366 1 0.997623
1.00291 1.0052 1 0.99772
1.01915 1.02202 1 0.997195
1.00381 1.00604 1 0.997781
1.01972 1.02253 1 0.997255
1 1 1 1
0.999787 1 1 0.999787
0.998886 1 1 0.998886
0.999084 1 1 0.999084
1 1 1 1
0.999513 1 1 0.999513
0.99918 1 1 0.99918
1.00234 1.00438 1 0.997966
1.00134 1.0031 1 0.998238
0.999507 1.0011 1 0.998411
1.00867 1.01112 1 0.997578
0.999061 1 1 0.999061
0.999064 1 1 0.999064
1.0015 1.00376 1 0.997748
1.00244 1.00449 1 0.997961
1 1 1 1
0.999628 1 1 0.999628
0.998692 1.00016 1 0.99853
1.00209 1.00404 1 0.998062
1.01578 1.01849 1 0.997345
1.00614 1.00854 1 0.997622
1.01113 1.01362 1 0.997536
1.01879 1.0215 1 0.997343
0.999825 1 1.00001 0.999816
1.00024 1 1.00117 0.999067
1.00089 1.00325 1 0.997645
1.00211 1.00422 1 0.997894
1.01717 1.01994 1 0.99729
1.01623 1.019 1 0.997274
1.0133 1.01587 1 0.997474
1.02722 1.03002 1 0.997285
0.999737 1 1 0.999737
1.02104 1.02377 1 0.997337
0.998748 1 1.00011 0.998642
1.00139 1.00364 1 0.997756
1.01696 1.01964 1 0.997366
1.02173 1.02442 1 0.997374
0.999938 1 1.00103 0.998905
0.999463 1 1.00019 0.999271
1.00106 1 1.00257 0.998497
0.999212 1 1 0.999212
1 1 1 1
0.999964 1 1 0.999964
0.999319 1 1 0.999319
1.00126 1.00331 1 0.997956
0.999745 1 1 0.999745
0.998551 1 1.00004 0.99851
0.998496 1.00022 1 0.998281
0.998558 1.0008 1 0.997758
0.999865 1 1 0.999865
0.999987 1 1 0.999987
0.999837 1 1.00056 0.999273
1.00312 1.00529 1 0.997841
1.00005 1.00193 1 0.998119
1.01205 1.01472 1 0.997363
0.998767 1 1.00002 0.998747
1.00286 1.00518 1 0.997697
0.998953 1.00061 1.00047 0.997877
1.00383 1.00626 1 0.997591
0.999998 1 1 0.999998
0.999242 1 1.00025 0.998995
0.999886 1 1.00035 0.999537
1.00005 1 1.00136 0.998697
1.01573 1.01849 1 0.997286
1.00797 1.01046 1 0.99753
1.02138 1.02426 1 0.997189
0.998789 1.00016 1.00047 0.998151
1.00961 1.01213 1 0.99751
1.00523 1.0061 1.00158 0.997558
1.01309 1.01567 1 0.997459
0.999835 1 1 0.999835
1 1 1 1
1 1 1 1
1 1 1 1
1 1 1 1
0.999944 1 1 0.999944
1 1 1 1
0.999882 1 1 0.999882
1 1 1 1
0.999173 1 1 0.999173
0.999115 1 1 0.999115
1.00387 1.00613 1 0.997749
1.00255 1.00489 1 0.997671
0.999045 1 1 0.999045
1 1 1 1
0.999034 1 1 0.999034
1.00145 1.00384 1 0.997623
1.00317 1.00546 1 0.99772
1.01884 1.02171 1 0.997193
1.00378 1.00601 1 0.99778
1.0197 1.0225 1 0.997254
1.00083 1.00322 1 0.997616
1.01815 1.02106 1 0.997152
1.01979 1.02262 1 0.997233
1.0328 1.03564 1 0.997258
1.01881 1.0216 1 0.997264
1.03123 1.03406 1 0.997257
0.999058 1 1 0.999058
0.999062 1 1 0.999062
1.00136 1.00372 1 0.997651
1.00247 1.00449 1 0.997989
1 1 1 1
0.99963 1 1 0.99963
0.998885 1.0003 1 0.998585
1.00204 1.00399 1 0.99806
1.01567 1.01841 1 0.997309
1.01132 1.01379 1 0.997568
1.0059 1.00831 1 0.997611
1.01847 1.02117 1 0.99735
0.999806 1 1 0.999806
1.00016 1 1.00109 0.999069
1.00085 1.00324 1 0.997619
1.00207 1.00419 1 0.997891
1.01736 1.02013 1 0.997291
1.01636 1.01911 1 0.997309
0.999727 1 1 0.999727
0.998679 1 1.00004 0.998639
1.00209 1.00431 1 0.997791
1.01355 1.01612 1 0.997469
1.02746 1.03024 1 0.9973
1.01629 1.01901 1 0.997333
1.02093 1.02365 1 0.997341
1.02213 1.02482 1 0.997374
0.999571 1 1.00066 0.998908
1.00098 1 1.00249 0.998499
0.999774 1 1.00051 0.999268
1.01715 1.01996 1 0.997238
1.01745 1.02018 1 0.997317
1.03143 1.03429 1 0.99724
1.02891 1.03175 1 0.997251
1.02314 1.02588 1 0.997336
1.02813 1.03073 1 0.997473
0.99892 1 1.00013 0.998793
1.02375 1.02639 1 0.997426
0.998754 1.00068 1 0.998073
1.00819 1.01087 1 0.997349
1.01926 1.0221 1 0.997217
1.02007 1.02258 1 0.997542
0.99945 1 1 0.99945
0.998739 1 1.00028 0.998458
1.0018 1 1.00321 0.998596
0.999783 1 1.00147 0.998317
1.00283 1.005 1 0.99784
0.999993 1 1 0.999993
0.999885 1 1 0.999885
0.999727 1 1.00045 0.999276
0.999487 1.00137 1 0.998124
1.012 1.01468 1 0.99736
0.998841 1 1.00009 0.99875
0.998745 1.00055 1.00033 0.997872
1.00257 1.00488 1 0.997708
1.00389 1.00632 1 0.997576
0.999999 1 1 0.999999
0.999336 1 1.00034 0.998996
0.999699 1 1.00015 0.999545
1.00036 1 1.00167 0.998692
1.01559 1.01836 1 0.997282
1.00743 1.00993 1 0.997531
1.0213 1.02418 1 0.997187
0.998672 1.00007 1.00045 0.998157
1.00982 1.01232 1 0.997523
1.00493 1.00567 1.00173 0.997547
1.01325 1.01576 1 0.997527
1 1 1 1
0.999702 1 1 0.999702
0.998957 1 1.0005 0.998454
1.00006 1 1.0011 0.998953
0.999908 1 1.0015 0.998412
1.02479 1.02769 1 0.997175
1.01572 1.01844 1 0.997329
1.02014 1.02298 1 0.997223
1.00221 1.00244 1.00199 0.997781
1.01251 1.0151 1 0.997448
1.00875 1.01063 1.00086 0.997274
0.999816 1 1 0.999816
0.999419 1 1 0.999419
0.999849 1 1 0.999849
0.999837 1 1 0.999837
1 1 1 1
1 1 1 1
1 1 1 1
1 1 1 1
1 1 1 1
0.999979 1 1 0.999979
1 1 1 1
0.999932 1 1 0.999932
1 1 1 1
0.999887 1 1.00002 0.99987
1 1 1 1
1.00372 1.00595 1 0.997778
1.00337 1.00567 1 0.997719
1.01949 1.0223 1 0.997252
1.01851 1.02138 1 0.997192
1.00168 1.00407 1 0.997623
0.999033 1 1 0.999033
1.00096 1.00335 1 0.997616
1.01806 1.02096 1 0.997152
1.0194 1.02223 1 0.997232
1.03291 1.0358 0.999942 0.997272
1.01836 1.02116 1 0.997261
1.0308 1.03364 1 0.997256
1.01762 1.02053 1 0.997142
1.03216 1.03514 0.999864 0.997259
1.03269 1.03552 1 0.997265
1.03491 1.03812 0.999455 0.997447
1.02749 1.03036 1 0.997222
1.03178 1.03435 1 0.997511
1.00084 1.00326 1 0.997594
1.00204 1.00416 1 0.997888
1.01756 1.02033 1 0.997291
1.01649 1.0192 1 0.997343
0.999716 1 1 0.999716
0.998637 1 1 0.998637
1.00279 1.00497 1 0.997826
1.01381 1.01639 1 0.997465
1.02774 1.0305 1 0.997316
1.02082 1.02354 1 0.997344
1.01554 1.01829 1 0.9973
1.0225 1.02519 1 0.997373
0.99937 1 1.00046 0.99891
1.00095 1 1.00245 0.998501
1.00004 1 1.00078 0.999265
1.01728 1.02013 1 0.997203
1.01758 1.02032 1 0.997315
1.03101 1.03385 1 0.99726
1.02913 1.03197 1 0.997251
0.998905 1 1.00011 0.998792
0.999521 1.00146 1 0.998066
1.00737 1.00997 1.00003 0.997399
1.02331 1.02605 1 0.997329
1.02783 1.03039 1 0.997512
1.01936 1.02224 1 0.997183
1.02373 1.02637 1 0.997429
1.01984 1.02233 1 0.997569
0.998895 1 1.00044 0.99846
0.999786 1 1.00149 0.998298
0.999445 1 1 0.999445
1.00162 1 1.003 0.998624
1.03148 1.03436 1 0.997217
1.0312 1.03402 1 0.997269
1.03228 1.03539 0.999632 0.997366
1.02998 1.03298 0.99959 0.997508
1.02537 1.02795 1 0.997493
1.0267 1.02909 1 0.997674
0.998329 1 1 0.998329
1.02052 1.02287 1 0.9977
1.00023 1.00255 1 0.997684
1.01146 1.01422 1.00018 0.997112
1.02055 1.02346 1 0.997158
1.01931 1.02176 1 0.997608
0.999576 1 1 0.999576
0.999702 1 1.00091 0.998795
0.998265 1 1 0.998265
1.00162 1 1.00325 0.99837
0.999094 1 1.00082 0.998273
1 1 1 1
1.01538 1.01815 1 0.997278
0.999552 1 1 0.999552
0.999527 1 1.00053 0.998996
1.00073 1 1.00204 0.998687
1.00695 1.00944 1 0.997531
1.02128 1.02416 1 0.997184
0.998667 1 1.00051 0.998162
1.00499 1.00553 1.00193 0.997536
1.0101 1.0126 1 0.997536
1.0136 1.01604 1 0.997594
1 1 1 1
0.999709 1 1 0.999709
0.998956 1 1.0005 0.998456
1.00022 1 1.00127 0.998953
1.00024 1 1.00185 0.998391
1.02501 1.02792 1 0.99717
1.01605 1.01877 1 0.997328
1.02004 1.02289 1 0.997213
1.00158 1.00167 1.00213 0.997786
1.01509 1.01768 1 0.997456
1.0081 1.00987 1.00096 0.997293
0.999779 1 1 0.999779
0.999287 1 1.0001 0.999185
0.998755 1.00014 1.00048 0.998142
1.00133 1 1.00272 0.998609
0.99969 1 1.00141 0.998286
1.02421 1.02701 1 0.997276
1.01581 1.01855 1 0.99731
1.01806 1.02071 1 0.997397
1.00179 1.00044 1.00379 0.997563
1.00749 1.01036 1 0.997165
0.999818 1 1 0.999818
0.999352 1 1 0.999352
0.999397 1 1 0.999397
0.999178 1 1 0.999178
0.999428 1 1 0.999428
0.999853 1 1 0.999853
0.99985 1 1 0.99985
1 1 1 1
0.999839 1 1 0.999839
1 1 1 1
1 1 1 1
1 1 1 1
1 1 1 1
1 1 1 1
0.999997 1 1 0.999997
0.99997 1 1 0.99997
1 1 1 1
1 1 1 1
0.99992 1 1 0.99992
1 1 1 1
1.018 1.0208 1 0.997259
1.01919 1.02202 1 0.997231
1.03049 1.03333 1 0.997254
1.03308 1.03604 0.999849 0.997287
1.01788 1.02078 1 0.997152
1.00103 1.00342 1 0.997615
1.01744 1.02035 1 0.997143
1.03218 1.03515 0.999879 0.997252
1.03266 1.0355 1 0.997264
1.03427 1.03773 0.999187 0.997477
1.02805 1.03092 1 0.997216
1.03162 1.03437 0.999809 0.997531
1.03143 1.03438 0.999922 0.997226
1.03321 1.03718 0.998758 0.997413
1.0336 1.03665 0.999522 0.997535
1.03256 1.03741 0.997717 0.997603
1.02852 1.03118 1 0.997415
1.03137 1.03441 0.999341 0.99772
1.01734 1.02023 1 0.997169
1.01769 1.02044 1 0.997313
1.03054 1.03335 1 0.997279
1.02931 1.03215 1 0.997251
0.998869 1 1.00008 0.99879
1.00031 1.00225 1 0.99806
1.0067 1.0091 1.00018 0.99745
1.02349 1.02624 1 0.997323
1.02744 1.02996 1 0.997551
1.02373 1.02637 1 0.997432
1.01951 1.02242 1 0.99715
1.01946 1.02191 1 0.997596
0.999037 1 1.00058 0.998462
0.999775 1 1.0015 0.998279
0.999455 1 1.00002 0.99944
1.00121 1 1.00256 0.998652
1.03132 1.0342 1 0.997217
1.03071 1.03355 1 0.997251
1.03213 1.0352 0.999642 0.997393
1.0301 1.03288 0.999814 0.997491
0.998351 1.00003 1 0.998323
1.00044 1.00268 1.00003 0.99773
1.01167 1.01421 1.00039 0.997103
1.025 1.02761 1 0.997458
1.02628 1.02868 0.99994 0.997728
1.01951 1.02242 1 0.997145
1.02101 1.02337 1 0.997703
1.02043 1.02283 1 0.997654
0.998263 1 1 0.998263
0.998708 1 1.00043 0.998278
1.00234 1 1.00399 0.998363
0.999541 1 1 0.999541
0.999698 1 1.00088 0.998822
1.03236 1.03654 0.998563 0.997399
1.03254 1.0359 0.999306 0.997445
1.02757 1.03164 0.998341 0.997713
1.02336 1.02595 0.999736 0.997746
0.99837 1.00029 1 0.998083
1.02424 1.02643 1 0.997867
1.00039 1.00266 1.00029 0.997442
1.01081 1.01346 1.00051 0.996882
1.01817 1.0211 1 0.997131
0.999628 1 1 0.999628
0.999189 1 1.00014 0.999048
1.00053 1 1.00197 0.998567
0.99822 1 1 0.99822
1.00244 1 1.00427 0.998179
0.998206 1 1 0.998206
1 1 1 1
0.999717 1 1 0.999717
1.02525 1.02817 1 0.997164
1.00045 1 1.0015 0.998953
0.998834 1 1.00038 0.998458
1.00075 1 1.00238 0.998369
1.01622 1.01895 1 0.997327
1.01977 1.02263 1 0.997203
1.00085 1.00078 1.00229 0.997791
1.00694 1.00887 1.00077 0.997312
1.01751 1.02009 1 0.997465
0.999784 1 1 0.999784
0.999267 1 1.00008 0.999189
0.998627 1.00007 1.00041 0.998145
1.00187 1 1.00327 0.998605
0.999782 1 1.0015 0.998281
1.02415 1.02696 1 0.997269
1.01623 1.01898 1 0.9973
1.01784 1.02047 1 0.997422
1.00161 1.00084 1.00324 0.997529
1.00633 1.00916 1.00006 0.997136
0.999325 1 1 0.999325
1.00056 1 1.00177 0.99879
1.00039 1.00041 1.002 0.997994
1.00174 1 1.0034 0.998346
0.99917 1 1.001 0.998177
1.02451 1.02688 1 0.997694
1.01388 1.0167 1 0.997219
1.01459 1.01719 1 0.997446
1.00365 1.00196 1.00433 0.997363
1.00113 1.0042 1 0.996944
0.999821 1 1 0.999821
0.999369 1 1 0.999369
0.999092 1 1 0.999092
0.999375 1 1 0.999375
0.999428 1 1 0.999428
0.999147 1 1 0.999147
0.999004 1 1 0.999004
0.999115 1 1 0.999115
0.999432 1 1 0.999432
0.99985 1 1 0.99985
0.999853 1 1 0.999853
1 1 1 1
0.999851 1 1 0.999851
1 1 1 1
1 1 1 1
1 1 1 1
1 1 1 1
1 1 1 1
1 1 1 1
0.999993 1 1 0.999993
1 1 1 1
0.99996 1 1 0.99996
1 1 1 1
1 1 1 1
1.02855 1.03143 1 0.997211
1.03245 1.03529 1 0.997264
1.03145 1.0344 0.999604 0.997551
1.03362 1.03729 0.998948 0.997507
1.03223 1.03518 0.999905 0.997246
1.01736 1.02027 1 0.997144
1.03176 1.0347 0.999948 0.997208
1.03345 1.0372 0.99897 0.997405
1.03358 1.03647 0.999693 0.997515
1.03194 1.03707 0.997434 0.997617
1.02787 1.03053 1 0.997415
1.03041 1.03364 0.999115 0.997761
1.03295 1.03654 0.99915 0.997383
1.03264 1.03866 0.996598 0.997595
1.03204 1.03727 0.997237 0.997718
1.0285 1.03156 0.999226 0.997809
1.03122 1.0341 1 0.997217
1.03024 1.0331 1 0.997234
1.03201 1.03504 0.999652 0.997419
1.03027 1.03288 1 0.997473
0.998392 1.00008 1 0.998316
1.00035 1.00258 1 0.997776
1.01184 1.0142 1.00058 0.997095
1.02456 1.0272 1 0.997424
1.02595 1.02833 0.999903 0.997782
1.02165 1.024 1 0.997705
1.01863 1.02156 1 0.997132
1.02165 1.02401 1 0.9977
0.99826 1 1 0.99826
0.998283 1 1 0.998283
1.00375 1 1.0054 0.998356
0.999507 1 1 0.999507
0.999746 1 1.0009 0.998849
1.03289 1.03673 0.998895 0.997401
1.03262 1.03603 0.999261 0.997445
1.02753 1.03121 0.998728 0.997702
0.998815 1.00074 1 0.998076
1.00155 1.00382 1.00026 0.997486
1.01053 1.01293 1.00076 0.996871
1.02402 1.02661 0.999749 0.997735
1.01822 1.02107 1 0.997211
1.0224 1.0247 0.999909 0.997843
0.999644 1 1 0.999644
0.998423 1.00021 1 0.998211
0.998291 1 1 0.998291
1.00238 1 1.00423 0.998164
1.00053 1 1.00195 0.99858
0.999138 1 1.00012 0.99902
1.03193 1.038 0.996659 0.997485
1.03032 1.03755 0.995394 0.997627
1.02329 1.02958 0.996081 0.9978
1.02747 1.03129 0.998348 0.997943
0.999217 1.0013 1 0.997923
1.01865 1.02118 1 0.997523
1.0027 1.00405 1.00165 0.997015
1.00631 1.00856 1.00104 0.996732
0.999758 1 1 0.999758
0.999217 1 1 0.999217
0.99905 1 1.0003 0.998748
1.00263 1 1.00437 0.998265
0.998226 1.00012 1 0.998108
1.00127 1 1.00323 0.998043
0.999788 1 1 0.999788
0.999192 1 1 0.999192
1.02428 1.02709 1 0.997263
1.002 1 1.00341 0.998601
0.998418 1 1.00027 0.998149
0.999755 1 1.00148 0.998277
1.01694 1.0197 1 0.99729
1.01785 1.02046 1 0.997448
1.00162 1.00139 1.00273 0.997495
1.00522 1.00787 1.00027 0.997107
0.999328 1 1 0.999328
1.00033 1 1.00154 0.998796
1.00021 1.00022 1.00198 0.998008
1.0019 1 1.00355 0.998351
0.998725 1 1.00048 0.99825
1.02494 1.02733 0.999939 0.99773
1.01321 1.01603 1 0.997226
1.01598 1.0185 1 0.99752
1.00303 1.00113 1.00458 0.997327
1.00175 1.00484 1.00003 0.996894
0.999015 1 1 0.999015
1.00135 1 1.0029 0.998455
1.00215 1.00054 1.00378 0.997843
0.999605 1 1.00155 0.998055
1.0273 1.0364 0.993254 0.997953
1.01918 1.02156 0.999872 0.997802
1.00774 1.01076 1 0.997014
1.00345 1.00224 1.00426 0.996963
0.999387 1 1 0.999387
0.999105 1 1 0.999105
0.998969 1 1 0.998969
0.999427 1 1 0.999427
0.999117 1 1 0.999117
0.999431 1 1 0.999431
0.998989 1 1 0.998989
0.999128 1 1 0.999128
0.998906 1 1 0.998906
0.998945 1 1 0.998945
0.999094 1 1 0.999094
0.999418 1 1 0.999418
0.999841 1 1 0.999841
0.999849 1 1 0.999849
1 1 1 1
0.999853 1 1 0.999853
1 1 1 1
1 1 1 1
1 1 1 1
1 1 1 1
1 1 1 1
1 1 1 1
1 1 1 1
1 1 1 1
0.999989 1 1 0.999989
1 1 1 1
1 1 1 1
1.02712 1.02978 1 0.997414
1.03364 1.03637 0.999871 0.997496
1.02947 1.03287 0.998901 0.997802
1.03134 1.03674 0.997153 0.997631
1.03366 1.03722 0.999174 0.997397
1.03208 1.03499 1 0.99719
1.03258 1.03647 0.998852 0.997385
1.0321 1.03797 0.996744 0.997586
1.03153 1.03682 0.997172 0.997717
1.03015 1.0331 0.999328 0.997814
1.03222 1.03832 0.996581 0.997537
1.03257 1.04164 0.993519 0.997761
1.03305 1.03947 0.995955 0.997854
1.0334 1.03689 0.999222 0.997404
1.03271 1.03614 0.999245 0.997445
1.02746 1.0307 0.999169 0.997691
0.999428 1.00136 1 0.998069
1.00277 1.00507 1.00018 0.997531
1.00992 1.01224 1.00085 0.99686
1.02462 1.02722 0.999745 0.997724
1.02054 1.02294 0.999836 0.99782
1.01838 1.02114 1 0.99729
0.998715 1.00051 1 0.998202
0.998376 1 1 0.998376
1.00225 1 1.00411 0.998148
0.999659 1 1 0.999659
0.999983 1 1.00139 0.998593
0.999077 1 1.00008 0.998992
1.03269 1.03829 0.997103 0.997492
1.0305 1.03773 0.995388 0.997636
1.02364 1.02932 0.996681 0.997792
0.999611 1.0017 1 0.997911
1.00218 1.00369 1.0014 0.997101
1.00574 1.00809 1.0009 0.996778
1.02745 1.03099 0.99861 0.997951
1.01899 1.02162 0.999918 0.997509
0.9998 1 1 0.9998
0.999217 1 1 0.999217
0.998246 1.0001 1 0.998144
1.00245 1 1.00433 0.998129
1.00259 1 1.00431 0.998288
0.998993 1 1.00027 0.998725
1.03141 1.04014 0.99391 0.99768
1.02295 1.03488 0.990685 0.997764
1.023 1.0305 0.994725 0.99799
1.02034 1.02475 0.997713 0.997975
1.00038 1.00186 1.00088 0.997644
1.00539 1.00711 1.0014 0.996896
1.00301 1.00357 1.00264 0.996817
0.999898 1 1 0.999898
0.999518 1 1 0.999518
0.999313 1 1 0.999313
0.998856 1 1 0.998856
0.999894 1 1.00143 0.998464
1.00312 1 1.00497 0.99816
0.998176 1 1 0.998176
1.01717 1 1.01891 0.998289
0.99933 1 1 0.99933
1.00032 1 1.00152 0.998802
1.02527 1.02769 0.999879 0.997766
1.00238 1 1.00403 0.998356
1.00017 1 1.00215 0.998023
0.998359 1 1.00004 0.998324
1.01225 1.01506 1 0.997233
1.01717 1.01962 1 0.997594
1.00257 1.00047 1.00482 0.997292
1.00249 1.00566 1 0.996844
0.998994 1 1 0.998994
1.0015 1 1.00304 0.998469
1.00235 1.00034 1.00415 0.99787
0.999444 1 1.00136 0.998086
1.02867 1.03728 0.993721 0.997968
1.01901 1.02135 0.999949 0.997762
1.00879 1.01177 1 0.997054
1.0037 1.00301 1.00377 0.996919
0.999226 1 1.00042 0.998803
1.02605 1.03949 0.98908 0.997968
1.00109 1 1.0029 0.998199
1.00131 1.00105 1.00268 0.997595
1.02637 1.03039 0.998048 0.998056
1.00906 1.01195 1 0.997147
1.00485 1.00485 1.00323 0.99677
0.999118 1 1 0.999118
0.998965 1 1 0.998965
0.99888 1 1 0.99888
0.99943 1 1 0.99943
0.999141 1 1 0.999141
0.998974 1 1 0.998974
0.999416 1 1 0.999416
0.999098 1 1 0.999098
0.998893 1 1 0.998893
0.998967 1 1 0.998967
0.998844 1 1 0.998844
0.998853 1 1 0.998853
0.99892 1 1 0.99892
0.999074 1 1 0.999074
0.999386 1 1 0.999386
0.999829 1 1 0.999829
0.99984 1 1 0.99984
1 1 1 1
0.999848 1 1 0.999848
1 1 1 1
1 1 1 1
1 1 1 1
1 1 1 1
1 1 1 1
0.999926 1 1 0.999926
1 1 1 1
1 1 1 1
1 1 1 1
1 1 1 1
1 1 1 1
1 1 1 1
1.03185 1.03468 0.999441 0.997819
1.03097 1.03631 0.997124 0.997717
1.03156 1.03729 0.996892 0.997577
1.03219 1.03641 0.998535 0.997387
1.03177 1.03824 0.996194 0.997556
1.03274 1.04148 0.993847 0.997751
1.03243 1.03914 0.995666 0.997865
1.03245 1.04202 0.993069 0.997736
1.03676 1.04685 0.992471 0.997872
1.02193 1.03815 0.986258 0.998096
1.03348 1.03862 0.997546 0.997499
1.03067 1.03799 0.995291 0.997644
1.0239 1.02908 0.997178 0.997785
0.999903 1.00195 1.00006 0.9979
1.00158 1.00314 1.00126 0.997187
1.00542 1.00784 1.00078 0.996824
1.02762 1.03085 0.998903 0.99796
1.019 1.02175 0.999818 0.997496
0.99818 1 1 0.99818
1.00359 1.00008 1.00531 0.998214
1.00321 1 1.00491 0.998312
0.999842 1 1 0.999842
0.999217 1 1 0.999217
0.999133 1 1.00043 0.998701
1.03137 1.04046 0.993558 0.997693
0.999894 1 1 0.999894
0.999495 1 1 0.999495
1.02251 1.03405 0.991055 0.997764
1.02324 1.03101 0.99449 0.997958
0.999635 1.00107 1.00084 0.997732
1.00333 1.00324 1.0033 0.996796
1.00592 1.0082 1.00084 0.996896
1.01923 1.02375 0.997624 0.997957
0.999377 1 1 0.999377
0.998852 1 1 0.998852
0.998169 1.00005 1.00002 0.9981
1.01293 1 1.01454 0.998407
1.0027 1 1.00455 0.998158
1.00035 1 1.00188 0.998479
1.03605 1.04609 0.992554 0.997832
1.01123 1.03244 0.981511 0.997903
1.01899 1.02823 0.992833 0.998165
1.00483 1.01008 0.997117 0.997677
1.00082 1.00067 1.00242 0.997744
1.00397 1.00183 1.00547 0.996689
0.999503 1 1 0.999503
0.999466 1 1 0.999466
0.999227 1 1 0.999227
0.998906 1 1 0.998906
0.998906 1 1.00026 0.998646
1.00023 1 1.00202 0.998218
1.02452 1 1.02643 0.998134
1.00098 1 1.00255 0.998436
0.998995 1 1.00002 0.998974
1.00132 1 1.00284 0.998484
1.02967 1.03769 0.994279 0.997982
1.01899 1.02131 1 0.997723
0.999225 1 1.00111 0.998117
1.00239 1.00009 1.00441 0.997895
1.01012 1.01303 1.00004 0.997094
1.00379 1.00357 1.00335 0.996874
0.999277 1 1.00048 0.998794
1.02733 1.04148 0.98839 0.998001
1.00097 1 1.00276 0.998217
1.0009 1.00066 1.00269 0.997558
1.02512 1.02964 0.997574 0.998029
1.00925 1.01208 1 0.997204
1.00485 1.00459 1.00348 0.996784
1.00037 1 1.00186 0.99851
1.01793 1.03172 0.988248 0.998371
1.0007 1.00088 1.00184 0.997981
1.00257 1.00152 1.00379 0.997264
1.01253 1.01822 0.996711 0.997686
1.00238 1.00325 1.00221 0.996925
1.00096 1.00683 0.995822 0.998338
0.99896 1 1 0.99896
0.998988 1 1.00011 0.998878
0.998864 1 1.0001 0.998762
0.999414 1 1 0.999414
0.999101 1 1 0.999101
0.998989 1 1 0.998989
0.998881 1 1 0.998881
0.999385 1 1 0.999385
0.999064 1 1 0.999064
0.998823 1 1 0.998823
0.99892 1 1 0.99892
0.998863 1 1 0.998863
0.998802 1 1 0.998802
0.998785 1 1 0.998785
0.998906 1 1 0.998906
0.998997 1 1 0.998997
0.999308 1 1 0.999308
0.99913 1 1 0.99913
0.999299 1 1 0.999299
0.999821 1 1 0.999821
0.999828 1 1 0.999828
1 1 1 1
0.999838 1 1 0.999838
1 1 1 1
1 1 1 1
1 1 1 1
1 1 1 1
1 1 1 1
0.999943 1 1 0.999943
0.999923 1 1 0.999923
1 1 1 1
1 1 1 1
1 1 1 1
1 1 1 1
1 1 1 1
1 1 1 1
1.03191 1.03897 0.995314 0.997876
1.03289 1.04134 0.994131 0.99774
1.0313 1.03817 0.995803 0.997575
1.03234 1.04186 0.993114 0.997734
1.03509 1.04509 0.992538 0.997869
1.02267 1.03779 0.987343 0.998058
1.03595 1.0484 0.990176 0.997935
0.990639 1.01596 0.977674 0.997346
1.00878 1.02912 0.981577 0.998632
0.999588 1 1 0.999588
1.03129 1.0407 0.993239 0.997705
1.02246 1.0333 0.991734 0.997764
1.02361 1.03153 0.994381 0.997926
0.999254 1.00062 1.00082 0.99782
1.00356 1.00278 1.00402 0.996774
1.00655 1.00923 1.00045 0.996896
1.01797 1.02257 0.997553 0.997939
0.998025 1 1 0.998025
1.00862 1 1.01011 0.998526
1.00204 1 1.00389 0.998155
0.99989 1 1 0.99989
1.00057 1 1.00208 0.998495
0.99944 1 1 0.99944
0.998848 1 1 0.998848
0.999472 1 1 0.999472
1.0345 1.04647 0.990706 0.99784
0.999535 1 1 0.999535
0.999464 1 1 0.999464
0.999188 1 1 0.999188
1.01292 1.03197 0.983605 0.997905
1.019 1.02839 0.992743 0.998118
1.00016 1.00057 1.00183 0.997765
1.00401 1.00171 1.00556 0.99675
1.00396 1.00853 0.997789 0.997671
0.998943 1 1 0.998943
0.99902 1 1.00041 0.998615
1.00446 1 1.00611 0.998358
1.01994 1 1.02181 0.998173
0.99999 1 1.00175 0.998246
1.02452 1.03919 0.987934 0.997923
1.00972 1.03403 0.978426 0.998024
1.0116 1.01816 0.995684 0.997868
0.999832 1.00397 0.998393 0.997476
1.00317 1 1.00521 0.997972
0.99915 1 1 0.99915
0.99905 1 1 0.99905
0.998932 1 1 0.998932
0.998935 1 1.00024 0.998694
0.999797 1 1.00135 0.998446
1.01754 1 1.0194 0.998174
1.01856 1 1.02048 0.998122
0.999294 1 1.00051 0.998784
1.00082 1 1.00259 0.998235
1.02819 1.04387 0.98692 0.998035
1.02376 1.029 0.996897 0.998002
1.00899 1.01176 1 0.997261
1.00056 1.00036 1.00268 0.997522
1.00461 1.00422 1.0036 0.996798
1.00029 1 1.00174 0.99855
1.01565 1.03135 0.986373 0.998387
0.999837 1.00049 1.00135 0.998006
1.00224 1.0009 1.00408 0.997272
1.0134 1.01876 0.996958 0.997775
1.00227 1.00268 1.00269 0.996911
0.999909 1.00681 0.995399 0.997738
1.00021 1 1.00183 0.998375
1.00657 1.01891 0.989504 0.998367
1.00018 1.00024 1.00194 0.997994
1.00421 1.00054 1.00636 0.997319
0.998421 1.0058 0.995201 0.99745
0.948749 0.982117 0.981516 0.984217
0.963598 0.983857 0.987091 0.992217
0.98438 0.996352 0.989599 0.998369
0.831706 0.888093 0.958353 0.977206
0.781643 0.880082 0.913431 0.972321
0.998963 1 1.00009 0.998875
0.999108 1 1.00033 0.998783
0.99878 1 1 0.99878
0.999384 1 1 0.999384
0.999053 1 1 0.999053
0.99892 1 1 0.99892
0.998873 1 1 0.998873
0.998802 1 1 0.998802
0.998933 1 1.00005 0.998884
0.999333 1 1 0.999333
0.999012 1 1 0.999012
0.998799 1 1 0.998799
0.998859 1 1.00006 0.998795
0.998938 1 1.00014 0.998802
0.999189 1 1.0004 0.998793
0.998822 1 1 0.998822
0.998968 1 1 0.998968
0.999291 1 1 0.999291
0.999038 1 1 0.999038
0.998962 1 1 0.998962
0.999116 1 1 0.999116
0.999098 1 1 0.999098
0.999374 1 1 0.999374
0.999296 1 1 0.999296
0.999816 1 1 0.999816
0.99982 1 1 0.99982
1 1 1 1
0.999827 1 1 0.999827
1 1 1 1
1 1 1 1
1 1 1 1
1 1 1 1
1 1 1 1
0.999953 1 1 0.999953
0.99994 1 1 0.99994
1 1 1 1
0.999921 1 1 0.999921
1 1 1 1
1 1 1 1
1 1 1 1
1 1 1 1
1 1 1 1
1.0333 1.04324 0.992591 0.997867
1.03225 1.04171 0.99317 0.997733
1.02366 1.03745 0.988671 0.998019
0.994421 1.01578 0.981525 0.997397
1.0337 1.04627 0.990037 0.997933
1.01547 1.03153 0.985867 0.998537
1.02981 1.03744 0.994627 0.998008
0.954276 0.984104 0.978114 0.991387
1.00213 1.01935 0.9852 0.997876
0.999594 1 1 0.999594
0.999587 1 1 0.999587
0.999244 1 1 0.999244
0.999277 1 1 0.999277
1.03287 1.04673 0.988886 0.997848
1.01371 1.031 0.985291 0.997907
1.01883 1.02839 0.992623 0.998072
0.99897 1.00041 1.00077 0.997786
1.00386 1.0017 1.00536 0.99681
1.00317 1.00737 0.998164 0.997664
1.00783 1 1.00957 0.998279
1.0154 1 1.01722 0.998211
0.999695 1 1.00142 0.998275
0.999463 1 1 0.999463
0.998984 1 1.0004 0.998583
0.99898 1 1 0.99898
0.999567 1 1 0.999567
0.999147 1 1 0.999147
1.02237 1.03866 0.986353 0.997937
0.999195 1 1 0.999195
0.999088 1 1 0.999088
0.99898 1 1 0.99898
1.0125 1.03618 0.979086 0.998026
1.01019 1.0173 0.995136 0.997866
1.0027 1.00002 1.00473 0.997958
1.00059 1.00436 0.998733 0.997505
0.999026 1 1.00034 0.998684
0.999399 1 1.00099 0.998408
1.02023 1 1.02215 0.998116
1.01838 1 1.02028 0.998143
1.0068 1.0333 0.97627 0.998035
1.00321 1.02629 0.979481 0.997985
1.00451 1.00794 0.999029 0.99757
0.995567 1.00034 0.997063 0.998165
0.998825 1 1 0.998825
0.999227 1 1.00045 0.998775
1.00586 1 1.00736 0.998506
1.03209 1 1.03415 0.998001
0.927287 0.972086 0.970329 0.983084
1.00052 1 1.00193 0.998589
0.999197 1.00007 1.00109 0.998031
1.01398 1.03078 0.985269 0.998403
1.01456 1.01955 0.997239 0.997864
1.00263 1.00244 1.0033 0.996896
1.00201 1.00027 1.00447 0.99728
0.999414 1.00669 0.995633 0.997127
1.00023 1 1.00182 0.99841
1.00714 1.01948 0.989525 0.998355
0.999669 1.00023 1.00144 0.998006
1.00387 1.00046 1.00611 0.997318
1.00031 1.00678 0.996085 0.997473
0.947713 0.985622 0.977938 0.98323
0.959082 0.981408 0.986902 0.990222
0.984534 0.994335 0.99174 0.99839
0.83352 0.886624 0.961913 0.977329
0.765962 0.86893 0.908796 0.969966
0.999536 1 1.00095 0.99859
0.857978 0.909395 0.964516 0.97817
0.824746 0.884924 0.957128 0.973742
0.985892 1.00713 0.980633 0.998241
1.00515 1.00042 1.00657 0.998169
1.01144 1.00356 1.01024 0.997639
0.976745 0.989911 0.988151 0.998531
0.943927 0.971447 0.988386 0.983088
0.943577 0.961084 0.992368 0.989334
0.809362 0.887993 0.932054 0.977895
0.840295 0.923563 0.934135 0.973992
0.999517 1 1.00071 0.998804
0.999178 1 1.00041 0.998768
0.999863 1 1.00086 0.999002
0.999358 1 1 0.999358
0.999026 1 1 0.999026
0.998979 1 1.00012 0.998863
0.998896 1 1.00009 0.998804
0.998795 1 1 0.998795
0.999292 1 1 0.999292
0.998936 1 1.00014 0.998796
0.998897 1 1.00006 0.998839
0.998994 1 1 0.998994
0.999204 1 1.00041 0.998795
0.999349 1 1.00057 0.99878
1.00008 1 1.00125 0.998827
0.998803 1 1 0.998803
0.998998 1 1 0.998998
0.999034 1 1 0.999034
0.998952 1 1 0.998952
0.998872 1 1 0.998872
0.998951 1 1 0.998951
0.998902 1 1 0.998902
0.998795 1 1 0.998795
0.999094 1 1 0.999094
0.999116 1 1 0.999116
0.999393 1 1 0.999393
0.999067 1 1 0.999067
0.999352 1 1 0.999352
0.999813 1 1 0.999813
0.999294 1 1 0.999294
0.999816 1 1 0.999816
1 1 1 1
0.99982 1 1 0.99982
1 1 1 1
1 1 1 1
1 1 1 1
1 1 1 1
1 1 1 1
0.999568 1 1 0.999568
0.999953 1 1 0.999953
0.999951 1 1 0.999951
1 1 1 1
0.999937 1 1 0.999937
1 1 1 1
1 1 1 1
1 1 1 1
1 1 1 1
1 1 1 1
0.996919 1.01579 0.983928 0.997452
1.03203 1.04416 0.990432 0.997931
1.02045 1.03403 0.98841 0.998441
0.948968 0.978679 0.977134 0.992333
1.00223 1.01907 0.985459 0.997983
1.03148 1.04049 0.993362 0.997968
1.01571 1.02468 0.99345 0.997783
0.961289 0.980797 0.986871 0.993149
0.949375 0.980144 0.985766 0.982594
0.814914 0.881816 0.945762 0.977129
0.762017 0.851631 0.920749 0.971789
0.999232 1 1 0.999232
0.999594 1 1 0.999594
0.999586 1 1 0.999586
0.999232 1 1 0.999232
0.999016 1 1 0.999016
0.99905 1 1 0.99905
0.999215 1 1 0.999215
0.999252 1 1 0.999252
1.02036 1.03854 0.984508 0.997951
1.01624 1.03931 0.979732 0.998027
1.00911 1.01653 0.994826 0.997864
1.00296 1.00009 1.00493 0.997945
1.00138 1.00445 0.999413 0.997534
1.02172 1 1.02365 0.998111
1.01979 1 1.02172 0.998112
0.999194 1 1.00082 0.998371
0.999126 1 1 0.999126
0.998983 1 1.00031 0.998673
0.99924 1 1 0.99924
0.999028 1 1 0.999028
1.00771 1.03363 0.976851 0.998025
0.998852 1 1 0.998852
0.998997 1 1.0002 0.998797
1.00392 1.02576 0.980707 0.997962
1.00249 1.0075 0.997344 0.997682
0.997627 1.00067 0.998869 0.998086
1.00834 1 1.00992 0.998439
1.02879 1 1.03084 0.998014
1.00335 1.02659 0.979297 0.998019
0.986226 1.00797 0.980367 0.99802
0.991803 1.00066 0.993098 0.998037
1.00287 1.00025 1.0044 0.998228
0.99905 1 1.00043 0.998619
1.00312 1 1.00457 0.998555
1.02731 1 1.02912 0.998239
0.846902 0.915169 0.945398 0.978851
0.941775 0.976774 0.978876 0.984976
0.999839 1 1.0014 0.998445
0.999281 1.0002 1.00107 0.998018
1.00815 1.02036 0.989677 0.998345
1.00205 1.00769 0.996902 0.997496
1.00341 1.00039 1.00571 0.997317
0.94389 0.977679 0.982364 0.982772
0.963274 0.986875 0.98508 0.990869
0.985691 0.993021 0.994203 0.998406
0.828569 0.887928 0.954054 0.978088
0.752686 0.857647 0.907035 0.967568
0.999354 1 1.00077 0.99859
0.851612 0.912643 0.95355 0.978583
0.817998 0.878319 0.957507 0.972654
0.987758 1.00795 0.981696 0.998235
1.00479 1.00044 1.00617 0.998192
1.00999 1.00195 1.01026 0.99778
0.968481 0.984313 0.985261 0.998636
0.949819 0.980122 0.987199 0.981649
0.945532 0.965273 0.988182 0.991264
0.813122 0.882567 0.943487 0.976501
0.837794 0.925675 0.929941 0.973248
1.00103 1 1.00216 0.998866
0.852669 0.894819 0.976893 0.975435
0.922154 0.954445 0.985129 0.980752
0.989426 0.99979 0.990864 0.998759
1.01278 1.00208 1.01196 0.998737
0.981097 0.974815 1.00772 0.998737
0.928043 0.949221 0.985266 0.99231
0.93149 0.953386 0.9957 0.981253
0.827051 0.894796 0.946061 0.976987
0.868262 0.94858 0.937237 0.976624
0.99948 1 1.00072 0.998756
0.999506 1 1.00053 0.998978
1.00316 1 1.00398 0.999182
0.999293 1 1 0.999293
0.99902 1 1 0.99902
0.998955 1 1.0001 0.998857
0.998959 1 1.00017 0.99879
0.99922 1 1.00042 0.998797
0.998997 1 1 0.998997
0.99908 1 1.0003 0.998782
0.998804 1 1 0.998804
1.00125 1 1.00239 0.998858
1.0131 0.999976 1.01399 0.99915
0.999314 1 1.00056 0.998754
0.998776 1 1 0.998776
0.999031 1 1 0.999031
0.998941 1 1 0.998941
0.998869 1 1 0.998869
0.998946 1 1 0.998946
0.998922 1 1 0.998922
0.998895 1 1 0.998895
0.998843 1 1 0.998841
0.998909 1 1 0.998909
0.998735 1 1.00006 0.998678
0.999188 1 1.00093 0.998261
0.998845 1 1.00017 0.998672
0.998793 1 1 0.998792
0.999031 1 1 0.999031
0.999092 1 1 0.999092
0.999388 1 1 0.999388
0.999115 1 1 0.999115
0.999394 1 1 0.999394
0.999813 1 1 0.999813
0.99933 1 1 0.99933
0.999814 1 1 0.999814
1 1 1 1
0.999816 1 1 0.999816
1 1 1 1
1 1 1 1
1 1 1 1
1 1 1 1
1 1 1 1
0.999586 1 1 0.999586
0.999942 1 1 0.999942
0.999568 1 1 0.999568
1 1 1 1
0.999954 1 1 0.999954
0.999949 1 1 0.999949
1 1 1 1
1 1 1 1
1 1 1 1
1 1 1 1
1 1 1 1
0.848128 0.903072 0.960588 0.977692
0.827237 0.886491 0.957853 0.97422
0.951598 0.982396 0.975643 0.992832
1.00437 1.01871 0.987811 0.998092
1.03416 1.0434 0.9932 0.997928
0.951253 0.970907 0.985209 0.994466
1.01516 1.02418 0.99333 0.997853
0.954573 0.986624 0.983346 0.9839
0.827799 0.887933 0.954102 0.977125
0.754269 0.852707 0.912493 0.969386
0.979552 0.99772 0.985819 0.995914
0.946644 0.973813 0.988339 0.98357
0.802971 0.883307 0.930076 0.977394
0.82911 0.91446 0.9322 0.972609
0.998917 1 1 0.998917
0.999255 1 1 0.999255
0.999593 1 1 0.999593
0.999219 1 1 0.999219
0.999052 1 1 0.999052
0.999198 1 1.00027 0.998931
0.999046 1 1 0.999046
0.999045 1 1 0.999045
0.999186 1 1 0.999186
0.999227 1 1 0.999227
1.00878 1.03345 0.978071 0.998015
1.00303 1.02399 0.981555 0.997942
1.00053 1.0073 0.99547 0.997795
0.999383 1.00097 1.00041 0.998008
1.02446 1 1.02649 0.998027
1.01113 1 1.01278 0.998373
0.998819 1 1 0.998819
0.998879 1 1 0.998879
1.00276 1.02689 0.978423 0.99804
0.999484 1 1.00088 0.998601
1.00311 1 1.0046 0.998523
0.98614 1.0065 0.981796 0.99794
0.990879 1.00043 0.992288 0.998151
1.00377 1.00081 1.00485 0.99813
1.02424 1 1.02607 0.998212
0.996406 1.00444 0.993657 0.998336
0.984804 1 0.98605 0.998736
1.01338 1.00043 1.01467 0.998311
1.00226 1 1.00369 0.998577
1.00167 1 1.00324 0.998436
1.01609 1 1.01779 0.99833
0.863787 0.903775 0.976457 0.978799
0.856109 0.914218 0.956886 0.978631
0.933152 0.975991 0.972524 0.98312
0.999129 1 1.00054 0.99859
1.00445 1.00041 1.00583 0.998216
0.990349 1.00861 0.983632 0.99823
1.00872 1.00039 1.01042 0.99792
0.844225 0.906987 0.951203 0.978553
0.949864 0.978225 0.987325 0.983473
0.93761 0.963194 0.983851 0.989416
0.964228 0.979669 0.98548 0.998741
0.813449 0.883035 0.943696 0.976158
0.820485 0.883413 0.954857 0.972677
0.826544 0.917832 0.924904 0.973659
1.00171 1 1.00284 0.998871
0.853683 0.898317 0.973243 0.97644
0.92875 0.959751 0.986799 0.980645
0.99152 1.00005 0.992622 0.998843
1.01247 1.00071 1.01306 0.998712
0.978404 0.973736 1.00604 0.998762
0.928396 0.951748 0.984932 0.990388
0.933888 0.957528 0.99267 0.982514
0.841001 0.909065 0.946891 0.977016
0.856371 0.938031 0.934413 0.977025
1.00371 0.999757 1.0045 0.999455
0.927594 0.959797 0.981939 0.984225
0.90766 0.947783 0.972723 0.984521
1.00139 0.98764 1.01421 0.999715
0.947983 0.951595 1.00113 0.995081
0.938883 0.951962 1.00464 0.981703
0.878048 0.928218 0.968441 0.976776
0.876649 0.962757 0.932755 0.976206
0.999292 1 1.00034 0.998954
1.00198 1 1.0028 0.999185
1.01491 1 1.01554 0.999381
0.998996 1 1 0.998996
0.998806 1 1 0.998806
0.998783 1 1 0.998783
1.002 1 1.00311 0.998888
0.998774 1 1 0.998774
0.999539 1 1.00079 0.998748
1.01522 1 1.01603 0.999203
1.02492 0.997512 1.02805 0.999446
1.01309 1 1.01402 0.999082
0.998736 1 1 0.998736
0.998866 1 1 0.998866
0.998942 1 1 0.998942
0.998941 1 1 0.998941
0.998854 1 1 0.998854
0.998894 1 1 0.998894
0.998919 1 1 0.998917
0.998894 1 1.00007 0.998824
1.00017 1 1.00111 0.999065
0.998721 1 1 0.998721
0.998743 1 1.00004 0.998706
0.999099 1 1.00069 0.998405
0.999318 1 1.00153 0.997795
0.999354 1 1.00078 0.998579
0.999153 1 1.00079 0.998362
0.9988 1 1.0001 0.998703
0.999055 1 1.00016 0.998898
0.99879 1 1 0.99879
0.999029 1 1 0.999029
0.999344 1 1 0.999344
0.99909 1 1 0.99909
0.999387 1 1 0.999387
0.99981 1 1 0.99981
0.999394 1 1 0.999394
0.999813 1 1 0.999813
1 1 1 1
0.999814 1 1 0.999814
1 1 1 1
1 1 1 1
1 1 1 1
1 1 1 1
1 1 1 1
0.99944 1 1 0.99944
0.999923 1 1 0.999923
0.999532 1 1 0.999532
1 1 1 1
0.999945 1 1 0.999945
0.999568 1 1 0.999568
1 1 1 1
1 1 1 1
0.999954 1 1 0.999954
1 1 1 1
1 1 1 1
1 1 1 1
0.854215 0.897383 0.97399 0.977316
0.85246 0.909916 0.958159 0.977766
0.926809 0.960743 0.983889 0.980475
0.819052 0.879827 0.956433 0.973329
0.948781 0.975496 0.979992 0.99247
1.01264 1.02376 0.991195 0.997928
0.959803 0.98649 0.987641 0.985123
0.830669 0.891311 0.953524 0.977388
0.750623 0.856935 0.905871 0.966958
0.976273 0.994827 0.986096 0.995186
0.944751 0.97401 0.988337 0.981407
0.815523 0.891071 0.937616 0.97611
0.829138 0.917119 0.93055 0.971543
0.957917 0.982719 0.980655 0.993991
0.942854 0.958431 1.00286 0.980939
0.840752 0.913046 0.943239 0.976233
0.862893 0.948706 0.933038 0.974823
0.999432 1 1.0007 0.998735
0.998951 1 1 0.998951
0.999278 1 1 0.999278
0.999088 1 1 0.999088
0.99873 1 1.00001 0.998724
0.99896 1 1 0.998957
0.999043 1 1 0.999043
0.999011 1 1 0.999011
0.999075 1 1 0.999075
0.999157 1 1 0.999157
1.00367 1.02809 0.978147 0.99806
0.98808 1.00596 0.984326 0.997861
0.989882 1.00024 0.991367 0.998264
1.00548 1.00141 1.00604 0.998033
1.02086 1 1.02271 0.998185
1.00265 1 1.00417 0.998491
0.999827 1 1.00125 0.998583
1.00145 1 1.00289 0.998565
0.992855 1.00529 0.989262 0.998348
1.00126 1 1.00282 0.998441
1.01565 1 1.01736 0.998323
0.983803 1.00029 0.984836 0.998661
1.01335 1.00101 1.01407 0.998283
0.965666 0.989684 0.976875 0.99883
1.00093 0.997155 1.00454 0.999254
1.02388 1 1.02539 0.998528
1.00055 1 1.00211 0.99845
1.00834 1 1.01002 0.998335
0.930463 0.95722 0.985823 0.986025
0.867908 0.903629 0.981304 0.978768
0.847498 0.909398 0.952442 0.978467
1.00235 1 1.00348 0.998875
1.01222 0.999445 1.01411 0.998687
0.991286 1 0.992355 0.998923
0.86239 0.90387 0.976326 0.977244
0.942898 0.956774 1.00457 0.981018
0.929609 0.95151 0.985163 0.991697
0.968041 0.969415 0.999821 0.998761
0.841809 0.908648 0.948186 0.977068
0.93383 0.963338 0.988601 0.980546
0.857508 0.939165 0.934435 0.977118
1.00321 0.999364 1.00443 0.999428
0.924276 0.9575 0.979865 0.985138
0.90958 0.949471 0.97304 0.98453
1.00301 0.990064 1.01352 0.999567
0.954212 0.956382 1.00305 0.994699
0.926007 0.948525 0.995898 0.980281
0.879622 0.964408 0.933485 0.977075
0.879599 0.929196 0.969049 0.976858
1.00394 0.992105 1.01222 0.999711
0.906442 0.943744 0.969859 0.990324
0.920172 0.961944 0.970801 0.985346
0.864441 0.94942 0.93393 0.974906
0.986134 0.973001 1.01483 0.99869
0.958144 0.962811 1.01289 0.982491
0.893146 0.932611 0.97994 0.977287
1.00151 1 1.00232 0.999187
1.01422 1 1.01491 0.999312
1.01691 0.99522 1.02224 0.999566
0.998772 1 1 0.998772
0.999748 1 1.00101 0.998743
1.01906 1 1.01982 0.999257
0.998747 1 1 0.998747
1.01239 1 1.01331 0.999091
1.02699 0.997616 1.03004 0.999421
1.0133 0.996885 1.01699 0.999489
1.0084 1 1.00933 0.999083
0.998866 1 1 0.998866
0.998893 1 1 0.998893
0.998975 1 1.00005 0.998925
0.999696 1 1.00065 0.999046
0.998872 1 1.00004 0.998831
0.999762 1 1.00078 0.998985
0.998876 1 1 0.998876
1.00075 1 1.00259 0.998162
0.99876 1 1.00003 0.998735
0.998927 1 1.00057 0.998362
0.998627 1 1.00101 0.997617
0.999037 1.00005 1.00129 0.997705
1.00005 1 1.00169 0.998361
0.999199 1 1.00138 0.99782
0.999819 1 1.00106 0.998761
0.999543 1 1.00099 0.99855
0.999107 1 1.00065 0.998462
0.998758 1 1.00002 0.998734
0.999028 1 1.0001 0.99893
0.999269 1 1 0.999269
0.999028 1 1 0.999028
0.999344 1 1 0.999344
0.999791 1 1 0.999791
0.999385 1 1 0.999385
0.999808 1 1 0.999808
1 1 1 1
0.999813 1 1 0.999813
1 1 1 1
1 1 1 1
1 1 1 1
1 1 1 1
1 1 1 1
0.999272 1 1 0.999272
0.999803 1 1 0.999803
0.999439 1 1 0.999439
1 1 1 1
0.999888 1 1 0.999888
0.999477 1 1 0.999477
1 1 1 1
1 1 1 1
0.999948 1 1 0.999948
1 1 1 1
1 1 1 1
1 1 1 1
0.920401 0.955727 0.977705 0.984999
0.844322 0.895454 0.964609 0.977493
0.851901 0.906398 0.961422 0.97759
0.998908 1 1 0.998908
0.910187 0.944811 0.977377 0.985652
0.926983 0.960725 0.984172 0.980397
0.81628 0.882648 0.949888 0.973597
0.980154 0.996324 0.989417 0.994292
0.945652 0.972186 0.989286 0.983241
0.821861 0.902747 0.933031 0.975744
0.823179 0.909394 0.931548 0.971711
0.958859 0.982454 0.984185 0.991666
0.930016 0.952984 0.9933 0.982481
0.851302 0.91664 0.951289 0.976275
0.861147 0.944298 0.935616 0.974699
0.936009 0.959081 0.986089 0.989711
0.937277 0.946993 1.00946 0.980469
0.886567 0.936495 0.969279 0.976691
0.876824 0.961379 0.934294 0.976189
0.999449 1 1.0009 0.998553
0.999805 1 1.0011 0.998708
0.998985 1 1 0.998985
0.998726 1 1 0.998726
0.9989 1 1.00013 0.998766
0.998982 1 1 0.998982
0.999019 1 1 0.999019
0.999104 1 1 0.999104
0.986696 1.00543 0.982986 0.998357
0.981727 1.00015 0.982967 0.998588
1.00068 1 1.00213 0.998552
1.01372 1.00166 1.01381 0.998254
1.01657 1 1.01828 0.998316
1.00124 1 1.00279 0.998446
1.00083 1 1.00238 0.998459
0.970494 0.991497 0.979924 0.998871
1.0095 1 1.01115 0.998366
1.02 1.00024 1.02126 0.998535
0.995952 0.997583 0.999073 0.999291
1.00023 1 1.00174 0.998499
0.961009 0.980675 0.980846 0.999083
1.0072 0.994248 1.01358 0.999454
1.03537 1 1.03681 0.998617
1.0021 1 1.00361 0.998492
0.919339 0.94682 0.979339 0.99146
0.929874 0.956579 0.985743 0.986143
0.873162 0.90362 0.987283 0.97874
1.00202 0.998871 1.00375 0.999404
1.0063 0.992848 1.01414 0.999424
0.92218 0.956353 0.977917 0.986042
0.946799 0.950967 1.01362 0.98224
0.948323 0.954936 1.00092 0.992166
0.883853 0.933073 0.970605 0.975938
0.910738 0.950471 0.973246 0.984536
0.883656 0.967071 0.934355 0.977941
1.0056 0.994701 1.01129 0.99967
0.907415 0.94427 0.97036 0.990322
0.918005 0.959962 0.969241 0.986641
0.995182 0.979687 1.01607 0.999754
0.861957 0.945001 0.935759 0.974741
0.944679 0.953054 1.00981 0.981578
0.903562 0.945384 0.978622 0.976641
1.0063 0.990287 1.01641 0.999771
0.921844 0.958798 0.969764 0.991434
0.910772 0.945607 0.977108 0.985726
0.828233 0.914875 0.930699 0.972706
0.886103 0.937781 0.96778 0.976351
0.968498 0.965831 1.0052 0.997579
0.961051 0.956746 1.02565 0.979376
1.01147 1 1.01224 0.999243
1.01633 0.994603 1.02232 0.999538
1.00408 0.983651 1.0212 0.999582
0.998759 1 1 0.998759
1.01116 1 1.01207 0.9991
1.02753 0.998417 1.02978 0.999396
1.0052 1 1.00614 0.999068
1.01341 0.997552 1.01642 0.999488
1.00829 0.996576 1.01251 0.999246
0.999031 1 1 0.999026
0.998842 1 1 0.998839
1.00074 1 1.00178 0.998958
1.00634 1 1.00793 0.998428
0.999028 1 1 0.999028
1.00028 1 1.00201 0.998277
1.00163 1 1.00413 0.99751
1.00094 1.00195 1.00188 0.997125
0.998721 1 1.0004 0.998317
0.998902 1.00031 1.00109 0.997505
0.998871 1.00055 1.00053 0.997795
1.00046 1 1.00236 0.998106
0.999055 1.00004 1.00125 0.997765
1.00143 1 1.00283 0.998606
1.00016 1 1.00181 0.998352
0.99912 1 1.00128 0.997845
0.999138 1 1 0.999138
0.999858 1 1.0011 0.998758
0.999832 1 1.00131 0.998521
0.998998 1 1.00004 0.998962
0.999267 1 1 0.999267
0.999751 1 1 0.999751
0.999343 1 1 0.999343
0.999788 1 1 0.999788
1 1 1 1
0.999806 1 1 0.999806
1 1 1 1
1 1 1 1
1 1 1 1
1 1 1 1
1 1 1 1
0.999201 1 1 0.999201
0.999718 1 1 0.999718
0.999303 1 1 0.999303
1 1 1 1
0.999796 1 1 0.999796
0.999437 1 1 0.999437
1 1 1 1
1 1 1 1
0.999854 1 1 0.999854
1 1 1 1
1 1 1 1
1 1 1 1
0.909407 0.944881 0.971749 0.990438
0.922553 0.955912 0.979814 0.984986
0.844335 0.896629 0.963245 0.977609
0.998928 1 1 0.998928
0.998873 1 1 0.998873
0.998769 1 1 0.998769
0.9173 0.961328 0.968469 0.985267
0.907775 0.944357 0.975237 0.985671
0.928501 0.960809 0.985775 0.980319
0.964796 0.98509 0.985948 0.993358
0.927371 0.952594 0.992468 0.98091
0.841101 0.903638 0.952669 0.977039
0.872059 0.951217 0.941 0.974264
0.939443 0.960513 0.986191 0.991759
0.934444 0.946763 1.00582 0.981276
0.872789 0.91957 0.970639 0.977838
0.878531 0.963416 0.933325 0.977035
0.927707 0.950097 0.985972 0.990326
0.951505 0.956596 1.0131 0.981819
0.894427 0.9311 0.982744 0.97748
0.869269 0.948301 0.938693 0.976528
0.998543 1 1 0.998543
0.999768 1 1.00123 0.998543
0.999872 1 1.00119 0.998682
0.99872 1 1 0.99872
0.998809 1 1 0.998809
0.999028 1 1 0.999028
0.977473 0.993984 0.98447 0.998902
0.991599 0.998009 0.99425 0.999323
1.00103 1 1.00256 0.998468
1.01526 1.00045 1.01629 0.998541
1.01033 1 1.01195 0.998397
1.00005 1 1.00158 0.998473
1.00168 1 1.00317 0.99851
0.971474 0.982993 0.989138 0.999134
1.03043 1 1.03175 0.998726
1.00668 0.98977 1.01762 0.999475
0.999984 1 1.00135 0.998633
0.985054 0.971675 1.01454 0.999241
1.00301 0.987101 1.01661 0.99952
1.02511 1 1.02629 0.998848
0.936095 0.962689 0.979428 0.9928
0.91906 0.946973 0.978515 0.991833
0.929637 0.955807 0.986174 0.986257
1.00862 0.997596 1.01142 0.99963
0.988911 0.980586 1.00938 0.999122
0.908523 0.944852 0.970949 0.99032
0.943149 0.945668 1.0123 0.985217
0.901412 0.942487 0.978832 0.977102
0.916891 0.958296 0.968477 0.987936
0.873096 0.951793 0.941468 0.974347
1.00377 0.989182 1.01496 0.999788
0.922705 0.959024 0.970038 0.991847
0.909359 0.945678 0.975499 0.985746
0.967781 0.962999 1.01037 0.994654
0.827634 0.916826 0.929019 0.971687
0.870117 0.921654 0.965833 0.977479
0.968748 0.960679 1.02723 0.981671
1.00055 0.97102 1.03092 0.999499
0.910126 0.945419 0.971881 0.990522
0.929156 0.962865 0.984054 0.980627
0.759841 0.849384 0.920284 0.972068
0.840989 0.913516 0.943003 0.97625
0.95035 0.955182 1.01379 0.981406
0.946886 0.95842 0.995047 0.992883
1.01682 0.994043 1.02341 0.999508
1.00757 0.988401 1.01982 0.999586
1.0163 0.994037 1.02288 0.999529
1.00208 1 1.00302 0.999054
1.01411 0.997685 1.01699 0.999487
1.01002 0.996231 1.01453 0.999324
1.01369 1 1.0149 0.998814
1.00183 1 1.00291 0.998931
1.00657 1 1.00827 0.998315
1.01484 1 1.01743 0.997446
0.999838 1 1.00145 0.998395
1.00313 1.00059 1.00509 0.997469
1.00486 1.00215 1.00596 0.996766
1.00323 1.00463 1.00191 0.996704
0.999391 1.00087 1.00108 0.997446
1.00084 1.00188 1.00189 0.997083
0.999187 1.00056 1.00124 0.997394
0.99922 1.00013 1.0011 0.997997
0.998691 1.00032 1.00048 0.997889
1.00126 1 1.00295 0.998319
1.00059 1 1.00244 0.998148
0.999029 1.00004 1.00117 0.997826
1.00049 1 1.00157 0.998918
1.0009 1 1.00229 0.998608
1.00015 1 1.00181 0.998343
0.999679 1 1 0.999679
0.999189 1 1.00005 0.999136
0.999767 1 1.00101 0.998756
0.999265 1 1 0.999265
0.999746 1 1 0.999746
1 1 1 1
0.999785 1 1 0.999785
1 1 1 1
1 1 1 1
1 1 1 1
1 1 1 1
1 1 1 1
0.999187 1 1 0.999187
0.99972 1 1 0.99972
0.999221 1 1 0.999221
1 1 1 1
0.999752 1 1 0.999752
0.999335 1 1 0.999335
1 1 1 1
1 1 1 1
0.999788 1 1 0.999788
1 1 1 1
1 1 1 1
1 1 1 1
0.921475 0.958226 0.970009 0.991379
0.909774 0.94533 0.971677 0.990439
0.922748 0.955967 0.979963 0.984987
0.998839 1 1 0.998839
0.998714 1 1 0.998714
0.998947 1 1 0.998947
0.998869 1 1 0.998869
0.998751 1 1 0.998751
0.998754 1 1 0.998754
0.998656 1 1 0.998656
0.90519 0.947658 0.970329 0.984395
0.917133 0.959124 0.969235 0.986572
0.905036 0.943652 0.973001 0.985691
0.880811 0.965854 0.932576 0.977883
0.928166 0.950892 0.986018 0.989942
0.936333 0.946636 1.00702 0.982218
0.877994 0.923085 0.973374 0.977169
0.921882 0.949524 0.981119 0.989573
0.943007 0.948546 1.014 0.980432
0.905908 0.946651 0.97934 0.977149
0.856014 0.937809 0.934328 0.976939
0.929047 0.95145 0.984731 0.991595
0.951594 0.955589 1.01611 0.980029
0.881048 0.930834 0.968804 0.976992
0.83811 0.92238 0.933166 0.973717
1.00117 1 1.00252 0.998659
0.998676 1 1.00013 0.998545
1.00029 1 1.00176 0.998533
0.998715 1 1 0.998715
0.978483 0.983758 0.99544 0.999194
1.0053 0.986225 1.01985 0.999495
0.998583 1 1.00014 0.998448
1.00142 1 1.00289 0.998527
1.02524 1 1.02643 0.998835
0.999474 1 1.00085 0.998625
1.02558 0.999434 1.02736 0.998834
0.981737 0.970379 1.01325 0.998473
1.00569 0.985439 1.02093 0.999632
1.01179 0.998272 1.0146 0.998955
0.984099 0.966542 1.0199 0.998299
1.02209 0.991268 1.03182 0.999296
0.919891 0.946861 0.979842 0.991503
0.93222 0.961099 0.976521 0.993273
0.918428 0.947143 0.9773 0.992206
0.999755 0.986745 1.01338 0.999805
0.971725 0.965527 1.00868 0.997757
0.922605 0.958674 0.969881 0.992262
0.9645 0.961044 1.02432 0.97977
0.873099 0.922525 0.968936 0.976765
0.907024 0.945713 0.972939 0.985766
0.822393 0.908817 0.931109 0.971858
1.00518 0.974702 1.03168 0.999599
0.909899 0.945827 0.971216 0.990525
0.928322 0.961979 0.984158 0.980547
0.949108 0.957974 0.995602 0.995122
0.753984 0.851448 0.913204 0.969697
0.847873 0.914537 0.949746 0.976162
0.947678 0.949932 1.01713 0.980822
1.00034 0.977944 1.02425 0.99869
0.921814 0.956759 0.97797 0.98518
0.827359 0.886138 0.958086 0.974515
0.805985 0.884469 0.932066 0.977683
0.933857 0.942855 1.00882 0.981799
0.925912 0.948721 0.985302 0.990517
1.01048 0.992332 1.0187 0.99959
1.0169 0.992412 1.02516 0.999522
1.00552 0.995876 1.01033 0.999354
1.01193 0.996061 1.01654 0.999402
1.01259 0.997727 1.01602 0.998892
1.00608 1.0008 1.00732 0.997976
1.00705 1 1.00886 0.998202
1.01394 1.00003 1.01656 0.997393
1.00897 1.00017 1.01206 0.996772
1.00474 1.00128 1.00604 0.997428
1.00515 1.0019 1.00658 0.996688
1.00295 1.00209 1.00441 0.996462
1.00667 1.00995 1 0.996758
1.00575 1.00809 1.00077 0.996911
1.00375 1.00493 1.00218 0.99665
0.999341 1.00153 1.00013 0.99769
0.99901 1.00077 1.00074 0.997504
1.00078 1.00185 1.0019 0.99704
0.999131 1 1.00112 0.998018
0.999396 1.00033 1.00108 0.997988
0.998447 1.00004 1.00043 0.997982
1.00161 1 1.00299 0.998626
1.00122 1 1.00286 0.998365
1.00072 1 1.00253 0.998191
0.99952 1 1 0.99952
1.00024 1 1.00132 0.99892
1.00056 1 1.00195 0.99861
0.999997 1 1 0.999997
0.999672 1 1 0.999672
0.999312 1 1.00018 0.999134
0.999742 1 1 0.999742
0.999999 1 1 0.999999
1 1 1 1
1 1 1 1
1 1 1 1
1 1 1 1
0.998831 1 1 0.998831
0.999121 1 1 0.999121
0.999656 1 1 0.999656
0.999185 1 1 0.999185
0.999999 1 1 0.999999
0.999724 1 1 0.999724
0.999242 1 1 0.999242
1 1 1 1
1 1 1 1
0.999786 1 1 0.999786
1 1 1 1
1 1 1 1
1 1 1 1
0.905658 0.943782 0.969027 0.990277
0.921833 0.958468 0.969731 0.991798
0.91047 0.945956 0.971778 0.990439
0.99885 1 1 0.99885
0.998722 1 1.00002 0.998702
0.998655 1 1 0.998655
0.998704 1 1 0.998704
0.999927 1 1.00131 0.998616
0.998866 1 1 0.998866
0.998733 1 1 0.998733
0.998754 1 1 0.998754
0.998658 1 1 0.998658
1.00067 1 1.00197 0.998704
0.920864 0.953189 0.985283 0.980518
0.908459 0.949272 0.972156 0.984416
0.917896 0.957782 0.97012 0.987874
0.855491 0.938748 0.93272 0.977047
0.902557 0.941064 0.981335 0.977324
0.914224 0.945443 0.97819 0.988541
0.951303 0.956415 1.01333 0.981575
0.92967 0.954107 0.984888 0.989339
0.962809 0.964611 1.01694 0.981502
0.882482 0.930504 0.970357 0.977363
0.837464 0.925238 0.930338 0.972907
0.948736 0.95893 0.998408 0.990947
0.952604 0.956372 1.01431 0.982004
0.826338 0.895345 0.944911 0.976734
0.784653 0.881558 0.916036 0.971659
1.00319 1 1.00409 0.999105
1.00253 1 1.00388 0.998656
0.999457 1 1.00091 0.998547
0.981558 0.970722 1.0135 0.997689
1.00868 0.983319 1.02605 0.999748
0.999773 1 1.00116 0.998616
1.02688 0.99902 1.0291 0.998821
1.01304 0.999258 1.01485 0.998962
1.02361 0.993686 1.03085 0.999285
0.982059 0.965102 1.01928 0.998326
1.01775 0.997844 1.02061 0.999345
0.988946 0.975703 1.01541 0.998195
0.932101 0.958991 0.985874 0.985887
0.919698 0.947053 0.979075 0.99187
0.928387 0.959526 0.973636 0.993746
1.01075 0.979462 1.03227 0.999689
0.949023 0.960001 0.996766 0.991773
0.910827 0.946245 0.971777 0.990525
0.950819 0.95755 1.01388 0.979375
0.83911 0.901615 0.952633 0.97695
0.928317 0.961091 0.985137 0.980472
0.75202 0.856994 0.907173 0.9673
0.999538 0.976583 1.02471 0.998822
0.923792 0.957037 0.979795 0.985168
0.819859 0.880591 0.95625 0.973628
0.928675 0.952386 0.983291 0.991672
0.817654 0.891632 0.93922 0.976375
0.921497 0.940992 0.998833 0.980427
0.972308 0.973889 1.00062 0.997754
0.854729 0.89834 0.973245 0.97761
0.816863 0.882323 0.947167 0.977452
0.941878 0.958849 1.00131 0.981013
0.918733 0.946678 0.978141 0.992168
1.01667 0.990954 1.02645 0.999515
1.00764 0.994421 1.01397 0.999327
0.998608 1.001 0.998974 0.99863
1.01119 0.995103 1.01722 0.99897
1.00577 1.00093 1.00677 0.998071
1.00042 1.00199 1.001 0.997449
1.01277 1.00008 1.01539 0.997339
1.00737 1.00036 1.01026 0.996787
0.999573 1.00147 1.00122 0.996891
1.00508 1.0016 1.00689 0.996611
1.00314 1.00301 1.00365 0.996485
1.00721 1.01032 1 0.996926
1.01896 1.02188 1 0.997138
1.01196 1.01519 1.00002 0.996803
1.00616 1.00941 1 0.996778
1.00394 1.00677 1 0.997189
1.00398 1.00606 1.00107 0.996864
1.00432 1.0053 1.00244 0.996598
0.998558 1.00072 1 0.997844
0.998936 1.00116 1.00002 0.997757
0.998574 1.0007 1.00032 0.997562
0.999824 1 1.00148 0.998345
0.99938 1.00005 1.00129 0.998047
0.999629 1.00056 1.0011 0.997978
1.00027 1 1.00104 0.999228
1.0013 1 1.00267 0.998628
1.00111 1 1.00271 0.998411
0.999988 1 1 0.999988
0.999648 1 1.00014 0.999512
0.999934 1 1.00101 0.998922
1 1 1 1
0.999996 1 1 0.999996
0.999665 1 1 0.999665
0.999999 1 1 0.999999
1 1 1 1
1 1 1 1
0.998881 1 1.00014 0.998745
0.999045 1 1 0.999045
0.998817 1 1 0.998817
0.999602 1 1 0.999602
0.99912 1 1 0.99912
0.999992 1 1 0.999992
0.999659 1 1 0.999659
0.999183 1 1 0.999183
1 1 1 1
0.999999 1 1 0.999999
0.999727 1 1 0.999727
1 1 1 1
1 1 1 1
1 1 1 1
0.925489 0.960229 0.977323 0.986186
0.906594 0.94423 0.969565 0.990279
0.921804 0.958077 0.969685 0.992218
0.998665 1 1 0.998665
0.998861 1 1 0.998861
0.998689 1 1 0.998689
0.998717 1 1 0.998717
0.998673 1 1 0.998673
0.999459 1 1.00083 0.99863
1.00187 1 1.00338 0.998493
1.00209 1 1.0035 0.998597
0.998755 1 1 0.998755
0.99866 1 1 0.99866
1.00072 1 1.00203 0.998694
1.0027 1 1.00384 0.998869
0.825615 0.886428 0.956892 0.973356
0.927795 0.959232 0.986553 0.980411
0.910338 0.949523 0.97389 0.984435
0.829134 0.919182 0.926756 0.973325
0.888666 0.937491 0.97048 0.976753
0.953119 0.956425 1.01679 0.980085
0.934349 0.953686 0.98953 0.990091
0.947099 0.955524 0.998423 0.992749
0.768711 0.870439 0.911027 0.969379
0.947054 0.951417 1.01545 0.980272
0.838809 0.908507 0.945339 0.97667
0.939468 0.955171 0.990256 0.993238
0.939893 0.949019 1.00779 0.982733
0.809843 0.888857 0.932726 0.976821
1.0006 1 1.00102 0.999575
1.00304 1 1.00393 0.999109
1.00351 1 1.00486 0.998654
0.978384 0.961832 1.01888 0.99836
1.026 0.997318 1.02951 0.999273
1.01385 0.999829 1.01507 0.99897
1.01778 0.999051 1.01942 0.999344
0.988871 0.97737 1.01355 0.998247
0.998575 0.99081 1.0091 0.998753
0.866386 0.904821 0.980172 0.976892
0.929927 0.957695 0.983659 0.987137
0.91884 0.947145 0.977706 0.992237
0.999668 0.974934 1.02647 0.998933
0.922857 0.950897 0.97789 0.992455
0.923633 0.957194 0.979469 0.985166
0.930054 0.94044 1.00705 0.982029
0.825602 0.904286 0.935386 0.976053
0.816719 0.882886 0.949842 0.973905
0.974315 0.974258 1.00225 0.997816
0.844964 0.896189 0.964268 0.977779
0.830518 0.888961 0.955779 0.977482
0.921818 0.94772 0.982696 0.989797
0.93066 0.95608 0.990759 0.982492
0.964467 0.984607 0.980681 0.998842
0.847442 0.902919 0.959719 0.977951
0.948448 0.976186 0.988047 0.983338
0.934237 0.960477 0.982913 0.989589
1.01057 0.993641 1.01775 0.9993
0.991341 0.999882 0.992715 0.998735
0.989111 1.0027 0.988351 0.998076
1.00597 1.00109 1.00672 0.998167
1.00254 1.00241 1.0027 0.997439
1.00035 1.00336 0.999428 0.997577
1.0061 1.00057 1.00875 0.996802
0.999579 1.00113 1.00155 0.996903
1.01335 1.01588 1 0.997506
1.00355 1.00395 1.00311 0.996509
1.00663 1.00972 1 0.996935
1.01839 1.02086 1 0.997579
1.02397 1.02646 1 0.997582
1.02134 1.02434 1 0.997067
1.01833 1.02122 1 0.997169
1.01167 1.01469 1 0.997015
1.01105 1.01424 1 0.996847
1.00546 1.00869 1 0.996797
1.00224 1.00468 1 0.997563
1.00383 1.0065 1.00014 0.997214
1.00232 1.00403 1.00148 0.996817
0.998126 1.00001 1 0.998114
0.999426 1.00159 1 0.997838
0.99841 1.00059 1 0.997825
1.00006 1 1.00116 0.998902
0.999731 1 1.00139 0.998346
0.999679 1.00016 1.00145 0.998076
0.99995 1 1 0.99995
1.00021 1 1.00099 0.999225
1.00089 1 1.00226 0.99863
1 1 1 1
0.999981 1 1 0.999981
0.999763 1 1.00026 0.999505
1 1 1 1
0.999994 1 1 0.999994
1 1 1 1
0.998792 1 1.00009 0.998701
0.998925 1 1.00018 0.998742
0.998991 1 1.00004 0.998949
0.999548 1 1 0.999548
0.999045 1 1 0.999045
0.998803 1 1 0.998803
0.999982 1 1 0.999982
0.999604 1 1 0.999604
0.999119 1 1 0.999119
1 1 1 1
0.999995 1 1 0.999995
0.999662 1 1 0.999662
1 1 1 1
1 1 1 1
1 1 1 1
0.851593 0.894072 0.976324 0.975586
0.923362 0.95801 0.977331 0.986189
0.90792 0.945008 0.970183 0.990281
0.998961 1 1.00031 0.998648
0.999179 1 1.00061 0.998569
1.00079 1 1.00224 0.998552
0.998771 1 1.00004 0.99873
0.998691 1 1 0.998691
0.999611 1 1.00097 0.998645
1.00198 1 1.00339 0.99859
1.00167 1 1.00317 0.998502
1.00263 1 1.00423 0.99841
0.997779 1 0.998752 0.999025
1.00035 1 1.00166 0.998685
1.00178 1 1.00294 0.998844
0.826428 0.885272 0.955867 0.976632
0.81776 0.878456 0.957487 0.972239
0.933606 0.963871 0.988047 0.980318
0.753865 0.857511 0.909074 0.967064
0.839802 0.906667 0.948301 0.976748
0.945111 0.952503 1.00983 0.982583
0.950076 0.955572 1.00364 0.990638
0.937572 0.954617 0.990646 0.991418
0.812164 0.881764 0.943841 0.975871
0.928569 0.943731 1.0021 0.981876
0.931353 0.956964 0.980943 0.992145
0.927828 0.95728 0.987595 0.981407
1.00686 1 1.00783 0.999029
1.0003 1 1.00079 0.999511
1.00257 1 1.00346 0.999114
0.988143 0.978027 1.01207 0.998292
1.0175 0.999958 1.01821 0.999344
0.998894 0.991552 1.00876 0.998657
0.990038 0.995208 0.996933 0.997865
0.847529 0.916647 0.944528 0.978899
0.869652 0.904707 0.983128 0.977748
0.928862 0.956782 0.982238 0.988375
0.975016 0.977605 0.999428 0.997923
0.921174 0.947361 0.981677 0.990507
0.845027 0.897391 0.962943 0.977885
0.926663 0.952525 0.991637 0.981053
0.835959 0.895393 0.954898 0.97772
0.968139 0.984626 0.985004 0.998225
0.853081 0.91049 0.958007 0.978017
0.94755 0.977073 0.988145 0.981419
0.941688 0.963257 0.985909 0.99158
0.975919 0.992716 0.984368 0.998692
0.952167 0.982491 0.986367 0.982531
0.955715 0.982727 0.979395 0.992974
0.984336 0.998521 0.986943 0.998835
0.988373 1.00359 0.98676 0.998053
0.983696 1.00702 0.97884 0.997953
1.00377 1.00278 1.00356 0.997429
0.999683 1.00347 0.998648 0.997572
1.01725 1.02285 0.996458 0.998063
0.999404 1.00071 1.00179 0.996916
1.01326 1.0159 0.999904 0.997494
1.02322 1.02599 0.999261 0.998042
1.00589 1.00898 1 0.996943
1.0178 1.02027 1 0.997578
1.02454 1.02662 1 0.997975
1.02183 1.02403 1 0.997856
1.02461 1.02704 1 0.997634
1.0239 1.0265 1 0.997461
1.02081 1.02373 1 0.997143
1.02184 1.02483 1 0.997074
1.01782 1.02068 1 0.9972
1.00888 1.01162 1 0.997287
1.01252 1.01552 1 0.99705
1.01016 1.01331 1 0.996891
0.998752 1.00087 1 0.997882
1.00273 1.00519 1 0.997556
1.0039 1.00651 1.00017 0.99724
0.998758 1 1.00009 0.998668
0.99826 1.00015 1 0.998112
1.00031 1.00248 1 0.997832
0.999842 1 1 0.999842
0.999769 1 1.00087 0.998902
0.99973 1 1.00139 0.998347
1 1 1 1
0.999931 1 1 0.999931
1.0001 1 1.00088 0.999221
1 1 1 1
0.999974 1 1 0.999974
1 1 1 1
0.998636 1 1 0.998636
0.99886 1 1.00016 0.998697
0.998945 1 1.0001 0.998845
0.998929 1 1.00019 0.99874
0.998989 1 1.00004 0.998949
0.999469 1 1 0.999469
0.999972 1 1 0.999972
0.999551 1 1 0.999551
0.999045 1 1 0.999045
1 1 1 1
0.999985 1 1 0.999985
0.999607 1 1 0.999607
1 1 1 1
0.999997 1 1 0.999997
1 1 1 1
0.854851 0.906722 0.963895 0.978107
0.854569 0.898564 0.975 0.975424
0.921669 0.956414 0.977167 0.986189
0.999097 1 1.00047 0.998632
1.00113 1 1.00264 0.998492
0.998836 1 1.00022 0.998616
0.998202 1 1 0.998202
1.00076 1 1.00229 0.99847
1.00192 1 1.00334 0.998583
1.00105 1 1.00254 0.99851
1.0026 1 1.00415 0.998448
0.998269 1 1 0.998269
0.995681 1.00065 0.996226 0.998805
0.998274 1.00035 0.999989 0.997934
0.999206 1 1.00013 0.999079
1.00123 1 1.00241 0.998818
0.942412 0.974797 0.984615 0.981884
0.82902 0.883465 0.960527 0.976936
0.818649 0.88146 0.955237 0.972265
0.809923 0.88285 0.940537 0.975397
0.935479 0.948642 1.00573 0.980502
0.940502 0.952153 0.994355 0.993371
0.932739 0.955594 0.982546 0.993422
0.935274 0.958982 0.991932 0.983211
0.957882 0.982595 0.982268 0.992447
0.999828 1.00132 1.00029 0.998226
1.00566 1 1.00666 0.999006
0.999887 1 1.00044 0.999446
1.00006 0.993489 1.00804 0.998584
0.995602 0.9993 0.998476 0.99782
0.929398 0.972643 0.971972 0.983092
0.857191 0.915693 0.956425 0.978761
0.873894 0.904609 0.987152 0.97862
0.972209 0.986039 0.988365 0.99758
0.937797 0.959779 0.987252 0.989714
0.853971 0.907934 0.961909 0.977811
0.94608 0.972824 0.989259 0.983069
0.978074 0.992596 0.986624 0.998728
0.955862 0.98736 0.984136 0.983705
0.956069 0.982089 0.98235 0.990997
0.995811 1.00452 0.993176 0.998138
0.974938 0.995486 0.984143 0.995139
0.988309 1.00465 0.985673 0.998038
0.984995 1.00642 0.980773 0.997903
1.00538 1.02879 0.979085 0.998122
0.999261 1.00358 0.998123 0.997567
1.01698 1.02261 0.996435 0.998047
1.02489 1.03416 0.992748 0.998276
1.01321 1.016 0.999769 0.997482
1.02287 1.02615 0.998779 0.998024
1.02137 1.02566 0.997619 0.99819
1.0174 1.01987 1 0.997577
1.02482 1.02701 0.999914 0.997957
1.02371 1.02575 0.999997 0.998017
1.02242 1.02457 1 0.997903
1.02153 1.0239 1 0.997684
1.02521 1.02759 1 0.997686
1.02383 1.02645 1 0.997453
1.02372 1.02646 1 0.997333
1.01624 1.01905 1 0.997247
1.02068 1.02361 1 0.997133
1.02229 1.02529 1 0.997081
1.00205 1.00438 1 0.997674
1.00826 1.01098 1 0.997307
1.01333 1.01629 1 0.997085
0.998486 1 1 0.998486
0.999635 1.00176 1 0.997878
1.00292 1.00539 1 0.997549
0.999682 1 1 0.999682
0.998711 1 1.00004 0.998668
0.998406 1.0003 1 0.998111
1 1 1 1
0.999838 1 1.00002 0.999818
0.999553 1 1.00065 0.998903
1 1 1 1
0.999951 1 1.00004 0.999911
1 1 1 1
0.999394 1.00118 1 0.998217
0.998634 1 1 0.998634
0.998869 1 1.00017 0.998703
0.998967 1 1.00027 0.998693
0.998969 1 1.00015 0.998824
0.999329 1 1 0.999329
0.999029 1 1.00008 0.998948
0.999471 1 1 0.999471
0.99996 1 1 0.99996
1 1 1 1
0.999975 1 1 0.999975
0.999553 1 1 0.999553
1 1 1 1
0.999988 1 1 0.999988
1 1 1 1
0.951127 0.98343 0.982704 0.984175
0.848652 0.909908 0.953071 0.978604
0.864859 0.904607 0.980518 0.975055
1.00164 1 1.00321 0.998432
0.998664 1 1 0.998664
1.00051 1 1.00204 0.998473
0.998496 1.00027 1 0.998224
1.00308 1.00528 1.00002 0.99779
0.998307 1 1 0.998307
1.00274 1 1.00426 0.998487
0.998145 1 1 0.998145
0.997342 1.00042 0.998152 0.998773
0.998601 1.00058 0.999912 0.998113
0.997866 1.00303 0.996735 0.998113
0.997836 1.00129 0.999001 0.997548
0.997753 1.00082 0.998868 0.998066
1.00067 1 1.00154 0.999132
0.956517 0.984557 0.978757 0.992606
0.945276 0.97616 0.985536 0.982574
0.824634 0.884407 0.953749 0.977631
0.947758 0.965456 1.00062 0.981061
0.933117 0.95433 0.983372 0.994305
0.961907 0.983057 0.983552 0.99485
0.992727 1.00377 0.990912 0.998072
0.99772 1.00067 0.998789 0.998261
1.00461 1 1.00563 0.998984
0.995901 1.00112 0.997022 0.997757
0.960001 0.979514 0.987322 0.992664
0.942439 0.977089 0.979281 0.984944
0.847289 0.910046 0.951441 0.978557
0.980371 0.992924 0.988584 0.998761
0.960185 0.984618 0.982623 0.99243
0.96011 0.986995 0.987697 0.984878
0.989294 1.0036 0.987568 0.998155
0.972182 0.992836 0.984638 0.994473
0.994383 1.02409 0.972988 0.997946
1.00523 1.01558 0.992315 0.997468
0.985859 1.00574 0.98234 0.99785
1.0046 1.02789 0.979187 0.998115
1.00917 1.03821 0.973818 0.998164
1.01694 1.02277 0.996261 0.998032
1.02464 1.03403 0.992647 0.99826
1.01704 1.02757 0.991603 0.998137
1.0225 1.02624 0.998348 0.998006
1.02066 1.02509 0.997497 0.998174
1.02396 1.02826 0.99783 0.997986
1.02504 1.02735 0.999812 0.99794
1.02275 1.02491 0.999879 0.998012
1.02205 1.02435 1 0.997747
1.02302 1.02512 1 0.997949
1.02162 1.02395 1 0.997723
1.02359 1.02621 1 0.997446
1.02383 1.02646 1 0.997446
1.02365 1.0264 1 0.997324
1.01981 1.02252 1 0.997349
1.00641 1.00891 1 0.997527
1.01592 1.01871 1 0.997264
1.02052 1.02346 1 0.997124
0.998495 1.00019 1 0.998308
1.00298 1.00532 1 0.997675
1.00788 1.01058 1 0.997327
0.999522 1 1 0.999522
0.99849 1.00001 1 0.998484
1.00052 1.00265 1 0.997874
1 1 1 1
0.999666 1 1 0.999666
0.998668 1 1 0.998668
1 1 1 1
0.999795 1 1 0.999795
1 1 1 1
1.00204 1.0042 1 0.997853
0.998854 1.00062 1 0.998231
0.99849 1.00001 1.00005 0.998422
0.998632 1 1 0.998632
0.998824 1 1.00015 0.998678
0.999134 1 1 0.999134
0.998962 1 1.00016 0.998803
0.999331 1 1 0.999331
0.999938 1 1 0.999938
0.999474 1 1 0.999474
0.999964 1 1 0.999964
1 1 1 1
1 1 1 1
0.999978 1 1 0.999978
1 1 1 1
0.957179 0.983251 0.980301 0.993045
0.946297 0.983582 0.978985 0.982746
0.842081 0.904851 0.951066 0.978512
1.00993 1.01243 1.00007 0.99747
1.00011 1 1.00164 0.998476
0.998848 1.0006 1 0.998247
0.998271 1 1 0.998271
1.00269 1.0048 1.00012 0.997778
1.00055 1.00241 1 0.998145
0.998021 1 1 0.998021
0.998845 1.00023 0.999874 0.998741
0.998578 1.00078 0.999649 0.99815
0.995908 1.0021 0.99574 0.998073
1.00141 1.00401 0.999949 0.997464
1.00258 1.00597 0.999097 0.997528
0.998751 1.00195 0.999299 0.997502
0.997272 1.00134 0.997739 0.998198
0.993386 1.00617 0.988696 0.998579
0.954977 0.984832 0.977859 0.991641
0.948721 0.97773 0.986507 0.983602
0.955024 0.97888 0.98236 0.993148
0.996413 1.0058 0.992161 0.998492
0.998552 1.0002 1.00006 0.998293
0.995101 1.00668 0.990989 0.997484
0.953823 0.971183 0.988081 0.993972
0.933152 0.975808 0.972631 0.983196
0.982637 1.00195 0.982524 0.998168
0.97674 0.994279 0.988661 0.993627
0.996297 1.02517 0.973786 0.997995
1.0042 1.0144 0.992301 0.997625
1.00387 1.03301 0.973759 0.997972
1.02721 1.03341 0.996121 0.997867
1.00361 1.02653 0.979528 0.998107
1.01186 1.03945 0.975254 0.998159
1.00992 1.0335 0.979147 0.997997
1.02396 1.03346 0.992554 0.998245
1.0171 1.02752 0.991702 0.998133
1.02277 1.03074 0.994379 0.997875
1.01993 1.0245 0.997374 0.998157
1.02365 1.02775 0.998008 0.997999
1.02488 1.02748 0.999793 0.997681
1.0218 1.02406 0.999791 0.998007
1.02234 1.02465 1 0.997746
1.02531 1.02791 1 0.997471
1.02165 1.02394 1 0.997761
1.02367 1.02626 1 0.997473
1.02168 1.0244 1 0.997338
1.02355 1.02631 1 0.997315
1.01961 1.02234 1 0.997328
1.00971 1.01222 1 0.997515
0.999252 1.00107 1 0.998184
1.00644 1.00891 1 0.997552
1.01556 1.01833 1 0.997282
0.999385 1 1 0.999385
0.9987 1.00039 1 0.998308
1.00385 1.00619 1 0.997676
1 1 1 1
0.999509 1 1 0.999509
0.99849 1.00001 1 0.998483
1 1 1 1
0.999651 1 1 0.999651
1 1 1 1
1.00473 1.00721 1 0.997533
1.00157 1.00371 1 0.997858
0.999667 1.00155 1 0.998121
0.998251 1 1.00001 0.998244
0.998484 1 1.00006 0.998427
0.999196 1 1.00029 0.998908
0.99877 1 1.00012 0.998654
0.999173 1 1.00004 0.999133
0.999889 1 1 0.999889
0.999333 1 1 0.999333
0.999945 1 1 0.999945
1 1 1 1
0.999968 1 1 0.999968
1 1 1 1
1 1 1 1
0.995117 1.01057 0.986174 0.998519
0.951399 0.980946 0.97851 0.991179
0.943855 0.975427 0.982875 0.984493
1.00774 1.01003 1.00001 0.997717
1.01606 1.01877 1 0.997339
1.00835 1.01072 1.00013 0.997515
0.998235 1 1 0.998235
1.0022 1.0042 1.00024 0.997765
1.00142 1.00333 1 0.998092
1.00981 1.01233 1 0.997508
0.998495 1.00095 0.99936 0.998187
0.993867 1.00102 0.994815 0.998033
1.00218 1.00504 0.999626 0.997529
1.01223 1.01532 0.999734 0.997225
1.00994 1.01891 0.993351 0.997834
1.00309 1.00659 0.999017 0.9975
0.999408 1.00262 0.999335 0.997455
0.99763 1.00841 0.990581 0.998719
0.958396 0.985671 0.98162 0.990534
0.996748 1.00692 0.990965 0.998925
1.01534 1.02567 0.991462 0.998453
0.99417 1.00539 0.991242 0.997576
0.954664 0.977218 0.984639 0.992161
0.998781 1.02654 0.974865 0.998041
1.00243 1.01353 0.991238 0.997789
1.0034 1.03327 0.972993 0.998048
1.02859 1.03538 0.995562 0.997875
1.02414 1.03956 0.987273 0.997871
1.04218 1.04988 0.994668 0.997986
1.01478 1.0414 0.976248 0.998155
1.01205 1.03334 0.981358 0.998
1.0258 1.03764 0.990783 0.99778
1.01738 1.02762 0.991894 0.99813
1.02294 1.03024 0.995034 0.997873
1.0284 1.03257 0.998313 0.997643
1.02329 1.02721 0.998171 0.998011
1.02525 1.02778 0.999856 0.997679
1.02794 1.03059 1 0.997429
1.02263 1.02494 1 0.997746
1.02512 1.02772 1 0.997472
1.02419 1.02696 1 0.997304
1.02377 1.02634 1 0.997499
1.02143 1.02415 1 0.997346
1.01147 1.01404 1 0.997465
1.01944 1.02219 1 0.997307
1.00954 1.01207 1 0.997505
1.00033 1.00222 1 0.99811
0.99931 1 1 0.99931
0.99958 1.0014 1 0.998183
1.00653 1.00898 1 0.997577
1 1 1 1
0.999374 1 1 0.999374
0.99892 1.00061 1 0.998307
1 1 1 1
0.999496 1 1 0.999496
1 1 1 1
1.00963 1.01234 1 0.997326
1.00505 1.00756 1 0.997508
1.00247 1.00465 1 0.997822
1.00106 1.0032 1 0.997863
0.999255 1.00113 1 0.998126
0.998798 1 1.00013 0.998663
0.998494 1 1.00006 0.998433
0.999211 1 1.0003 0.998909
0.999865 1 1.00008 0.999784
0.999133 1 1 0.999133
0.999903 1 1 0.999903
1 1 1 1
0.999953 1 1 0.999953
1 1 1 1
1 1 1 1
1.0087 1.02506 0.98571 0.9983
0.992558 1.00952 0.985089 0.99808
0.949684 0.981985 0.974935 0.99197
1.01735 1.01997 1 0.997431
1.00836 1.0105 1 0.997885
1.02815 1.03095 1 0.997286
1.01658 1.01931 1 0.997324
1.00693 1.00921 1.00018 0.997562
1.02441 1.02729 1 0.997203
1.00236 1.00433 1 0.99804
1.00858 1.01116 1 0.997449
1.02894 1.03464 0.997077 0.997409
1.00286 1.00594 0.999344 0.997595
1.01349 1.01653 0.999824 0.997189
1.00975 1.01875 0.993297 0.997853
1.00306 1.00634 0.999271 0.99747
1.00179 1.01029 0.99272 0.998859
1.03289 1.04455 0.990765 0.998055
1.01534 1.02569 0.991433 0.998459
0.994484 1.00409 0.992754 0.997662
1.00316 1.03298 0.972957 0.998124
1.02892 1.03653 0.994768 0.997884
1.02231 1.03958 0.985467 0.997888
1.04231 1.05091 0.993819 0.997986
1.03724 1.04799 0.99184 0.997884
1.01384 1.0329 0.983514 0.998004
1.02567 1.03717 0.991107 0.997788
1.03095 1.03854 0.995024 0.997657
1.02303 1.02974 0.995606 0.99787
1.02802 1.03193 0.998585 0.997624
1.03024 1.03294 0.999997 0.997383
1.0257 1.02818 0.999916 0.997677
1.02778 1.03044 1 0.997427
1.0274 1.03024 1 0.997248
1.02494 1.02753 1 0.997472
1.02413 1.0269 1 0.997306
1.0136 1.01626 1 0.997383
1.02119 1.0239 1 0.997354
1.01161 1.01418 1 0.997468
1.00107 1.00304 1 0.998034
1.00935 1.01189 1 0.997495
1.00054 1.00243 1 0.998108
0.999397 1 1 0.999397
0.999805 1 1 0.999805
0.999352 1 1 0.999352
0.999893 1.00171 1 0.998182
1 1 1 1
0.999363 1 1 0.999363
1 1 1 1
1.0348 1.03756 1 0.997337
1.02042 1.02317 1 0.997314
1.01072 1.01344 1 0.997315
1.00569 1.00807 1 0.99764
1.00541 1.00795 1 0.997483
1.0016 1.00378 1 0.997825
0.998586 1.00015 1 0.99844
0.998873 1.00074 1 0.998131
0.998956 1 1.00029 0.998667
0.999615 1 1 0.999615
0.999281 1 1.00037 0.998911
0.999803 1 1 0.999803
1 1 1 1
0.999917 1 1 0.999917
1 1 1 1
1 1 1 1
1.03166 1.04298 0.99132 0.997808
1.01242 1.02872 0.985752 0.998381
0.99026 1.00962 0.983144 0.997644
1.02794 1.03079 1 0.997241
1.01681 1.01936 1 0.997496
1.00874 1.01071 1 0.998049
1.02745 1.03023 1 0.997304
1.01707 1.01982 1 0.99731
1.036 1.04016 0.998602 0.997387
1.02167 1.02458 1 0.997164
1.00746 1.0101 1 0.99739
1.02837 1.034 0.997145 0.997403
1.01583 1.01889 0.999845 0.997154
1.01177 1.02121 0.99286 0.997877
1.03828 1.04852 0.992237 0.997977
1.03475 1.04576 0.991384 0.998072
1.0157 1.02576 0.991714 0.998466
1.0214 1.04046 0.98374 0.997904
1.04326 1.05262 0.993111 0.997986
1.03744 1.04887 0.991186 0.997895
1.03378 1.04144 0.994901 0.997729
1.02546 1.03657 0.991464 0.997797
1.03056 1.03786 0.995309 0.997647
1.03266 1.03571 0.999658 0.997397
1.0276 1.03123 0.99888 0.997605
1.03104 1.03375 0.999997 0.997383
1.03037 1.03327 1 0.997198
1.02759 1.03024 1 0.997426
1.0275 1.03033 1 0.997248
1.01577 1.01853 1 0.997294
1.02407 1.02684 1 0.997309
1.01387 1.01653 1 0.997385
1.00169 1.00376 1 0.997935
1.01175 1.01431 1 0.997471
1.00125 1.00323 1 0.998032
0.999398 1 1 0.999398
1.00074 1.00264 1 0.998106
0.999392 1 1 0.999392
0.999818 1 1 0.999818
0.999905 1 1 0.999905
0.999397 1 1 0.999397
1 1 1 1
1.03239 1.03525 1 0.997245
1.02614 1.02887 1 0.997347
1.03436 1.03702 1 0.997443
1.01031 1.01282 1 0.99752
1.02201 1.02478 1 0.997305
1.01189 1.01463 1 0.997303
1.005 1.00738 1 0.997637
0.999677 1.00142 1 0.998259
1.00069 1.00287 1 0.997828
0.998506 1.00007 1 0.998441
0.999444 1 1 0.999444
0.999138 1 1.00047 0.99867
0.999674 1 1.00004 0.999633
1 1 1 1
0.999822 1 1 0.999822
1 1 1 1
1 1 1 1
1.03663 1.04441 0.994851 0.997691
1.03119 1.04243 0.991402 0.997804
1.01454 1.03071 0.985834 0.998455
1.0355 1.03848 0.999824 0.997305
1.02657 1.0294 1 0.997243
1.01642 1.01891 1 0.997562
1.02661 1.02937 1 0.997323
1.0353 1.0395 0.998587 0.997365
1.01889 1.02183 1 0.997124
1.02595 1.03142 0.99729 0.997397
1.03557 1.04349 0.994614 0.99779
1.03761 1.04747 0.992626 0.997938
1.03649 1.04684 0.99201 0.998089
1.03378 1.03963 0.996745 0.997616
1.03739 1.04951 0.990521 0.997906
1.03356 1.04132 0.994816 0.997716
1.0341 1.03759 0.999144 0.997489
1.03022 1.03724 0.995587 0.997636
1.03355 1.03667 0.999589 0.9974
1.03146 1.03438 1 0.997177
1.03184 1.03455 0.999997 0.997383
1.03003 1.03293 1 0.9972
1.01754 1.02038 1 0.997224
1.02755 1.03039 1 0.997249
1.01601 1.01877 1 0.997296
1.00221 1.00439 1 0.997834
1.01411 1.01677 1 0.997387
1.00186 1.00393 1 0.997933
0.999375 1 1 0.999375
1.00144 1.00342 1 0.99803
0.99939 1 1 0.99939
0.999821 1 1 0.999821
0.99939 1 1 0.99939
0.999821 1 1 0.999821
1 1 1 1
1.03272 1.03567 1 0.997147
1.02726 1.03013 1 0.997217
1.03328 1.03612 1 0.997259
1.01391 1.01645 1 0.997509
1.02658 1.0293 1 0.997358
1.03403 1.03658 1 0.997548
1.00143 1.00333 1 0.998105
1.01023 1.01275 1 0.997514
1.02371 1.02649 1 0.997295
1.00421 1.00659 1 0.997635
0.999181 1.00092 1 0.998261
0.999331 1 1 0.999331
0.998442 1 1 0.998442
0.999457 1 1 0.999457
1 1 1 1
0.999652 1 1 0.999652
1 1 1 1
1 1 1 1
1.03634 1.04086 0.998113 0.997545
1.03659 1.04482 0.99444 0.997676
1.0316 1.04284 0.991401 0.9978
1.03491 1.03782 0.999873 0.997316
1.02512 1.02795 1 0.997245
1.03466 1.03891 0.998567 0.997343
1.03442 1.04018 0.996828 0.997621
1.03594 1.04353 0.994935 0.997783
1.03701 1.04654 0.992979 0.9979
1.0343 1.04011 0.996771 0.997637
1.03498 1.03841 0.999268 0.997431
1.03334 1.04121 0.994725 0.997703
1.03423 1.03772 0.999183 0.997451
1.03152 1.03438 1 0.997237
1.03433 1.03752 0.999521 0.997402
1.03116 1.03407 1 0.997181
1.0188 1.02169 1 0.997171
1.02983 1.03272 1 0.997201
1.01791 1.02074 1 0.997225
1.0026 1.00485 1 0.997757
1.01635 1.01911 1 0.997297
1.00235 1.00453 1 0.997833
0.999326 1 1 0.999326
1.00203 1.00411 1 0.997932
0.999363 1 1 0.999363
0.999806 1 1 0.999806
0.999385 1 1 0.999385
0.999831 1 1 0.999831
0.999821 1 1 0.999821
1.03472 1.03747 1 0.997355
1.02947 1.03248 1 0.997092
1.03335 1.03629 1 0.997167
1.01647 1.01915 1 0.99737
1.02682 1.02968 1 0.997216
1.03411 1.03694 1 0.997273
1.00233 1.00435 1 0.997991
1.01399 1.01657 1 0.997464
1.02688 1.02959 1 0.997369
0.999279 1 1 0.999279
1.00091 1.00281 1 0.998108
1.01025 1.01277 1 0.997508
0.998686 1.00042 1 0.998262
0.999341 1 1 0.999341
1 1 1 1
0.999471 1 1 0.999471
1 1 1 1
1 1 1 1
1.03368 1.03781 0.998504 0.997518
1.03543 1.04028 0.99779 0.997541
1.03646 1.0451 0.994057 0.997661
1.03427 1.03713 0.999916 0.997327
1.03422 1.03742 0.999527 0.997393
1.0351 1.04086 0.99683 0.997631
1.03629 1.04352 0.99529 0.997776
1.03483 1.04061 0.996781 0.997657
1.03436 1.03797 0.999079 0.997442
1.0319 1.03475 1 0.997246
1.03447 1.03797 0.99921 0.997413
1.03138 1.03427 1 0.99721
1.01954 1.02244 1 0.99716
1.03085 1.03377 1 0.997184
1.01905 1.02194 1 0.997173
1.00272 1.00504 1 0.997691
1.0181 1.02094 1 0.997225
1.00263 1.00489 1 0.997757
0.999169 1 1 0.999169
1.00244 1.00462 1 0.997833
0.999267 1 1 0.999267
1 1 1 1
0.999352 1 1 0.999352
0.99982 1 1 0.99982
0.999836 1 1 0.999836
1.03347 1.0362 0.999937 0.997427
1.03063 1.03355 1 0.997174
1.03428 1.03702 1 0.99735
1.01883 1.0217 1 0.997192
1.02935 1.03233 1 0.997113
1.03406 1.03698 1 0.997186
1.00296 1.00517 1 0.997802
1.0166 1.01928 1 0.997369
1.02644 1.02931 1 0.997217
0.99926 1 1 0.99926
1.00213 1.00419 1 0.997948
1.01407 1.0167 1 0.997419
1 1 1 1
0.999289 1 1 0.999289
1.00036 1.00226 1 0.99811
0.999352 1 1 0.999352
1 1 1 1
1 1 1 1
1.03282 1.03579 0.999725 0.997406
1.03429 1.03837 0.998542 0.997524
1.0345 1.0397 0.997456 0.997536
1.0316 1.03451 1 0.997189
1.03341 1.0367 0.999418 0.997403
1.03573 1.04147 0.996835 0.997641
1.03377 1.03753 0.998923 0.997453
1.03188 1.03474 0.999986 0.997246
1.01878 1.02162 1 0.99722
1.03114 1.03405 1 0.997184
1.01948 1.02236 1 0.997185
1.00267 1.00512 1 0.997565
1.01939 1.02228 1 0.997175
1.00276 1.00508 1 0.997692
0.999118 1 1 0.999118
1.00273 1.00498 1 0.997757
0.999166 1 1 0.999166
1 1 1 1
0.999198 1 1 0.999198
0.999896 1 1 0.999896
0.999831 1 1 0.999831
1.03102 1.03387 0.99986 0.997384
1.03064 1.03351 1 0.997226
1.03339 1.03609 0.999965 0.997432
1.01966 1.02253 1 0.997195
1.03121 1.03414 1 0.997164
1.03385 1.03661 1 0.997346
1.00353 1.00585 1 0.997698
1.01876 1.02159 1 0.997234
1.02919 1.03215 1 0.997134
0.999234 1 1 0.999234
1.00292 1.00515 1 0.997788
1.01672 1.01941 1 0.997369
1 1 1 1
0.999269 1 1 0.999269
1.00195 1.00406 1 0.997904
1 1 1 1
0.9993 1 1 0.9993
1 1 1 1
1.03207 1.03493 1 0.997237
1.03218 1.03517 0.999709 0.997394
1.03496 1.039 0.998568 0.997531
1.01777 1.02062 1 0.99721
1.03168 1.03457 0.999993 0.997209
1.03268 1.03607 0.999317 0.997413
1.03183 1.03472 0.99996 0.997247
1.01884 1.02168 1 0.997219
1.00211 1.00459 1 0.997532
1.01946 1.02231 1 0.99721
1.00264 1.00506 1 0.9976
0.999056 1 1 0.999056
1.00275 1.00507 1 0.997693
0.999115 1 1 0.999115
1 1 1 1
0.999164 1 1 0.999164
1 1 1 1
0.999812 1 1 0.999812
1.03103 1.03387 1 0.99725
1.0308 1.03357 0.999913 0.997402
1.01917 1.02202 1 0.997211
1.03088 1.03375 1 0.997225
1.03332 1.03597 0.999999 0.997437
1.00325 1.00554 1 0.997723
1.01939 1.02226 1 0.997192
1.03176 1.0347 1 0.997153
0.999186 1 1 0.999186
1.00364 1.00592 1 0.997727
1.01867 1.02145 1 0.997275
1 1 1 1
0.99924 1 1 0.99924
1.00289 1.00513 1 0.997774
1 1 1 1
0.999278 1 1 0.999278
1 1 1 1
1.01787 1.02069 1 0.997245
1.03192 1.03479 1 0.997227
1.03147 1.03448 0.999702 0.997382
1.00124 1.00371 1 0.997537
1.01782 1.02067 1 0.99721
1.03171 1.03461 0.999967 0.997228
1.01889 1.02173 1 0.997219
1.00211 1.00459 1 0.997534
0.999012 1 1 0.999012
1.00264 1.00501 1 0.997634
0.999053 1 1 0.999053
1 1 1 1
0.999112 1 1 0.999112
1 1 1 1
1 1 1 1
1.01859 1.02144 1 0.997213
1.0308 1.03362 1 0.997271
1.03054 1.03325 0.999961 0.997419
1.00255 1.00486 1 0.997704
1.01905 1.0219 1 0.997208
1.03111 1.03398 1 0.997224
0.999136 1 1 0.999136
1.00343 1.00572 1 0.997721
1.01916 1.02203 1 0.997188
1 1 1 1
0.99919 1 1 0.99919
1.00375 1.006 1 0.997757
1 1 1 1
0.999246 1 1 0.999246
1 1 1 1
1.00094 1.00332 1 0.997628
1.01778 1.02063 1 0.997209
1.03178 1.03466 1 0.997218
0.999013 1 1 0.999013
1.00128 1.00375 1 0.997536
1.01788 1.02073 1 0.99721
1.00211 1.00459 1 0.997536
0.999011 1 1 0.999011
1 1 1 1
0.99905 1 1 0.99905
1 1 1 1
1 1 1 1
1.00159 1.00393 1 0.997671
1.01828 1.02113 1 0.997215
1.0306 1.0334 1 0.997292
0.999232 1 1 0.999232
1.00279 1.0051 1 0.997702
1.01892 1.02178 1 0.997205
1 1 1 1
0.999137 1 1 0.999137
1.00359 1.00588 1 0.997719
1 1 1 1
0.999193 1 1 0.999193
1 1 1 1
0.999012 1 1 0.999012
1.00108 1.00349 1 0.997597
1.0177 1.02058 1 0.997173
1 1 1 1
0.999013 1 1 0.999013
1.00131 1.00379 1 0.997534
0.99901 1 1 0.99901
1 1 1 1
1 1 1 1
0.999186 1 1 0.999186
1.00188 1.00422 1 0.997671
1.01793 1.02077 1 0.997217
1 1 1 1
0.999098 1 1 0.999098
1.00304 1.00535 1 0.9977
1 1 1 1
0.999138 1 1 0.999138
1 1 1 1
0.999734 1 1 0.999734
0.999101 1 1 0.999101
1.0012 1.00365 1 0.997565
1 1 1 1
0.999014 1 1 0.999014
1 1 1 1
0.999751 1 1 0.999751
0.999128 1 1 0.999128
1.0022 1.00454 1 0.997671
0.999878 1 1 0.999878
0.999097 1 1 0.999097
1 1 1 1
1 1 1 1
0.999036 1 1 0.999036
1 1 1 1
0.999872 1 1 0.999872
0.999065 1 1 0.999065
1 1 1 1
1 1 1 1
1 1 1 1

VECTORS lamdaE float
1.00051 1.00013 0.994696
1.00027 1.00051 0.997443
1.00016 1.00035 0.994911
1.00076 0.999958 0.994515
1.00061 0.999949 0.994744
1.00047 1.00033 0.994534
1.0018 1.00048 0.991812
1.00029 1.00042 0.997448
1.0002 1.0002 0.997783
0.999762 1.00081 0.997811
1.00028 1.00043 0.994693
1.0016 1.00125 0.990738
1.00052 0.999998 0.994692
1.00026 0.999996 0.994909
0.999831 1.00057 0.995099
1.00049 0.999938 0.994776
1.00007 1.00067 0.994723
1.00032 1.00002 0.994974
1.00199 1.00029 0.991718
1.00054 1.00001 0.997401
1.00075 1.00001 0.994442
1.00071 0.999898 0.994663
1.0021 1.00003 0.991756
1.00197 1.00012 0.991882
1.00048 1.00036 0.994438
1.00159 1.00101 0.991622
1.00452 1.00029 0.987376
1.00029 1.00037 0.997469
1.00036 1.00009 0.996231
1.00003 1.00059 0.996233
1.00027 1.00025 0.997536
1.00149 1.00139 0.990742
1.00065 0.999839 0.994605
1.00037 1.00033 0.994692
1.00225 1.00014 0.992137
0.999731 0.999901 0.998156
1.00193 1.00083 0.992076
1.00129 1.00168 0.990812
1.00374 1.00155 0.98673
0.999819 0.998659 0.998559
1.00054 1 0.997386
1.00044 1.00001 0.996138
1.00049 0.999989 0.997416
1.00017 1.00004 0.995013
1.00217 0.999997 0.991015
1.00036 0.999965 0.997698
1.00239 1.00008 0.991983
1.00023 0.999876 0.995036
1.00004 1.00007 0.99519
0.999691 1.00105 0.994896
1.00216 1.00011 0.991638
1.00039 1.00003 0.996181
1.00048 1.00002 0.994708
1.00006 1.00078 0.994611
1.00044 0.999882 0.994908
1.00221 0.99999 0.991643
1.00182 1.00076 0.991532
1.00211 1.00002 0.991786
1.0045 1.00033 0.987379
1.00047 1 0.997426
1.00067 1.00004 0.994537
1.00198 1 0.992573
1.0021 1.00006 0.991731
1.00207 0.999996 0.991846
1.00456 1.00002 0.987486
1.00457 1.00002 0.987339
1.00029 1.00005 0.994815
1.00113 1.00181 0.991529
1.00438 1.00066 0.987271
1.00522 1.00021 0.98551
1.00057 1.00012 0.997435
1.00018 1.00007 0.997701
1.00029 1.00043 0.997445
1.00142 1.00149 0.99074
1.00069 0.999969 0.997384
1.00045 1.00031 0.997454
1.00213 1.00009 0.990884
0.999892 0.999879 0.996761
1.0017 1.0009 0.990833
1.00118 1.00179 0.991611
1.0038 1.00144 0.98673
1.00002 0.999197 0.998175
0.999832 1.00089 0.994249
1.00233 0.999974 0.990728
1.00207 1.00033 0.990858
1.00461 1.00021 0.986571
1.00074 1.0019 0.993002
1.00418 1.00086 0.986688
1.00284 1.00304 0.986827
1.00488 1.00123 0.985065
0.999697 0.998143 0.998859
0.999709 0.998555 0.998686
1.00066 0.99999 0.997343
1.00058 0.999999 0.997379
1.00052 0.999993 0.997415
1.00038 1.00001 0.996201
1.00221 0.999984 0.991664
1.0005 0.999972 0.996129
1.00233 1.0001 0.991367
1.0005 0.999993 0.997426
1.00206 0.999923 0.991228
1.00233 1.00007 0.992116
1.00457 0.999629 0.987261
1.00238 1.00001 0.99203
1.00466 0.999847 0.986905
1.0005 1.00001 0.994732
1.00019 1.00002 0.994978
0.999645 1.00123 0.994786
1.00018 0.999842 0.99515
1.00233 0.999992 0.99153
1.00225 0.99993 0.991696
1.00204 1.00047 0.991451
1.00447 1.00036 0.987382
1.00051 0.999995 0.997425
1.00039 1.00004 0.994803
1.00212 0.999978 0.991475
1.00221 1.00004 0.991608
1.00012 1.00042 0.996175
1.00143 1.00161 0.991672
1.00218 0.999941 0.991743
1.00458 0.999988 0.987447
1.00434 1.00071 0.987275
1.00456 1.00011 0.987377
1.00521 1.00021 0.985535
1.00205 0.999959 0.991242
1.00201 1.00003 0.991862
1.0045 0.999596 0.987882
1.00456 0.999867 0.987504
1.00457 0.99993 0.9874
1.00523 0.999495 0.986476
0.999914 0.999936 0.997975
1.00523 0.999909 0.985805
1.00065 1.00246 0.990979
1.00388 1.00133 0.986699
1.00518 1.00061 0.985235
1.00521 0.9996 0.986101
0.99993 1.00214 0.99256
1.00046 1.00481 0.989108
1.00067 0.999997 0.997403
1.00041 1.0003 0.997449
1.00214 1.00008 0.990877
0.999996 0.999581 0.998069
1.00089 1.00211 0.99099
1.00167 1.00092 0.990852
1.00387 1.00134 0.986732
0.999894 0.999123 0.998321
0.999801 1.00079 0.994302
1.00234 1.00001 0.991408
1.00207 1.00036 0.991495
1.0046 1.00022 0.98656
1.00046 1.00202 0.991941
1.00418 1.00083 0.986694
1.00289 1.00297 0.986813
1.00494 1.00114 0.985022
1.0001 1.00163 0.993058
0.999812 0.999983 0.99516
1.0005 1.00407 0.990053
1.00467 1.00008 0.986628
1.00446 1.00046 0.986576
1.00523 1.00006 0.985669
1.0018 1.00429 0.987412
1.00503 1.00076 0.985215
1.00442 1.00217 0.985016
1.00511 1.00122 0.984661
0.999693 0.997774 0.999021
0.999657 0.998059 0.998928
0.99964 0.998417 0.998794
0.999865 1.00144 0.993432
0.999761 0.99949 0.998269
1.0007 0.999972 0.997359
1.0006 0.999999 0.997354
1.00222 1.00011 0.99077
1.00211 0.999985 0.991079
1.00049 0.999994 0.997412
1.00047 0.999993 0.997424
1.00205 0.999932 0.991223
1.00225 1.00006 0.991498
1.00456 0.999628 0.987262
1.00227 1.00004 0.990735
1.00465 0.999847 0.9869
1.00202 0.999929 0.991272
1.00453 0.999568 0.987387
1.00462 0.99972 0.98709
1.00523 0.998553 0.987295
1.00468 0.999967 0.986743
1.00525 0.999056 0.986744
1.00048 0.999993 0.997421
1.00011 1.00006 0.99507
1.00213 0.999974 0.990489
1.00232 1.00004 0.991482
0.999612 1.00082 0.997859
1.00181 1.00128 0.991814
1.0023 0.999912 0.991642
1.0046 0.999938 0.987407
1.00455 1.00018 0.987415
1.0043 1.00078 0.987279
1.0052 1.00021 0.98556
1.00203 0.999946 0.991244
1.00214 1.00003 0.991734
1.00453 0.99958 0.987564
1.00458 0.999925 0.987504
0.999989 1 0.997873
1.0009 1.00219 0.99167
1.00376 1.00161 0.98695
1.00458 0.99997 0.987371
1.00523 0.99932 0.98658
1.00514 1.0006 0.985257
1.00522 0.999953 0.985888
1.00521 0.999599 0.986128
1.00002 1.00215 0.992544
1.00057 1.00463 0.989123
1.00449 0.999602 0.987412
1.00453 0.999756 0.987693
1.00524 0.998826 0.987143
1.00522 0.998945 0.986911
1.00524 0.999529 0.986379
1.00522 0.998051 0.987773
1.00027 1.00246 0.991679
1.0052 0.998926 0.986804
1.00272 1.00309 0.986917
1.00506 1.00096 0.984907
1.00521 1.00047 0.985394
1.00518 0.998435 0.987426
1.00089 1.00488 0.98831
1.00033 1.00416 0.990024
1.00141 1.00471 0.98786
1.00225 0.999993 0.990802
0.999758 0.999009 0.998472
0.999778 1.00068 0.994355
1.00194 1.0004 0.990899
1.0046 1.00022 0.986547
1.00036 1.00212 0.991868
1.0029 1.00289 0.986798
1.00419 1.0008 0.986701
1.00497 1.00104 0.984979
1.00003 1.0016 0.993085
0.999819 0.999855 0.995202
1.0003 1.00417 0.990044
1.00466 1.00009 0.986613
1.00447 1.00045 0.986569
1.00523 1.00007 0.98565
1.00178 1.00433 0.987423
1.00509 1.00077 0.985164
1.00442 1.00211 0.985015
1.00515 1.00111 0.984659
0.999906 0.999266 0.99567
1.00109 1.00445 0.988526
1.00022 1.00295 0.99149
1.00087 1.00476 0.988745
1.00525 0.999713 0.986021
1.00518 1.00042 0.985352
1.0052 0.999242 0.986504
1.0032 1.00356 0.985811
1.00521 1.00035 0.985499
1.0049 1.00175 0.984498
1.00524 1.00087 0.984733
1.00027 1.00069 0.993638
1.00015 0.998515 0.995967
0.999751 0.997517 0.999081
0.99968 0.99773 0.999044
0.999629 0.997983 0.99898
0.999896 1.00069 0.994176
0.999703 0.998981 0.998504
0.999897 1.00149 0.993408
0.999867 0.99956 0.99816
1.00226 1.00007 0.990732
1.00218 1.00004 0.990906
1.00464 0.999847 0.986896
1.00455 0.999629 0.987262
1.00207 0.999943 0.991223
1.00051 0.99999 0.99742
1.00204 0.999929 0.991273
1.00452 0.999576 0.987388
1.00461 0.999726 0.987088
1.00523 0.998563 0.98729
1.00467 0.999976 0.986729
1.00525 0.999057 0.986729
1.00449 0.999576 0.987432
1.00522 0.998434 0.987443
1.00525 0.998774 0.987041
1.00524 0.996619 0.989253
1.00526 0.999365 0.986396
1.00521 0.997538 0.988326
1.00204 0.999938 0.991249
1.00226 1 0.991605
1.00455 0.999549 0.987247
1.0046 0.999975 0.987504
1.00008 1.00011 0.997764
1.00118 1.00201 0.992211
1.00374 1.00182 0.987198
1.00458 0.999998 0.987343
1.00523 0.99914 0.986685
1.00522 0.999998 0.985972
1.0051 1.00059 0.985279
1.00521 0.999595 0.986155
1.0001 1.00213 0.992529
1.00068 1.00459 0.989136
1.0045 0.999523 0.987413
1.00455 0.99974 0.987675
1.00524 0.998677 0.987322
1.00522 0.999128 0.986776
1.00036 1.0024 0.991664
1.00279 1.00304 0.986923
1.00502 1.00104 0.984959
1.00524 0.999639 0.986282
1.00522 0.997818 0.988035
1.00521 1.00041 0.985456
1.00521 0.998923 0.986822
1.00518 0.998373 0.987417
1.00098 1.00482 0.98831
1.00125 1.00463 0.987875
1.00039 1.00409 0.990028
1.00522 0.998659 0.987333
1.00524 0.998797 0.987213
1.00525 0.996933 0.988881
1.00519 0.99749 0.988373
1.00522 0.998124 0.987563
1.00517 0.996245 0.989527
1.00171 1.00426 0.987566
1.00517 0.997402 0.988248
1.0044 1.00205 0.985113
1.00519 1.00131 0.984394
1.00516 0.99974 0.9861
1.00513 0.997438 0.988398
1.00018 1.00344 0.991041
1.00198 1.00411 0.987263
1.00067 1.00508 0.988403
1.00238 1.00372 0.987396
1.00465 1.0001 0.986597
0.999828 0.999739 0.995243
0.999936 1.0016 0.993114
1.00014 1.0044 0.990038
1.00448 1.00044 0.986561
1.00524 1.00008 0.985632
1.00173 1.0043 0.987437
1.00446 1.00209 0.985013
1.00517 1.00079 0.985112
1.00517 1.00102 0.984655
0.999926 0.99917 0.995699
1.00096 1.00462 0.98854
1.00014 1.00303 0.991512
1.00072 1.00487 0.988718
1.00525 0.999723 0.986005
1.0052 1.00042 0.98533
1.0052 0.999241 0.986493
1.0032 1.00349 0.985839
1.00522 1.0004 0.985427
1.00498 1.00157 0.984507
1.00524 1.00084 0.984824
1.00007 0.998742 0.99589
1.00028 1.00181 0.992534
1.00186 1.00433 0.987413
1.00038 1.00462 0.989867
1.00153 1.00394 0.988477
1.00521 0.998684 0.987076
1.0052 0.999776 0.985931
1.00516 0.998301 0.987376
1.00408 1.00223 0.985449
1.00518 0.9999 0.985921
1.00464 1.00181 0.984458
1.00031 1.00076 0.993517
1.00032 1.00209 0.992223
1.00019 1.00074 0.993738
1.00026 1.00071 0.993635
1.00017 0.998347 0.996625
1.00014 0.998497 0.996278
0.999912 0.997318 0.997887
0.999758 0.997479 0.999083
0.999673 0.997676 0.999062
0.999828 1.00006 0.994921
0.999695 0.998535 0.998718
0.999905 1.00076 0.99415
0.999766 0.999087 0.998428
0.999942 1.00155 0.993384
0.999951 0.999629 0.998052
1.00466 0.999982 0.986715
1.0046 0.999729 0.987085
1.00525 0.999076 0.986713
1.00523 0.998572 0.987285
1.00451 0.999583 0.98739
1.00203 0.999927 0.991272
1.00449 0.999576 0.987434
1.00522 0.998437 0.987442
1.00525 0.99879 0.98703
1.00523 0.996468 0.989395
1.00525 0.999374 0.986382
1.00521 0.99755 0.988306
1.00522 0.998421 0.987458
1.00525 0.996177 0.989716
1.00522 0.996987 0.988899
1.00515 0.995288 0.990605
1.00522 0.99813 0.987682
1.00521 0.995811 0.989795
1.00451 0.999446 0.987415
1.00457 0.999737 0.987657
1.00524 0.998543 0.987502
1.00522 0.999313 0.986642
1.00048 1.00235 0.991653
1.00272 1.00308 0.98693
1.00497 1.00112 0.98501
1.00524 0.999751 0.986185
1.00521 0.997583 0.988296
1.00521 0.99892 0.986839
1.00521 1.00035 0.985517
1.00518 0.99831 0.987408
1.00109 1.00464 0.988308
1.00121 1.00459 0.987891
1.00046 1.00398 0.990033
1.00522 0.998583 0.987365
1.00524 0.998791 0.987206
1.00525 0.996666 0.989183
1.00519 0.997615 0.988248
1.0017 1.00431 0.987546
1.00443 1.00204 0.985119
1.00517 1.00137 0.984389
1.00522 0.998363 0.987337
1.00519 0.996032 0.989717
1.00517 0.999713 0.986033
1.00517 0.997421 0.988256
1.00514 0.997309 0.988515
1.00215 1.004 0.987244
1.00227 1.00377 0.987343
1.00023 1.00334 0.991039
1.00055 1.00507 0.988515
1.00526 0.996469 0.989391
1.0052 0.9972 0.988723
1.00518 0.995397 0.990415
1.00518 0.995477 0.990218
1.00517 0.996581 0.989074
1.00519 0.995427 0.990253
1.00338 1.00296 0.986062
1.00515 0.995986 0.989491
1.00506 1.00207 0.984053
1.00514 1.00124 0.984498
1.00516 0.999159 0.986435
1.00516 0.997195 0.988615
1.00013 1.00247 0.992032
1.00027 1.00497 0.98921
1.00306 1.00299 0.98652
1.00097 1.00504 0.988127
1.00274 1.00318 0.987355
0.999938 0.999089 0.995727
1.00525 0.999733 0.985989
1.00008 1.00307 0.991534
1.00082 1.00481 0.988552
1.00058 1.00493 0.98869
1.00522 1.00043 0.985308
1.00519 0.999239 0.986483
1.00334 1.00322 0.985866
1.00512 1.0014 0.984518
1.00522 1.00045 0.985357
1.00524 1.00083 0.984916
1.00008 0.998716 0.995906
1.00023 1.00185 0.992562
1.00188 1.00426 0.987421
1.00018 1.00463 0.989856
1.00132 1.00392 0.988499
1.00521 0.998678 0.987064
1.0052 0.999767 0.985919
1.00515 0.998272 0.98735
1.00417 1.00215 0.985481
1.00519 0.999937 0.98578
1.00489 1.00178 0.984449
1.00033 1.00108 0.99321
1.00025 1.00351 0.991098
1.00285 1.00267 0.987305
1.00051 1.00499 0.989376
1.0019 1.00264 0.989099
1.00517 0.997571 0.988129
1.00515 0.999015 0.98661
1.00516 0.997505 0.987775
1.00379 1.00162 0.986078
1.00493 1.00082 0.985008
1.00031 1.00075 0.993514
1.00032 1.00203 0.992183
1.00022 1.00219 0.992181
1.00038 1.00265 0.991715
1.00022 1.00222 0.99224
1.00011 1.00081 0.993796
1.00018 1.00074 0.993738
1.00017 0.99831 0.996662
1.00025 1.00073 0.993631
1.00017 0.998376 0.99663
1 0.997105 0.997917
1.00014 0.998498 0.996583
0.999871 0.997285 0.998493
0.999767 0.997423 0.999087
0.999866 0.999313 0.995616
0.999839 1.00012 0.99489
0.999665 0.998059 0.998931
0.999737 0.998609 0.998638
0.999909 1.00083 0.994124
0.99985 0.999142 0.998338
1.00525 0.999382 0.986369
1.00525 0.998791 0.98702
1.00522 0.997556 0.988286
1.00522 0.996332 0.989537
1.00521 0.998442 0.987441
1.00449 0.999577 0.987435
1.00522 0.998423 0.98746
1.00525 0.996155 0.989728
1.00521 0.996988 0.988892
1.00517 0.99515 0.990712
1.00522 0.998123 0.98766
1.0052 0.995778 0.989881
1.00526 0.996159 0.989725
1.00519 0.995175 0.99072
1.00517 0.995251 0.990533
1.00517 0.994928 0.990912
1.00519 0.996725 0.98899
1.00519 0.99511 0.990412
1.00522 0.998503 0.987397
1.00524 0.998795 0.987199
1.00525 0.996395 0.989486
1.00518 0.997736 0.988124
1.00172 1.00435 0.987527
1.00447 1.00202 0.985125
1.00512 1.00136 0.984385
1.00522 0.998603 0.98711
1.0052 0.995825 0.989907
1.00517 0.997441 0.988263
1.00518 0.9997 0.985968
1.00515 0.997178 0.988633
1.00213 1.004 0.987225
1.00199 1.00383 0.98729
1.00029 1.00332 0.991037
1.00044 1.00505 0.988628
1.00527 0.996476 0.989385
1.0052 0.99731 0.98859
1.00518 0.995207 0.990645
1.00519 0.995496 0.990184
1.00318 1.00335 0.986032
1.00491 1.00206 0.98407
1.00514 1.00119 0.984471
1.00517 0.996794 0.988867
1.00518 0.995279 0.990383
1.00514 0.999213 0.986406
1.00516 0.996007 0.989486
1.00515 0.996918 0.988776
1.00322 1.00286 0.986511
1.00266 1.00312 0.987423
1.00097 1.00504 0.988109
1.00014 1.00247 0.99197
1.00018 1.00488 0.989333
1.00518 0.994958 0.990938
1.00514 0.995266 0.990648
1.00522 0.994992 0.990528
1.00516 0.99538 0.990157
1.00424 1.00255 0.985085
1.00517 0.995671 0.989938
1.0051 1.00229 0.983578
1.00509 1.00104 0.984634
1.00512 0.998955 0.986563
1.00001 1.00154 0.992954
1.00009 1.0044 0.99028
1.00063 1.00505 0.988853
1.00367 1.00253 0.986274
1.00125 1.0049 0.987492
1.003 1.00246 0.986948
1.00008 0.998697 0.995923
1.00018 1.00187 0.992589
1.00521 0.998671 0.987053
0.999967 1.00463 0.989844
1.00173 1.0044 0.987431
1.00113 1.00386 0.988521
1.0052 0.999759 0.985906
1.00515 0.998244 0.987324
1.00421 1.00205 0.985513
1.00512 1.0018 0.984439
1.0052 0.999966 0.98564
1.0003 1.00106 0.99322
1.00009 1.00358 0.991106
1.00292 1.00269 0.987183
1.0003 1.00501 0.989349
1.0018 1.0024 0.989236
1.00517 0.997562 0.988111
1.00515 0.999025 0.986585
1.00516 0.997547 0.987809
1.00402 1.00158 0.9859
1.00496 1.00093 0.985017
1.00029 1.00246 0.991949
0.999746 1.00463 0.990352
1.00345 1.00079 0.987952
1.0005 1.00432 0.989616
1.00256 1.00087 0.98938
1.00516 0.996216 0.989189
1.00515 0.999026 0.986494
1.00515 0.997468 0.987707
1.00417 1.00122 0.985911
1.00486 1.00069 0.985236
1.00032 1.00073 0.993512
1.00031 1.00204 0.992208
1.00012 1.00264 0.991846
1.00015 1.00226 0.99214
1.00017 1.0023 0.992231
1.00021 1.00278 0.991689
1.00015 1.00283 0.991824
1.00011 1.00312 0.991368
1.00011 1.0024 0.992256
1.00005 1.00095 0.99377
1.00011 1.00082 0.993795
1.00014 0.998334 0.996687
1.00017 1.00073 0.993739
1.00017 0.998335 0.996665
1.00005 0.996989 0.997935
1.00018 0.998391 0.996637
0.99999 0.997079 0.997924
0.999824 0.997246 0.999113
0.999918 0.998754 0.996103
0.999853 0.999409 0.995575
0.999678 0.997696 0.999068
0.99985 1.00019 0.99486
0.999703 0.99818 0.998863
0.999785 0.998698 0.99857
1.00522 0.998116 0.987639
1.00521 0.996993 0.988885
1.00518 0.995749 0.989966
1.00519 0.994997 0.99082
1.00525 0.99613 0.98974
1.00522 0.998426 0.987462
1.00526 0.99627 0.989609
1.00519 0.995177 0.990738
1.00518 0.995214 0.990585
1.00516 0.994926 0.990897
1.00519 0.996733 0.988989
1.00519 0.995053 0.990479
1.00519 0.994949 0.99098
1.00515 0.994964 0.990939
1.00521 0.994934 0.990716
1.00519 0.995401 0.99013
1.00527 0.996484 0.989379
1.0052 0.997411 0.988458
1.00518 0.995012 0.990874
1.0052 0.995524 0.99015
1.00311 1.00359 0.986002
1.00484 1.00204 0.984089
1.00515 1.00118 0.984444
1.00516 0.997002 0.988659
1.00516 0.995095 0.990511
1.00517 0.996027 0.989481
1.00513 0.999254 0.986376
1.00515 0.996638 0.988935
1.00334 1.00277 0.986503
1.00265 1.00276 0.987489
1.00092 1.00505 0.98809
1.00017 1.00241 0.991911
1.00016 1.00478 0.989457
1.00519 0.994953 0.990932
1.00514 0.995349 0.990545
1.00522 0.994984 0.990533
1.00407 1.00277 0.985081
1.0049 1.0023 0.98363
1.00507 1.00098 0.984627
1.00516 0.99542 0.990122
1.00514 0.998684 0.986895
1.00515 0.995679 0.9898
1.00004 1.00138 0.993101
1.00378 1.00221 0.986202
1.00266 1.00212 0.987808
1.00142 1.00502 0.987469
1.00062 1.00506 0.988973
1.00009 1.00437 0.990207
1.00514 0.994938 0.990999
1.00518 0.994957 0.990698
1.00518 0.994923 0.990551
1.00514 0.995055 0.990518
1.00475 1.00234 0.984612
1.0051 0.996835 0.988626
1.0049 1.00266 0.983234
1.00499 1.00133 0.984401
1.00011 1.00039 0.993999
1.00002 1.00322 0.991583
1.00032 1.00493 0.989524
1.00115 1.00503 0.987902
1.00391 1.00241 0.985408
1.00267 1.00395 0.986293
1.00027 1.00105 0.993231
0.999965 1.00363 0.991115
1.00517 0.997553 0.988093
1.00007 1.00505 0.989322
1.00301 1.00271 0.987061
1.00145 1.00232 0.989377
1.00515 0.999035 0.98656
1.00516 0.997593 0.987842
1.00421 1.0016 0.985721
1.00504 1.00103 0.985025
1.00022 1.00251 0.991962
0.999871 1.00468 0.99023
1.0037 1.00077 0.987855
1.00027 1.00454 0.98965
1.00243 1.00061 0.98975
1.00516 0.996176 0.989356
1.00515 0.998971 0.986613
1.00515 0.997611 0.987677
1.00426 1.00139 0.985792
1.00491 1.00076 0.985056
0.99984 1.00323 0.991503
0.999756 1.00504 0.989652
1.0038 0.999908 0.987986
1.00148 1.00224 0.989131
1.00521 0.99514 0.990048
1.00513 0.996661 0.989063
1.00501 0.999662 0.985884
1.00454 1.00068 0.985459
1.00034 1.00201 0.992234
1.00017 1.00264 0.991851
0.999821 1.00306 0.992241
1.00011 1.0024 0.992222
1.00005 1.0029 0.991663
1.00008 1.00244 0.992246
1.00004 1.0028 0.991932
1.00014 1.00313 0.991389
1.00001 1.00222 0.992639
1.00006 1.00344 0.991275
1.00011 1.00347 0.991042
1.00008 1.00252 0.992172
0.999998 1.00111 0.993657
1.00004 1.00093 0.993768
1.0001 0.998386 0.996705
1.0001 1.0008 0.993795
1.00014 0.998365 0.996689
1.00007 0.996945 0.997948
1.00018 0.998361 0.996671
1.00004 0.996962 0.997941
0.999973 0.997061 0.997926
1.00002 0.998297 0.996405
0.999925 0.998805 0.996063
0.999729 0.997351 0.999153
0.999838 0.999507 0.995534
0.999696 0.997751 0.999032
0.999747 0.998262 0.998769
1.00519 0.99674 0.988989
1.00519 0.995178 0.990637
1.00519 0.994993 0.990546
1.00516 0.994925 0.990882
1.00519 0.995181 0.990755
1.00526 0.996369 0.989494
1.0052 0.99506 0.990851
1.00516 0.99496 0.990954
1.0052 0.994933 0.990713
1.0052 0.995325 0.990215
1.00515 0.99497 0.991016
1.00521 0.994934 0.990784
1.00523 0.994928 0.990547
1.00519 0.99495 0.990926
1.00514 0.995426 0.990443
1.00521 0.994991 0.990539
1.00386 1.00299 0.985077
1.00484 1.00233 0.983675
1.00508 1.00092 0.984618
1.00516 0.995476 0.990089
1.00513 0.995656 0.989661
1.00514 0.998401 0.987227
1.00387 1.00202 0.986125
1.00231 1.002 0.988663
1.00171 1.00504 0.987446
1.00007 1.00126 0.993249
1.00044 1.00506 0.989092
1.00007 1.00436 0.990132
1.00514 0.994935 0.991008
1.00518 0.994936 0.990699
1.00518 0.994937 0.990564
1.00441 1.00263 0.984613
1.00486 1.00264 0.983182
1.00499 1.00111 0.984731
1.00514 0.995012 0.990465
1.00509 0.996811 0.988557
1.0001 1.00034 0.994173
1.00003 1.0032 0.991585
1.00359 1.00221 0.985822
1.00249 1.00396 0.986936
1.00104 1.00503 0.988156
1.00026 1.00495 0.989502
1.00518 0.994927 0.990854
1.0052 0.994911 0.990507
1.00515 0.994895 0.990617
1.00508 0.995032 0.990283
1.00478 1.00308 0.982929
1.00485 1.0001 0.985805
1.00482 1.0032 0.983037
1.00022 0.999851 0.994575
1.00025 1.00098 0.993454
1.00005 1.00182 0.992784
1.00003 1.00428 0.990463
1.00045 1.005 0.988851
1.00085 1.00465 0.987959
1.0034 1.00226 0.985974
1.00261 1.00396 0.987646
1.00014 1.00259 0.991974
0.999987 1.00476 0.990107
1.00517 0.996129 0.989524
1.00033 1.00456 0.989681
1.00396 1.00078 0.98776
1.00226 1.00041 0.990115
1.00514 0.998898 0.986735
1.00514 0.997735 0.987651
1.00438 1.00152 0.985677
1.00494 1.00081 0.984876
0.999898 1.00335 0.991382
0.999906 1.00504 0.989691
1.00403 0.999931 0.988051
1.00176 1.0024 0.989238
1.00521 0.995108 0.990145
1.00513 0.996654 0.988895
1.00502 0.999598 0.985926
1.00477 1.00073 0.985295
0.999717 1.00392 0.991065
1.00525 0.994891 0.990318
1.00118 1.00456 0.988803
1.00385 1.0004 0.987601
1.00518 0.995574 0.990116
1.00509 0.998361 0.986125
1.00485 1.00141 0.984769
1.00018 1.00268 0.991856
0.999775 1.00301 0.99219
0.999435 1.00281 0.993191
1.00008 1.00242 0.992237
1.00016 1.00313 0.991411
0.999731 1.00298 0.992039
1.00006 1.00254 0.992158
1.00003 1.00352 0.991076
0.9997 1.00239 0.992778
1.00017 1.00331 0.991273
0.999952 1.00158 0.993682
0.999859 1.00292 0.992129
1.00013 1.00423 0.990356
1.00029 1.00355 0.99074
1.00007 1.00277 0.991928
0.999956 1.00134 0.993504
0.999976 1.00117 0.993647
1.00005 0.998518 0.996685
1.00003 1.00097 0.993765
1.0001 0.998434 0.996701
1.00005 0.996938 0.99797
1.00015 0.998397 0.996692
1.00007 0.996918 0.997951
1.00004 0.996938 0.997943
1.0002 0.999906 0.994593
1.00009 0.998036 0.996555
1.00002 0.998336 0.996385
0.999818 0.997047 0.999205
0.999927 0.998867 0.996023
0.999739 0.997433 0.999131
0.999722 0.997837 0.998999
1.0052 0.99525 0.990299
1.00519 0.994932 0.990709
1.00516 0.994956 0.990969
1.0052 0.995184 0.990722
1.00515 0.994968 0.991001
1.00521 0.994938 0.990797
1.00522 0.994927 0.990511
1.00519 0.994946 0.990856
1.00526 0.994938 0.990599
1.00528 0.994927 0.991006
1.00513 0.994932 0.991018
1.00518 0.994918 0.990699
1.00518 0.994935 0.990578
1.00397 1.00286 0.984618
1.00498 1.00266 0.983139
1.00493 1.00093 0.985059
1.00514 0.994967 0.990414
1.00509 0.99684 0.988489
1.00339 1.00212 0.986243
1.00234 1.00404 0.987578
1.00077 1.00505 0.98841
1.00009 1.00024 0.994346
1.00011 1.00314 0.991588
1.00024 1.00502 0.989477
1.00518 0.99493 0.990836
1.00019 0.999881 0.994569
1.0002 1.00103 0.993369
1.0052 0.994909 0.990525
1.00513 0.994891 0.990621
1.00469 1.0032 0.983137
1.00481 1.00301 0.983154
1.00486 0.999946 0.985731
1.00508 0.995183 0.990209
1.00006 1.0018 0.99297
1.00009 1.00424 0.990432
1.00369 1.00282 0.985559
1.00191 1.00384 0.988201
1.00096 1.00469 0.988191
1.00043 1.00503 0.988957
1.00524 0.994931 0.990571
1.0052 0.994809 0.990556
1.0051 0.9949 0.990302
1.00473 0.995633 0.990031
1.00418 1.00381 0.983391
1.00427 1.0035 0.983827
1.00009 1.00135 0.993134
1.00023 1.00099 0.993463
1.00051 1.00133 0.992821
1.00024 1.00286 0.991419
1.00009 1.00485 0.989897
1.00149 1.00431 0.988194
1.00008 1.00507 0.988596
1.00269 1.00118 0.987896
0.999961 1.00343 0.991261
1.00013 1.00503 0.989732
1.0052 0.99508 0.990242
1.00513 0.996674 0.988729
1.00203 1.00256 0.989345
1.00424 0.999922 0.988114
1.00504 0.99956 0.985967
1.00503 1.0008 0.985131
0.999874 1.0039 0.991007
1.00525 0.994893 0.990469
1.00097 1.00451 0.988837
1.00406 1.00046 0.987253
1.00518 0.995462 0.990124
1.00508 0.998496 0.986396
1.00482 1.00135 0.984805
1 1.00467 0.990396
1.00456 0.994932 0.991498
1.00258 1.00285 0.988123
1.00431 1.00138 0.986005
1.00488 0.99673 0.989279
1.00368 1.00152 0.985632
0.998501 0.997747 0.989438
0.999677 1.00304 0.992142
0.999214 1.00296 0.993167
0.999659 1.00266 0.993297
1.00002 1.00259 0.992144
1.00001 1.00356 0.991109
1.00035 1.00312 0.991272
0.999515 1.00241 0.992917
1.00006 1.00277 0.991931
1.00023 1.00365 0.990724
0.999884 1.0016 0.993585
1.00011 1.00426 0.99037
1.00002 1.00284 0.991977
0.999765 1.00211 0.993324
1.00032 1.00451 0.989846
1.00019 1.00442 0.990172
1.0004 1.00378 0.990347
1.0001 1.00296 0.991539
1.00023 1.00362 0.990999
1.00011 1.00301 0.991411
0.999957 1.00136 0.993459
0.999964 1.00133 0.993496
1.00001 0.998636 0.996074
0.999987 1.00115 0.993637
1.00005 0.998573 0.996376
1.00002 0.996993 0.999129
1.0001 0.998478 0.996698
1.00006 0.996902 0.997974
1.00007 0.996892 0.99795
1.00013 0.999907 0.99465
1.00021 0.999839 0.994605
1.0001 0.997934 0.99666
1.00007 0.998046 0.996813
0.999891 0.996869 0.999237
1.00001 0.998373 0.996364
0.99981 0.997129 0.999193
0.999749 0.997478 0.99911
1.00522 0.994925 0.990476
1.0052 0.994941 0.99081
1.00515 0.994967 0.990986
1.00519 0.994948 0.990858
1.00525 0.994937 0.990605
1.00528 0.994936 0.990627
1.00529 0.994935 0.990596
1.00114 0.994873 0.985389
1.00446 0.994882 0.992999
1.00002 1.00135 0.993404
1.00518 0.994934 0.990819
1.0052 0.994907 0.990543
1.00513 0.994884 0.990626
1.00428 1.00324 0.983337
1.0049 1.00291 0.983271
1.00491 0.999859 0.985662
1.00508 0.995339 0.990132
1.00426 1.00287 0.985145
1.00113 1.00373 0.988759
1.00111 1.00474 0.988425
1.00016 0.999949 0.994565
1.00046 1.00504 0.989064
1.00004 1.00177 0.993151
1.00021 1.00417 0.990403
1.0002 1.001 0.993283
1.00524 0.994917 0.99057
1.00011 1.0013 0.993238
1.00017 1.00108 0.993462
1.00044 1.00134 0.992821
1.0052 0.994835 0.990528
1.00511 0.994897 0.99033
1.0042 1.00379 0.983444
1.00434 1.0027 0.984444
1.00466 0.996174 0.989918
1.00004 1.00299 0.991569
1.00024 1.00474 0.98974
1.00262 1.00227 0.98763
1.00065 1.00486 0.988597
1.0013 1.00418 0.988332
1.00523 0.994928 0.990701
1.00513 0.99477 0.990748
1.00506 0.995357 0.98989
1.00446 0.998093 0.98917
1.00218 1.00375 0.987281
1.00004 1.00234 0.992236
1.00052 1.00144 0.992343
1.00005 1.00217 0.992247
0.999966 1.00437 0.991087
1.00017 1.00472 0.989695
1.00031 1.00459 0.989004
1.0011 1.0028 0.989149
1.00011 1.00384 0.990947
1.00065 1.00449 0.988868
1.00526 0.994885 0.990611
1.0052 0.995391 0.990128
1.00508 0.998662 0.986668
1.00421 1.00049 0.986905
1.00478 1.00122 0.984843
1.00017 1.00455 0.990479
1.00453 0.995049 0.991629
1.0025 1.00276 0.987965
1.00423 1.00141 0.985901
1.005 0.996117 0.989545
1.00388 1.00171 0.985652
0.998512 0.997816 0.987247
1.00037 1.00427 0.990139
1.00254 0.998687 0.991339
1.00261 1.00192 0.988158
1.00255 1.00161 0.987579
1.00348 0.997683 0.98979
1.00003 0.99492 0.951139
0.996964 0.994872 0.969877
0.996226 1.00136 0.988953
0.9998 0.995756 0.887338
0.994753 0.994886 0.858552
0.999019 1.00313 0.993146
0.999126 1.00302 0.993492
0.999492 1.00301 0.993107
1.00004 1.00278 0.991933
1.00031 1.00352 0.990707
1.0001 1.00428 0.990385
1.00018 1.00274 0.991822
0.999776 1.00161 0.993489
1.00024 1.00435 0.990113
1.0001 1.00294 0.991614
1.00037 1.00377 0.990386
0.999853 1.0019 0.993152
1.00021 1.00446 0.990046
1.00023 1.00476 0.990017
0.99964 1.00442 0.990796
1.00022 1.00456 0.989914
1.00036 1.00372 0.990406
1.00017 1.00292 0.991447
1.0003 1.00386 0.990502
1.00013 1.00393 0.990803
1.00005 1.00357 0.991155
1.00019 1.00368 0.99091
1.00017 1.00278 0.991767
1.00013 1.00302 0.991405
1.00001 1.00129 0.993467
0.999972 1.00136 0.99346
1 0.998705 0.996052
0.999952 1.00136 0.993489
1.00001 0.998656 0.99607
1 0.996984 0.999136
1.00004 0.998634 0.996067
1.00003 0.996985 0.998539
1.00007 0.996867 0.997975
1.00005 0.999937 0.994753
1.00015 0.999899 0.994654
1.00011 0.997843 0.99675
1.00022 0.999784 0.994618
1.0001 0.997884 0.996918
0.999939 0.996701 0.999268
1.00008 0.998092 0.996531
0.99988 0.99694 0.999223
0.999807 0.997192 0.99918
1.00524 0.994936 0.990611
1.00519 0.994951 0.99086
1.00528 0.994945 0.990253
1.00084 0.994926 0.985516
1.00528 0.994932 0.990596
1.00432 0.995223 0.992597
1.00506 0.996258 0.991176
0.996456 0.9949 0.969059
1.00045 0.996816 0.987548
1.00005 1.00134 0.993389
1.00009 1.0013 0.99339
0.999969 1.0024 0.992429
0.99995 1.00223 0.992638
1.00524 0.994912 0.990568
1.0052 0.994864 0.990501
1.00512 0.994895 0.990358
1.00481 1.00361 0.983492
1.00424 1.00147 0.985054
1.00459 0.996704 0.9898
1.00225 1.00361 0.987369
1.00139 1.00464 0.988597
1.00113 1.00393 0.988469
1.0001 1.00122 0.99346
1.00027 1.00474 0.98958
1.00005 1.00306 0.991721
1.00011 1.0013 0.993343
1.00032 1.00138 0.992815
1.00524 0.994918 0.990707
1.0001 1.00235 0.992293
1.00053 1.00144 0.992523
0.999691 1.0021 0.992964
1.00513 0.994788 0.990645
1.00495 0.995411 0.989909
1.00283 1.0029 0.987204
1.00412 0.99772 0.989634
1.00009 1.00407 0.990866
1.00031 1.00486 0.989203
1.00127 1.00362 0.989015
1.00113 1.00431 0.9888
1.00449 0.99486 0.99167
1.00504 0.995406 0.990616
1.00499 0.99608 0.989673
1.00216 0.999309 0.991726
0.999706 1.00339 0.991803
1.00027 1.00255 0.991626
0.999065 1.00462 0.991621
0.999409 1.00492 0.990149
0.999997 0.994908 0.941589
1.00026 1.00441 0.990562
1.00235 1.0028 0.987806
1.00448 0.99496 0.991769
1.00508 0.995633 0.989808
1.00399 1.00179 0.98566
1.0041 1.00155 0.98579
0.998626 0.99758 0.984984
1.00025 1.00437 0.990355
1.00259 0.998037 0.991367
1.00255 1.00206 0.988178
1.00316 1.00118 0.987556
1.00378 0.997721 0.989684
1.00097 0.994916 0.940328
0.996906 0.994877 0.965545
0.996321 1.00201 0.988852
0.999775 0.994827 0.891148
0.994734 0.994928 0.847526
1.0001 1.00384 0.991129
0.999805 0.994864 0.898019
0.99468 0.994873 0.856646
1.00131 1.00004 0.991385
1.00135 1.00184 0.990104
1.00174 1.00058 0.990423
0.996055 1.00219 0.9896
1.00064 0.996101 0.947046
0.994897 0.995373 0.96313
0.997246 0.998069 0.899051
0.994794 0.994851 0.850898
0.998739 1.00329 0.993684
0.999297 1.00306 0.992995
0.999399 1.00345 0.992913
1.00013 1.00289 0.991687
1.00037 1.00381 0.990425
0.999984 1.00458 0.990057
1.00009 1.00443 0.990247
0.999988 1.00166 0.992978
1.00016 1.00294 0.99145
1.00003 1.00489 0.989997
1.00022 1.00458 0.989905
1.00043 1.00363 0.990465
0.999612 1.00438 0.990945
0.999789 1.00499 0.990475
0.998759 1.005 0.991542
1.00037 1.00409 0.990142
1.00037 1.00373 0.990526
1.00033 1.00383 0.990491
1.00006 1.00393 0.990886
1.00037 1.00407 0.990159
0.999963 1.00393 0.990985
0.999513 1.00411 0.991093
0.999739 1.00468 0.990475
0.999927 1.00381 0.991111
1.0001 1.00352 0.991158
1.00011 1.00267 0.991956
1.00015 1.00371 0.990821
1.00018 1.00277 0.991695
1.00008 1.00126 0.993408
1.00017 1.00301 0.991398
0.999993 1.00131 0.993471
1.00006 0.998633 0.996631
0.999954 1.00138 0.99346
1.00001 0.998663 0.996355
1.00003 0.997001 0.997947
1 0.998671 0.996066
1 0.997 0.999137
1.00005 0.996994 0.997948
1.0001 1.00139 0.993222
0.999994 0.99998 0.994796
1.00006 0.999923 0.994756
1.0001 0.997821 0.996784
1.00016 0.999867 0.994658
1.00012 0.9978 0.996752
0.999978 0.996605 0.999285
1.00009 0.997877 0.997153
0.999956 0.996795 0.998749
0.999924 0.997 0.998179
1.00048 0.995188 0.98566
1.00527 0.994934 0.990598
1.00407 0.996005 0.992187
0.996666 0.994895 0.970122
1.00042 0.996512 0.987873
1.00508 0.995793 0.991054
1.00304 0.997323 0.987971
0.996525 0.996698 0.973048
1.00003 0.995051 0.948279
0.999526 0.997037 0.902262
0.994689 0.994805 0.856574
0.999891 1.00231 0.992532
1.00008 1.00131 0.993384
1.00016 1.00122 0.993377
0.999988 1.00239 0.992428
0.999706 1.00333 0.991954
1.00028 1.00234 0.991926
1.00003 1.00274 0.992195
0.999985 1.00227 0.992516
1.00525 0.99487 0.990709
1.00514 0.994799 0.990542
1.00484 0.995298 0.989929
1.00298 1.00251 0.987137
1.00382 0.997594 0.990105
1.00147 1.00444 0.988875
1.00184 1.00413 0.988597
1.00061 1.00501 0.988715
1.00037 1.00146 0.992706
1.00007 1.00411 0.990643
1.00017 1.00237 0.992354
0.999503 1.00202 0.993677
1.00451 0.994811 0.991838
0.999719 1.0034 0.991866
1.00022 1.00272 0.991854
1.00492 0.995187 0.990582
1.0048 0.99562 0.989828
1.00208 0.999299 0.991331
0.999612 1.00495 0.990868
1.0002 1.00453 0.990249
1.00325 0.995031 0.992011
1.00438 0.996865 0.990666
1.0047 0.995138 0.991025
1.00127 0.999272 0.992761
0.999904 1.0045 0.990452
0.999475 1.00418 0.991387
0.999403 1.00521 0.991037
0.999832 0.994854 0.89962
1.00039 0.994926 0.952359
1.00019 1.00444 0.990573
1.00257 1.00205 0.988203
1.00253 0.997524 0.991402
1.00415 0.997863 0.989582
1.00387 1.00076 0.987549
1.00001 0.994929 0.949705
0.997155 0.994889 0.964789
0.99641 1.00255 0.988704
0.999634 0.996036 0.903229
0.99473 0.995156 0.836054
1.00014 1.00361 0.991077
0.999837 0.995127 0.8972
0.994692 0.994987 0.850769
1.00135 1.00005 0.991439
1.00152 1.00169 0.990165
1.00187 1.00039 0.990959
0.996161 1.0025 0.990243
1.00171 0.996122 0.940061
0.994913 0.99495 0.966828
0.99825 0.998553 0.898519
0.994799 0.994817 0.849557
0.999635 1.00349 0.992681
0.994687 0.995214 0.852652
0.994812 0.994792 0.86714
0.998928 1.0016 0.994331
0.999643 1.00246 0.993677
0.995448 1.00239 0.98966
0.994876 0.997116 0.966498
0.997418 0.998415 0.937007
0.99471 0.999731 0.90368
0.994824 0.994803 0.852682
0.999245 1.00302 0.992888
0.999587 1.00318 0.992725
0.998306 1.00417 0.993078
1.00016 1.00294 0.991453
1.00046 1.00357 0.990525
1.00023 1.00457 0.989895
0.999906 1.00499 0.989977
0.999463 1.00446 0.991095
1.00036 1.00374 0.990526
0.999812 1.00488 0.990347
1.00039 1.00405 0.990162
0.998493 1.00504 0.991816
0.99676 1.00513 0.994377
0.999808 1.00442 0.990918
1.00054 1.00418 0.989868
1.00036 1.00381 0.990479
1.00008 1.00383 0.990968
1.00036 1.00416 0.990111
1.00002 1.00389 0.990936
0.999427 1.00399 0.991572
0.999729 1.00444 0.990759
0.999684 1.00445 0.990666
0.999299 1.00392 0.991684
1.00035 1.00255 0.991665
1.00063 1.00373 0.98933
0.999581 1.00473 0.990513
0.999841 1.00461 0.990484
0.999786 1.00429 0.990842
0.999947 1.00383 0.991101
1.00002 1.00279 0.991938
1.00009 1.00357 0.991161
1.00012 1.00266 0.991964
1.00015 1.00113 0.993361
1.00018 1.00278 0.991623
1.00007 1.00123 0.993421
1.00011 0.998619 0.996552
0.999995 1.00131 0.993475
1.00006 0.998608 0.996317
1.00005 0.996928 0.997936
1.00002 0.998635 0.99606
1.00001 0.997002 0.999133
1 0.996995 0.999137
1.00013 1.00167 0.993179
0.99998 1.00011 0.994703
1.00009 1.00145 0.993229
1.0001 0.997823 0.996781
0.999995 0.999986 0.994798
1.00006 0.99993 0.994758
1.0001 0.997809 0.99678
1.00001 0.996545 0.999288
1.0001 0.997773 0.99723
0.999996 0.996613 0.998793
0.999977 0.996806 0.99826
0.999831 0.995166 0.888436
0.994698 0.995025 0.85306
0.998027 0.994887 0.969927
1.00047 0.995448 0.988221
1.00513 0.995037 0.990932
0.996162 0.995829 0.973854
1.00336 0.996233 0.988366
1.00117 0.995427 0.9466
0.999809 0.995797 0.890052
0.994718 0.995032 0.845601
0.998588 0.994866 0.977777
1.00001 0.996646 0.947653
0.997913 0.998337 0.896698
0.994788 0.994766 0.851694
1.00007 1.00327 0.991513
0.999899 1.00224 0.992628
1.00011 1.00127 0.993379
0.999971 1.00238 0.992427
0.999714 1.00315 0.992126
1.00003 1.00355 0.991251
1.00021 1.00273 0.991805
1.00029 1.00318 0.99107
1.00006 1.00267 0.992088
0.999977 1.00237 0.992394
1.00455 0.994803 0.992001
1.00487 0.994982 0.990559
1.00448 0.995329 0.98998
1.00186 0.999391 0.990937
1.00073 1.00452 0.990351
0.999747 1.00514 0.990116
1.00025 1.00261 0.992088
0.9997 1.00346 0.991927
1.00311 0.99525 0.992309
0.999893 1.00462 0.990315
0.999346 1.0043 0.99131
1.00449 0.996197 0.990607
1.00459 0.995246 0.990716
1.00112 0.999279 0.992901
0.999523 1.00517 0.990973
1.00059 0.996379 0.992509
1.00274 0.99656 0.993717
1.00021 1.00133 0.993093
0.999237 1.00472 0.990225
0.999521 1.00497 0.990262
0.999255 1.00509 0.99108
0.994744 0.995588 0.870925
0.999833 0.994878 0.903476
0.999987 0.994915 0.941943
0.999973 1.00361 0.991019
1.00164 1.00161 0.990219
1.0014 1.00005 0.991491
1.00202 1.00011 0.991489
0.999826 0.994854 0.9059
1 0.995965 0.939517
0.994884 0.994853 0.963346
0.996236 1.00227 0.990863
0.997276 0.998196 0.886824
0.9947 0.994968 0.853818
0.994765 0.994769 0.857527
0.999374 1.00327 0.992584
0.994687 0.99507 0.860311
0.994814 0.994829 0.866739
0.998783 1.00141 0.994502
0.999382 1.00213 0.993676
0.995422 0.999522 0.992396
0.994882 0.996966 0.965421
0.997422 0.999588 0.947367
0.996571 0.99991 0.890678
0.994802 0.994792 0.861052
0.9975 1.00336 0.995839
0.994804 0.995318 0.875369
0.994781 0.994776 0.86768
0.995468 1.00211 0.999737
0.994813 0.999187 0.973001
0.994895 0.999952 0.948137
0.994914 0.998863 0.885647
0.994881 0.994827 0.86064
0.999767 1.0028 0.992532
0.9986 1.0041 0.99338
0.996999 1.00491 0.995191
1.00031 1.00381 0.990526
1.00045 1.00397 0.990181
0.999882 1.0047 0.990219
0.998218 1.00509 0.992099
1.00044 1.00425 0.989874
0.999763 1.00443 0.990866
0.996911 1.00513 0.994822
0.995167 1.00529 0.99727
0.997317 1.00496 0.994591
1.00028 1.00409 0.990382
1.00037 1.00424 0.990062
1.00005 1.00387 0.990886
0.99927 1.00393 0.992043
0.999717 1.00437 0.990756
0.999774 1.00441 0.990785
0.999313 1.00418 0.99174
0.999928 1.0037 0.991475
0.997923 1.00448 0.993444
1.00172 0.999129 0.992364
1.00035 1.0024 0.991814
1.00079 1.00286 0.990275
1.00269 1.00366 0.986559
1.00011 1.00455 0.990539
1.00039 1.00391 0.989807
0.999788 1.00463 0.990501
0.999642 1.00453 0.990614
0.999937 1.00452 0.990493
0.999909 1.00415 0.990847
1 1.00315 0.991622
1.00007 1.00373 0.991092
1.0001 1.00273 0.991932
1.00019 1.00113 0.993306
1.00017 1.00259 0.991972
1.00017 1.00114 0.993368
1.00016 0.998617 0.996481
1.00008 1.00121 0.993434
1.00012 0.99861 0.996227
1.00005 0.99701 0.99786
1.00008 0.998592 0.996016
1.00003 0.996956 0.998535
1.00001 0.996982 0.999132
1.00017 1.00216 0.992395
1.00004 1.00024 0.9945
1.0001 1.00169 0.993001
1.00009 0.997887 0.996719
0.999988 1.00009 0.994705
1.00006 1.00149 0.993235
1.00003 0.996522 0.999285
1.00009 0.997824 0.996781
0.999998 0.999983 0.9948
1.0001 0.997795 0.996776
1 0.996567 0.999287
0.999978 0.996599 0.999285
0.994673 0.994809 0.858012
0.999856 0.99522 0.896487
0.994787 0.995119 0.865263
0.994694 0.994955 0.850923
0.9959 0.99561 0.971339
1.00346 0.995861 0.988796
1.00006 0.995677 0.944438
0.999822 0.996262 0.90277
0.994747 0.995662 0.834324
0.998264 0.995538 0.977044
1.00154 0.996637 0.935902
0.998139 0.998922 0.897174
0.994803 0.995141 0.846106
0.995459 0.995477 0.97134
0.997543 0.998488 0.937187
0.995264 0.999681 0.88525
0.994818 0.994809 0.848282
1.00013 1.00411 0.990841
1.00003 1.0031 0.991643
0.999892 1.00225 0.992722
0.999719 1.003 0.992299
1.00044 1.00397 0.990038
0.999974 1.00347 0.991398
1.00002 1.00303 0.991685
1.00057 1.003 0.990993
1.00034 1.00322 0.991149
1.00009 1.00257 0.991981
1.00305 0.994829 0.992598
1.00456 0.995463 0.990563
1.00463 0.995428 0.990407
1.00112 0.998964 0.993054
1.00001 1.00485 0.990909
0.999453 1.00444 0.991238
0.999831 1.00476 0.990178
0.999941 1.00491 0.989978
1.00038 0.996097 0.992811
0.99985 1.00492 0.990149
0.999557 1.00508 0.991054
1.00288 0.996085 0.993822
1.00087 1.00034 0.992938
0.998055 0.996942 0.993415
0.998119 0.999312 0.999378
0.998548 1.00351 0.993194
0.999992 1.00467 0.990188
0.999249 1.00495 0.991263
0.994845 0.995593 0.879947
0.994739 0.995473 0.868003
0.999815 0.994861 0.891434
0.999196 1.00302 0.992494
0.999149 1.00169 0.99366
0.998767 1.00128 0.994686
0.994688 0.994819 0.86021
0.997393 0.998328 0.938166
0.994846 0.996857 0.965723
0.995713 0.997594 0.995361
0.994778 0.999727 0.904454
0.994828 0.994909 0.8665
0.994816 0.994801 0.861352
0.997526 1.00316 0.996228
0.994816 0.995026 0.878115
0.994781 0.994775 0.867848
0.995586 1.0022 0.998701
0.994851 0.998862 0.974636
0.995823 0.999648 0.937816
0.994873 0.994823 0.859438
0.99488 0.999878 0.893274
0.995528 1.00493 0.998472
0.994754 0.994806 0.88364
0.994838 0.994785 0.871262
0.994801 0.994804 0.848993
0.99502 0.999948 0.99192
0.994945 0.999354 0.951578
0.995047 0.999279 0.895991
0.999038 1.00409 0.993677
0.997571 1.00507 0.994295
0.995124 1.00514 0.998396
1.0004 1.00426 0.989879
0.999659 1.00448 0.990811
0.996875 1.00496 0.995254
1.0001 1.00423 0.990361
0.997417 1.0048 0.994607
0.995355 1.00529 0.99716
0.995148 1.00526 0.998133
0.997445 1.0047 0.994285
0.999715 1.00438 0.990851
0.999826 1.00437 0.990812
0.999364 1.00438 0.991806
0.998235 1.00459 0.993302
0.999782 1.00369 0.991398
0.999491 1.00255 0.993208
1.00066 0.999654 0.993726
1.00158 1.00146 0.989645
1.00035 1.00226 0.991965
1.00134 1.00286 0.989885
1.00349 1.0025 0.986161
1.00372 1.00253 0.985664
1.00068 1.00457 0.989253
1.00231 1.00352 0.986741
0.999954 1.00485 0.990158
0.99995 1.0046 0.990519
1.0001 1.00407 0.990284
0.999986 1.00454 0.990488
0.999705 1.00445 0.990672
1.00004 1.00349 0.991219
1.00001 1.00402 0.990852
1.00008 1.00307 0.991627
1.00019 1.00135 0.993099
1.00014 1.00271 0.991926
1.00021 1.00112 0.993299
1.00015 0.998615 0.996473
1.00018 1.00112 0.993375
1.00016 0.9986 0.996165
1.00004 0.99709 0.997828
1.00014 0.99857 0.995926
1.00003 0.997011 0.99849
1.00001 0.996983 0.999117
1.00035 1.0023 0.991759
1.0001 1.00056 0.993851
1.0002 1.00213 0.992393
1.00012 0.997976 0.996583
1.00004 1.00025 0.994355
1.0001 1.00168 0.992827
1.00003 0.996576 0.999267
1.0001 0.997872 0.996725
0.999991 1.00007 0.994708
1.00002 0.996539 0.999286
1.00008 0.997827 0.996781
1 0.99656 0.999288
0.994839 0.994809 0.873473
0.994681 0.995075 0.866114
0.999842 0.995149 0.89683
1.0007 1.00303 0.99063
0.994778 0.994794 0.874303
0.994799 0.994918 0.865132
0.994695 0.994784 0.858133
0.99853 0.995873 0.975892
0.999683 0.997008 0.946473
0.997794 0.998174 0.884721
0.994794 0.995217 0.850225
0.99661 0.995073 0.967896
0.997429 0.99908 0.946616
0.996357 0.999893 0.889288
0.99481 0.994808 0.852274
0.994887 0.99524 0.963493
0.995143 0.999697 0.94616
0.994867 0.99998 0.894675
0.994888 0.994831 0.860335
1.0001 1.00463 0.990082
1.00009 1.00414 0.990641
1.00009 1.00296 0.991772
1.0005 1.00368 0.990274
1.00033 1.00404 0.990259
1 1.00343 0.991543
1.00061 1.00301 0.991003
1.00034 1.00325 0.991224
0.999795 0.996991 0.993015
1.00308 0.995634 0.99388
1.00012 1.00502 0.98973
1.00135 0.9999 0.992779
0.999822 1.0051 0.991026
1 1.00501 0.990035
0.999864 1.00469 0.990152
0.997236 0.997152 0.994094
0.999464 1.0047 0.991412
0.999102 1.00332 0.993279
0.997971 0.999102 0.999469
0.999993 1.00463 0.990492
0.996016 0.999741 0.991402
0.99513 1.00334 1.00024
0.997379 1.00502 0.993773
0.99948 1.00438 0.991684
0.994757 0.99478 0.889119
0.99485 0.995464 0.879233
0.994734 0.995414 0.865058
0.997493 1.00315 0.996642
0.995392 1.00188 0.997658
0.994809 0.994818 0.880749
0.994887 0.99996 0.948185
0.994861 0.998505 0.971929
0.994829 0.999945 0.892702
0.994783 0.994774 0.867951
0.994859 0.994823 0.858244
0.9958 1.00481 0.998121
0.994761 0.994811 0.883441
0.99483 0.994783 0.874518
0.994874 1.0007 0.995362
0.994795 0.994811 0.85277
0.994921 0.998549 0.945454
0.995003 0.999536 0.899922
0.994941 1.00408 0.998323
0.994781 0.994823 0.887604
0.99474 0.994803 0.87492
0.994784 0.994911 0.852099
0.995406 0.999988 0.894421
0.9949 1.0001 0.980324
0.99502 0.999516 0.938179
0.998276 1.0051 0.993406
0.99552 1.00515 0.997944
0.994921 1.0051 0.999254
0.999931 1.00432 0.99034
0.99748 1.00483 0.994627
0.9958 1.00527 0.997062
0.997634 1.00463 0.994205
0.995249 1.0048 0.998141
0.997638 1.0028 0.996893
0.998538 1.00469 0.993154
0.999544 1.00377 0.991323
0.999513 1.00271 0.993429
0.999064 1.00329 0.991988
0.99961 1.00015 0.99506
1.00151 1.00114 0.990346
1.00371 1.0026 0.985469
1.00483 1.00172 0.984446
1.00189 1.00285 0.989487
1.0038 1.00262 0.985401
1.00497 1.00135 0.98556
1.00196 1.00368 0.987249
1.00366 1.00256 0.985823
1.00002 1.00507 0.989522
1.00072 1.00457 0.989192
1.00191 1.00341 0.986924
1.00003 1.00404 0.990605
0.999782 1.00487 0.990264
0.999821 1.00462 0.990498
0.999778 1.00439 0.990731
1.0001 1.00343 0.991226
1.00022 1.00169 0.99269
1.00014 1.00302 0.991633
1.0002 1.00135 0.99309
1.00011 0.99874 0.995816
1.00023 1.00115 0.993292
1.00017 0.998612 0.995848
0.999931 0.997132 0.999084
1.00017 0.998593 0.995855
1.00002 0.99709 0.998454
1.00001 0.997037 0.99909
1.00037 1.00249 0.991494
1.00022 1.00089 0.993333
1.00031 1.00235 0.991872
1.00015 0.998131 0.996381
1.00013 1.00057 0.993787
1.0002 1.00215 0.99239
1.00004 0.996623 0.999236
1.00012 0.997959 0.996595
1.00005 1.00026 0.994211
1.00004 0.996548 0.999273
1.0001 0.997854 0.996731
1.00002 0.996558 0.999287
0.994768 0.994821 0.885855
0.994828 0.995162 0.873416
0.994676 0.995468 0.866257
1.00061 1.00307 0.990746
1.00055 1.00327 0.990506
1.00068 1.00326 0.990571
0.994859 0.994784 0.870668
0.99478 0.994795 0.874411
0.994813 0.994845 0.865005
0.996583 0.994868 0.969951
0.99802 0.998565 0.935872
0.995024 0.999933 0.903329
0.994829 0.994838 0.848001
0.994906 0.995759 0.967018
0.995725 0.999951 0.942568
0.994817 0.999688 0.893479
0.994881 0.994825 0.859011
0.994937 0.995999 0.962937
0.994877 0.999312 0.948016
0.99515 0.999687 0.895626
0.994832 0.994804 0.852678
1.00033 1.00395 0.99021
1.00023 1.0045 0.989919
1.00027 1.00401 0.990441
1.00059 1.00356 0.99024
1.00015 1.00412 0.990482
1.00062 1.00305 0.991012
0.996645 0.997323 0.994768
0.997559 0.998814 0.999604
1 1.00442 0.990115
0.999644 1.00259 0.99336
0.999487 1.00465 0.991562
0.999836 1.0046 0.990408
0.999127 1.00447 0.991841
0.99567 0.999762 0.991533
0.997474 1.00511 0.994413
0.995478 1.00281 0.999396
0.999326 1.0039 0.992332
0.995464 1.00043 0.989531
0.995879 1.00338 0.996976
0.997578 1.00503 0.994668
0.994766 0.994779 0.891964
0.994753 0.99478 0.889744
0.994858 0.995281 0.878513
0.995949 1.00464 0.997743
0.994831 1.00084 0.992003
0.99477 0.994819 0.883248
0.994844 0.999216 0.946448
0.995023 0.999273 0.887637
0.994821 0.994783 0.877761
0.994819 0.994831 0.848691
0.995053 1.00392 0.998836
0.994775 0.994824 0.888937
0.99476 0.994789 0.875038
0.994911 0.99971 0.977251
0.994791 0.995368 0.84664
0.994904 0.999972 0.8928
0.994926 0.999515 0.949409
0.995079 1.00493 0.993716
0.994774 0.994815 0.886119
0.994828 0.995295 0.865904
0.994673 0.995361 0.857299
0.995656 0.998853 0.885065
0.995469 0.999944 0.946529
0.994928 1.00054 0.971198
0.995968 1.00521 0.997495
0.995221 1.00439 0.999176
0.997085 1.00275 0.997926
0.997794 1.00463 0.994128
0.995492 1.00438 0.998147
0.996512 1.00405 0.99704
0.999445 0.998615 0.997978
0.999562 1.00286 0.993647
1.00079 1.00253 0.99156
1.00229 1.00348 0.987422
1.0014 1.0009 0.991081
1.00363 1.00262 0.985712
1.00422 1.00396 0.983283
1.00481 1.0019 0.9841
1.00489 1.00133 0.984809
1.00482 1.00187 0.984283
1.0042 1.00268 0.984641
1.00445 1.00174 0.986151
1.00475 1.00126 0.98557
1.00103 1.00442 0.987971
1.00208 1.00371 0.987438
1.00363 1.0026 0.98598
1.00004 1.00474 0.989619
1.00023 1.00506 0.989489
1.0007 1.00459 0.989129
1.00023 1.00231 0.992116
1.00017 1.00397 0.990608
0.999629 1.00488 0.99037
1.00017 1.00334 0.991233
1.00025 1.00169 0.992682
1.00005 0.998977 0.995694
1.00023 1.00134 0.99308
1.00012 0.998746 0.995805
0.999893 0.99726 0.999071
1.00017 0.998616 0.995843
0.999971 0.997155 0.998452
0.999986 0.997113 0.999076
1.00039 1.00287 0.9913
1.00031 1.00112 0.993142
1.00042 1.00246 0.991562
1.00018 0.998323 0.996119
1.00021 1.00089 0.993417
1.00032 1.00236 0.991987
1.00004 0.996729 0.99919
1.00015 0.998102 0.996398
1.00015 1.00056 0.993723
1.00004 0.996621 0.999245
1.00012 0.997943 0.996607
1.00004 0.996554 0.99928
0.994786 0.994822 0.887235
0.994775 0.994819 0.885657
0.994818 0.995363 0.87347
1.0004 1.00395 0.99002
1.00082 1.00398 0.989649
1.00052 1.00313 0.990864
1.00048 1.00343 0.990456
1.00048 1.00338 0.990583
1.00035 1.00372 0.99044
1.00042 1.00344 0.990628
0.994793 0.994775 0.867158
0.994848 0.994784 0.873989
0.994778 0.994775 0.874531
0.994872 0.99482 0.857737
0.994911 0.995936 0.963914
0.995016 0.999958 0.938985
0.994873 0.999157 0.902809
0.994975 0.996644 0.961946
0.99488 0.999725 0.937981
0.994962 0.999407 0.900071
0.994811 0.994792 0.861114
0.995827 0.996304 0.965638
0.994913 0.999854 0.938457
0.994991 0.999368 0.88617
0.994808 0.995031 0.85039
0.999362 1.0049 0.991177
1.00019 1.00419 0.990263
1.00029 1.00461 0.989756
1.00068 1.00353 0.990208
0.995349 1.00016 0.991857
0.995495 1.00345 0.998508
0.99973 1.005 0.990325
0.999079 1.00438 0.991998
0.997746 1.00511 0.995042
0.99931 1.00389 0.99224
0.997389 1.00501 0.994653
0.995615 1.00164 0.986578
0.995055 1.00456 0.997579
0.997134 1.00441 0.995619
0.994759 1.00053 0.986838
0.99654 1.00393 0.997939
0.994755 0.99478 0.889247
0.994776 0.994778 0.89477
0.994744 0.994775 0.890363
0.994963 1.00377 0.999289
0.994934 0.998519 0.98107
0.99477 0.994813 0.890315
0.995652 0.998938 0.938891
0.994914 0.999462 0.902253
0.994779 0.994772 0.875154
0.994765 0.99541 0.850723
0.994905 1.0041 0.994444
0.994776 0.99481 0.885938
0.994796 0.995085 0.865797
0.99494 1.00066 0.971728
0.994714 0.995253 0.846397
0.996405 0.999907 0.88878
0.994907 0.999873 0.937433
0.995523 1.00471 0.988224
0.994832 0.994808 0.874134
0.994678 0.995218 0.85393
0.998332 0.997116 0.897416
0.994912 0.999931 0.946153
0.995007 1.00001 0.964573
0.995257 1.00385 0.999366
0.996195 1.00355 0.997996
0.997033 0.999966 0.999843
0.995452 1.00513 0.997177
0.998076 0.999474 0.998181
1.00224 0.998631 0.993244
1.00254 1.00162 0.991133
1.00276 1.00322 0.987303
1.00324 1.00418 0.984306
1.00347 1.00265 0.985958
1.00446 1.00389 0.983028
1.00424 1.00451 0.98267
1.00495 1.00113 0.984761
1.00502 1.00119 0.984663
1.00477 1.0021 0.984052
1.00485 1.00113 0.985245
1.0049 1.00121 0.984932
1.00476 1.00208 0.984119
1.00331 1.00317 0.986105
1.00414 1.00167 0.986083
1.00451 1.00115 0.985581
1.00067 1.005 0.988401
1.00106 1.00452 0.988215
1.00223 1.00371 0.987631
1.00016 1.00325 0.991157
1.00026 1.00471 0.989639
1.0004 1.00506 0.989456
0.999972 0.999283 0.995507
1.00027 1.00225 0.992102
1.00029 1.00391 0.990611
1.00027 1.0017 0.992675
1.00004 0.999006 0.995676
0.999823 0.997446 0.99905
1.00013 0.998746 0.995794
0.999888 0.997289 0.999066
0.999942 0.997171 0.999075
1.00032 1.0044 0.989866
1.00054 1.00318 0.990781
1.00035 1.00151 0.992689
1.00042 1.00283 0.991289
1.00019 0.998587 0.995836
1.0003 1.00114 0.99314
1.00038 1.00252 0.99163
1.00004 0.996873 0.999128
1.00018 0.998318 0.996136
1.0002 1.0009 0.9935
1.00004 0.996707 0.999204
1.00015 0.998083 0.996415
1.00005 0.996591 0.999255
0.99475 0.994801 0.883214
0.994774 0.99482 0.888613
0.994784 0.994827 0.88544
1.00046 1.00401 0.990041
1.00061 1.00398 0.989728
1.00024 1.0033 0.990451
1.00019 1.00436 0.989853
1.00074 1.00416 0.990018
1.0005 1.00352 0.990404
1.0004 1.0035 0.990594
1.00042 1.00367 0.990449
1.00046 1.00353 0.990678
0.999924 1.00447 0.990653
0.994826 0.994921 0.866707
0.994784 0.994774 0.867395
0.994838 0.994785 0.877274
0.994813 0.994801 0.861405
0.995132 0.999682 0.887517
0.995043 0.997557 0.960369
0.994894 0.999732 0.947824
0.995291 0.996416 0.962447
0.994913 0.998645 0.948685
0.99485 0.999892 0.894534
0.994813 0.994956 0.84879
0.994823 0.99586 0.967141
0.994882 0.999974 0.948474
0.995033 0.999818 0.902402
0.994754 0.995288 0.85608
0.998469 1.004 0.99322
0.999437 1.00475 0.991113
1.00018 1.00416 0.990319
0.995572 1.00188 0.983408
0.994998 1.00465 0.998192
0.999239 1.0038 0.992148
0.996806 1.0051 0.99465
0.99718 1.00403 0.995608
0.995958 1.00354 0.998077
0.995014 1.00014 0.986488
0.995869 1.00201 0.999054
0.99589 0.999696 0.989626
0.994827 0.995314 0.879408
0.994753 0.994785 0.889845
0.994787 0.994789 0.89758
0.994924 1.00292 0.994779
0.994948 1.00055 0.968605
0.99478 0.994829 0.885728
0.995488 0.999958 0.9459
0.994809 0.999923 0.902605
0.994763 0.995242 0.865722
0.994761 0.99573 0.835178
0.995539 1.00459 0.98885
0.994822 0.994933 0.874079
0.994699 0.995245 0.851776
0.994944 0.999994 0.965537
0.998211 0.998602 0.897771
0.995752 0.999918 0.941384
0.994992 1.00468 0.986262
0.994671 0.994805 0.858985
0.99977 0.996463 0.903218
0.99741 0.998202 0.937265
0.994846 0.997379 0.967664
0.995568 1.00435 0.998054
0.996725 1.00034 0.999803
0.999596 1.00266 0.994659
0.996692 1.00045 0.99834
1.00109 0.999145 0.993648
1.00349 0.99954 0.988993
1.00316 1.0029 0.98718
1.00324 1.00415 0.984265
1.00421 1.0019 0.98473
1.00472 1.00391 0.982774
1.00426 1.00412 0.982778
1.00474 1.00105 0.985169
1.00516 0.99886 0.986494
1.00511 1.00041 0.985086
1.00491 1.00102 0.984852
1.00508 1.00139 0.98457
1.00502 1.00123 0.984624
1.00474 1.00224 0.984003
1.00458 1.00183 0.985209
1.00461 1.00116 0.985392
1.00491 1.0011 0.985055
1.00208 1.0041 0.987043
1.00306 1.00316 0.986281
1.00382 1.00165 0.986014
1.00017 1.00449 0.98965
1.00082 1.005 0.988402
1.00114 1.00463 0.988457
0.99991 0.999904 0.995691
1.00028 1.0032 0.991138
1.00048 1.00469 0.98966
0.999764 0.997709 0.997651
0.999966 0.999402 0.995744
1.00031 1.00219 0.992088
1.00004 0.999036 0.995657
0.99982 0.997475 0.99904
0.999882 0.997297 0.999062
1.0002 1.00464 0.989906
1.00045 1.00387 0.990259
1.00027 1.00444 0.989827
1.00038 1.00193 0.992219
1.00041 1.00338 0.990777
1.00017 0.99891 0.995558
1.00035 1.00149 0.992695
1.0005 1.00273 0.991278
1.00002 0.997076 0.999062
1.00019 0.998567 0.995852
1.00029 1.00116 0.993137
1.00004 0.996862 0.999147
1.00017 0.998303 0.996154
1.00005 0.996692 0.999218
0.994809 0.994822 0.881684
0.994764 0.99481 0.883018
0.994765 0.994817 0.890022
1.00049 1.00298 0.990707
1.00035 1.00422 0.990061
1.00053 1.00393 0.989807
1.0004 1.00442 0.98978
1.00064 1.00313 0.990488
1.00051 1.00391 0.990454
1.00129 1.0034 0.989277
0.999492 1.00482 0.990347
1.00046 1.00361 0.990459
1.00019 1.00356 0.990726
0.999799 1.00438 0.99063
0.999022 1.0051 0.991886
0.994701 0.995444 0.855731
0.994832 0.994928 0.866346
0.994788 0.994771 0.867575
0.994794 0.994791 0.856778
0.994835 0.999917 0.894268
0.995101 0.999474 0.93848
0.995015 0.996326 0.961741
0.994937 0.995933 0.968301
0.994759 0.995573 0.845396
0.994886 0.999206 0.942631
0.996518 0.999927 0.889541
0.99488 0.996143 0.970024
0.994891 0.99994 0.948889
0.99874 0.998385 0.893534
0.999055 1.00145 0.995394
0.99857 1.00411 0.993191
0.999367 1.00464 0.991047
0.995054 1.00038 0.986573
0.995391 1.00325 0.998204
0.997277 1.00366 0.995603
0.996947 1.0019 0.998952
0.99532 0.999386 0.989745
0.996949 0.998541 0.992926
0.994752 0.995533 0.865617
0.994833 0.995058 0.88225
0.994745 0.994774 0.890433
0.995375 1.00451 0.989169
0.99486 0.999995 0.965579
0.99481 0.99503 0.874141
0.994831 0.999945 0.938252
0.998206 0.997083 0.885515
0.994732 0.994914 0.858929
0.99494 1.0045 0.986311
0.994683 0.99491 0.86696
0.999804 0.995451 0.891036
0.994881 0.99686 0.963695
0.997439 0.998748 0.946717
0.995358 1.00328 0.991032
0.99981 0.995092 0.889014
1 0.996296 0.948192
0.994877 0.994956 0.963039
0.996363 1.00045 0.999852
0.999127 1.0017 0.994576
1.00238 1.00249 0.989327
1.00003 0.999724 0.994054
1.00294 1.00022 0.98889
1.00442 0.998826 0.987886
1.00323 1.00412 0.984224
1.00411 1.002 0.984719
1.00496 0.99751 0.987614
1.00426 1.00368 0.982885
1.00466 1.00083 0.985211
1.00516 0.997075 0.988171
1.00514 0.997036 0.988496
1.00517 0.99909 0.986298
1.00516 0.998734 0.986641
1.00514 1.00046 0.985042
1.00511 1.00041 0.98519
1.00489 1.00091 0.984943
1.00511 1.00121 0.984747
1.00497 1.00131 0.984687
1.00503 1.00124 0.984584
1.00378 1.00238 0.985916
1.00447 1.00184 0.985198
1.00441 1.00116 0.985539
1.00091 1.00487 0.988203
1.0022 1.00409 0.987018
1.00274 1.00312 0.986458
0.999796 1.00093 0.994053
1.00048 1.00431 0.989652
1.00102 1.005 0.988402
0.999664 0.998083 0.998905
0.999902 1.00001 0.994901
1.0004 1.00311 0.991119
0.999768 0.997691 0.998999
0.999941 0.99949 0.995391
0.99982 0.997524 0.999029
1.00087 1.00381 0.989628
1.00024 1.00461 0.98982
1.00043 1.00444 0.98975
1.00028 1.00258 0.991748
1.0004 1.00389 0.990249
1.00033 1.00434 0.989789
1.00014 0.99924 0.995272
1.00035 1.00198 0.992228
1.0003 1.00352 0.990774
0.999989 0.997297 0.998993
1.00017 0.998862 0.995572
1.00036 1.00148 0.992701
1.00002 0.997037 0.999082
1.00019 0.99855 0.995867
1.00004 0.996826 0.999166
0.994698 0.995106 0.854262
0.994821 0.99482 0.881688
0.994777 0.99482 0.882828
1.00035 1.00323 0.990649
1.00203 1.00303 0.989593
1.00062 1.00349 0.990253
1.00044 1.00453 0.989706
1.00102 1.00297 0.990523
1.00005 1.0035 0.990888
0.999811 1.00477 0.990215
1.00093 1.00366 0.989466
1.00063 1.00455 0.989322
0.999783 1.00063 0.994212
1.00008 1.00432 0.990608
0.999141 1.00502 0.991556
0.999806 0.997005 0.88499
0.994702 0.995473 0.849848
0.994824 0.995052 0.866171
0.994771 0.996041 0.834328
0.99625 0.999135 0.902786
0.99485 0.999861 0.939598
0.995242 0.995552 0.965806
0.994853 0.996069 0.96864
0.998199 0.999125 0.895974
0.995812 0.999793 0.938706
0.994877 0.997446 0.970273
0.998127 0.998407 0.937075
1.00168 0.99749 0.995267
0.998972 1.00167 0.995319
0.998628 1.00426 0.99317
0.99485 0.999133 0.989841
0.997678 1.0018 0.998825
0.99748 0.998679 0.992581
0.998516 0.997521 0.990746
0.999841 0.994864 0.899175
0.994734 0.995271 0.864917
0.994853 0.99482 0.884992
0.994908 1.00459 0.986556
0.994868 0.996456 0.961763
0.99468 0.995016 0.867064
0.998438 0.997689 0.936457
0.999811 0.995487 0.903875
0.995305 1.00239 0.988411
0.999836 0.995087 0.897169
1.00134 0.996291 0.936809
0.994887 0.99509 0.966326
0.997978 0.997953 0.990059
1.00002 0.995076 0.949013
0.995993 0.995302 0.969158
0.998579 1.00081 0.994421
1.00209 1.0008 0.989331
1.00484 0.99831 0.988757
1.00232 1.00079 0.988796
1.00412 0.998935 0.987905
1.00494 0.996216 0.989383
1.00413 1.00206 0.984709
1.00491 0.997879 0.987531
1.00515 0.99545 0.989666
1.00459 1.00062 0.985252
1.00516 0.9971 0.988138
1.00516 0.995534 0.989853
1.00514 0.99612 0.989691
1.00515 0.996864 0.988712
1.00515 0.997673 0.988046
1.00518 0.999487 0.986133
1.00517 0.99916 0.986362
1.00516 0.998606 0.986789
1.00518 1.00078 0.984989
1.00516 1.00048 0.98501
1.0051 1.00039 0.985295
1.00474 1.00126 0.985377
1.00505 1.00125 0.98475
1.00484 1.00127 0.984807
1.00207 1.00393 0.987309
1.00374 1.00249 0.985909
1.00443 1.00187 0.985188
0.999988 1.00193 0.992646
1.00105 1.00478 0.988207
1.00238 1.00399 0.986994
0.999717 0.998425 0.998733
0.999834 1.00102 0.994005
1.00073 1.00429 0.989655
0.999714 0.998087 0.998153
0.999898 1.00009 0.994894
0.999783 0.997779 0.998949
1.00148 1.00282 0.989546
1.0005 1.004 0.989806
1.00033 1.00487 0.989325
1.00034 1.00459 0.989734
1.0003 1.00457 0.989736
1.00026 1.00322 0.991174
1.00007 0.999692 0.994963
1.00028 1.00254 0.991754
1.00031 1.004 0.99024
0.999943 0.99753 0.998915
1.00013 0.99923 0.995285
1.00031 1.00201 0.992236
0.99999 0.997256 0.999015
1.00018 0.998831 0.995586
1.00002 0.997018 0.999101
0.999813 0.994868 0.897517
0.994697 0.995002 0.857836
0.994821 0.994816 0.881647
1.00021 1.00362 0.990591
1.00065 1.0042 0.989455
1.00153 1.00309 0.989884
1.00329 1.00345 0.985888
1.00055 1.00408 0.989899
0.99998 1.00483 0.990088
1.00072 1.00397 0.989657
1.00032 1.00455 0.989588
1.00144 1.00285 0.988517
1.00151 0.999758 0.992788
1.00415 0.996029 0.991219
1.00021 1.00007 0.994222
0.999702 1.00415 0.991225
0.998585 0.99689 0.947366
0.999791 0.996906 0.890103
0.994714 0.995375 0.852703
0.9987 0.999355 0.883202
0.995208 0.999958 0.946291
0.994813 0.995867 0.969532
0.994878 0.99733 0.971904
0.997408 0.998862 0.948322
0.995856 0.996772 0.971523
1.00167 0.995934 0.995722
1.00098 0.998189 0.995314
0.998889 1.002 0.995241
0.998199 0.998205 0.99234
0.998917 0.997516 0.990856
0.999977 0.995007 0.941674
0.999833 0.994891 0.903356
0.994702 0.995008 0.864326
0.994908 1.00167 0.985711
0.994943 0.994885 0.963331
0.999828 0.995154 0.897569
1.00022 0.996329 0.946836
0.997049 0.998754 0.990528
1.00092 0.995367 0.946836
0.99661 0.99492 0.966324
1.00136 0.996156 0.989335
0.998932 0.995128 0.975604
1.002 0.998932 0.989434
1.00475 0.997109 0.988709
1.005 0.995864 0.990395
1.00377 0.99908 0.987922
1.00473 0.996367 0.989298
1.00517 0.994932 0.990255
1.00479 0.998314 0.987448
1.00515 0.995552 0.989607
1.00513 0.994953 0.990442
1.00517 0.997108 0.988105
1.00516 0.995586 0.989808
1.00517 0.995185 0.990357
1.00514 0.995903 0.989807
1.00513 0.99655 0.98927
1.00516 0.996694 0.988929
1.00515 0.997684 0.988025
1.00519 0.99849 0.987181
1.0052 1.0001 0.985658
1.00519 0.999537 0.986112
1.00517 0.999228 0.986426
1.00508 1.00075 0.985217
1.00516 1.00082 0.984923
1.00518 1.0005 0.984976
1.0032 1.00236 0.986836
1.00465 1.00137 0.985384
1.00496 1.00129 0.984752
1.00055 1.00223 0.991452
1.00206 1.00391 0.987311
1.0036 1.00269 0.985901
0.999853 0.999114 0.998379
1.00009 1.00195 0.992625
1.00126 1.00457 0.988211
0.99979 0.998592 0.998624
0.999896 1.0011 0.993956
0.999786 0.99813 0.998809
1.00323 1.00287 0.986057
1.00157 1.00268 0.989486
1.00058 1.00443 0.989034
1.00016 1.00409 0.989986
1.00028 1.00483 0.989324
1.00032 1.00385 0.990421
1.0002 1.00464 0.989722
1.00021 1.00322 0.991179
1.00001 1.00017 0.994603
0.999875 0.997862 0.998827
1.00006 0.999646 0.994977
1.00028 1.00251 0.991761
0.999944 0.997514 0.998941
1.00011 0.999211 0.995298
0.999995 0.997212 0.999036
1.00004 0.99498 0.951309
0.999866 0.994876 0.896508
0.994696 0.994872 0.853838
1.00067 1.00477 0.988658
1.00114 1.0029 0.99018
1.00096 1.00389 0.989624
1.00312 1.00354 0.986169
1.00433 1.00256 0.984237
1.00164 1.00345 0.987794
1.00002 1.00452 0.989849
1.00225 1.00265 0.987684
1.00134 0.999623 0.992867
1.00313 0.999349 0.989181
1.00474 0.995445 0.991237
1.00396 0.995962 0.991648
1.00371 0.996057 0.991608
1.00002 1.00019 0.994232
0.995999 0.99562 0.970567
0.999923 0.996732 0.944022
0.99819 0.996835 0.902369
0.997402 0.999227 0.937061
0.994874 0.997646 0.972356
0.995621 0.997079 0.976615
0.999555 0.99737 0.992141
1.00209 0.995642 0.995515
1.0005 0.99888 0.995365
1 0.998323 0.990971
0.996544 0.997192 0.971497
1.00009 0.995005 0.952314
0.999824 0.994881 0.891217
0.996248 0.999415 0.990823
0.996761 0.994864 0.968063
1.00003 0.996027 0.944494
1.00074 0.996111 0.989447
0.998407 0.995603 0.975022
1.00358 0.995395 0.990471
1.00276 0.998082 0.986543
1.00456 0.99603 0.988625
1.00484 0.995629 0.990434
1.00516 0.99487 0.990661
1.00461 0.996511 0.989215
1.00517 0.994937 0.990216
1.00516 0.99494 0.990498
1.00515 0.995611 0.989549
1.00513 0.995004 0.990408
1.00519 0.994983 0.990503
1.00516 0.995649 0.989762
1.00515 0.995225 0.990302
1.00515 0.995588 0.989983
1.00514 0.995692 0.989922
1.00514 0.996407 0.989395
1.00516 0.997729 0.988108
1.00515 0.997694 0.988004
1.00519 0.99855 0.987154
1.00521 0.999477 0.986348
1.00519 1.00037 0.985378
1.0052 1.00017 0.985569
1.00519 0.999587 0.986091
1.00403 1.00108 0.986666
1.00504 1.00079 0.985234
1.00513 1.00085 0.984858
1.00104 1.00205 0.990779
1.00315 1.00247 0.986841
1.00455 1.00148 0.985392
1.00013 0.999703 0.997927
1.00067 1.00212 0.99144
1.00205 1.00389 0.987313
0.999992 0.999241 0.998201
1.00016 1.00199 0.992606
0.999901 0.998688 0.998484
1.0044 1.0023 0.984607
1.0036 1.00279 0.986103
1.00226 1.00393 0.986844
1.00154 1.00269 0.989426
1.00074 1.00433 0.988875
1.00075 1.00415 0.989453
1.00021 1.00483 0.989323
1.00029 1.00386 0.990415
0.999957 1.00072 0.99415
1.00018 1.00323 0.991184
0.999992 1.00012 0.994626
0.999806 0.998213 0.998725
0.999879 0.997798 0.998858
1.00006 0.999611 0.994992
0.999941 0.997461 0.998965
0.996869 0.994852 0.972028
1.00001 0.995431 0.94083
0.999841 0.994941 0.905288
1.00516 1.00072 0.9847
1.0014 1.0038 0.98935
1.00297 1.00366 0.986451
1.00213 1.00327 0.987649
1.0044 1.00279 0.984206
1.00391 1.00068 0.986893
1.00302 1.00265 0.986851
1.00112 0.999518 0.992953
1.00353 0.999301 0.988996
1.00476 0.995562 0.990624
1.0048 0.995963 0.989671
1.0041 0.995531 0.992139
1.00386 0.995636 0.99165
1.00325 0.996162 0.991995
0.999798 0.996877 0.991488
0.99581 0.995391 0.968858
0.999306 0.996054 0.941172
0.995154 0.996923 0.975291
0.99966 0.996601 0.994288
1.00197 0.995048 0.99529
1.00064 0.997487 0.985561
0.996453 0.996007 0.972696
0.999973 0.994901 0.94172
0.999873 0.996562 0.989628
0.998495 0.995853 0.974022
1.00299 0.995471 0.990828
1.00286 0.997481 0.987108
1.00435 0.994845 0.991108
1.00465 0.997452 0.990607
1.00471 0.995385 0.990469
1.00517 0.99487 0.990554
1.00523 0.994859 0.990416
1.00517 0.994938 0.990177
1.00515 0.994931 0.990491
1.00522 0.994918 0.990473
1.00512 0.995062 0.990374
1.00518 0.994961 0.990493
1.0052 0.995248 0.990311
1.00514 0.99524 0.990246
1.00516 0.995601 0.989967
1.00517 0.99676 0.988972
1.00515 0.996264 0.989521
1.00517 0.997579 0.988289
1.00521 0.998942 0.986897
1.00519 0.998611 0.987127
1.0052 0.99947 0.986348
1.00522 1.00015 0.985622
1.00437 1.00047 0.986694
1.00517 1.00045 0.985338
1.00521 1.00025 0.98548
1.00157 1.00139 0.990574
1.004 1.00116 0.986657
1.00501 1.00084 0.98525
1.00029 1.0001 0.997625
1.00123 1.0018 0.990773
1.00312 1.00251 0.986846
1.00023 0.999782 0.997801
1.00083 1.00195 0.991431
1.00013 0.999376 0.998029
1.00513 1.00129 0.984417
1.00465 1.0022 0.984587
1.00412 1.00254 0.985323
1.00402 1.00271 0.986149
1.00239 1.00393 0.986784
1.00135 1.0044 0.988213
1.00094 1.00424 0.988716
1.00054 1.00437 0.989456
0.999988 1.00136 0.993475
1.00022 1.0039 0.990411
0.999938 1.00066 0.994179
0.999759 0.998627 0.998592
0.999974 1.00008 0.994648
0.999807 0.998151 0.998763
0.999883 0.99776 0.998886
1.00105 0.994863 0.98949
0.996688 0.994871 0.968758
0.999996 0.994913 0.951609
1.00509 0.999456 0.98629
1.00518 0.999019 0.986609
1.00514 1.0006 0.984888
1.00261 1.00297 0.9875
1.00448 1.00302 0.984171
1.00406 1.00051 0.987036
1.00501 0.997082 0.98825
1.00395 0.999189 0.988813
1.00476 0.995749 0.990004
1.00481 0.996244 0.989788
1.00506 0.995224 0.990231
1.00415 0.99547 0.99167
1.00378 0.995681 0.992088
1.00402 0.995334 0.99165
1.00016 0.996665 0.991617
0.995758 0.995258 0.967221
0.999961 0.996366 0.996521
1.00431 0.99544 0.991623
1.00058 0.997469 0.985756
0.996343 0.995668 0.970512
1.00279 0.994878 0.99116
1.00292 0.997252 0.987707
1.00442 0.994956 0.991551
1.00467 0.996705 0.990618
1.00527 0.994931 0.990482
1.00533 0.994968 0.990673
1.00518 0.994868 0.99045
1.00523 0.994884 0.990398
1.00523 0.994911 0.99042
1.00514 0.994926 0.990484
1.00522 0.994918 0.990481
1.00522 0.995033 0.990485
1.00518 0.994953 0.990483
1.00519 0.995231 0.990294
1.00517 0.996099 0.989608
1.00517 0.995614 0.989951
1.00517 0.996783 0.988968
1.00522 0.998385 0.987381
1.00517 0.997424 0.98847
1.00521 0.99888 0.986966
1.00523 0.999932 0.985817
1.0052 0.999464 0.986348
1.00522 1.00011 0.985664
1.0045 1.00021 0.986761
1.00183 1.00074 0.990713
1.00436 1.00051 0.986687
1.00514 1.00053 0.985297
1.00037 1.00034 0.997447
1.00162 1.00132 0.990571
1.00393 1.00129 0.98665
1.00034 1.00018 0.997542
1.00135 1.00167 0.990767
1.0003 0.99989 0.997686
1.00525 1.00006 0.985487
1.00516 1.0012 0.984527
1.00497 1.00113 0.98501
1.00485 1.00209 0.984568
1.00405 1.00249 0.985337
1.00238 1.00355 0.987191
1.00246 1.00395 0.986727
1.0011 1.00468 0.988239
1.00024 1.0021 0.992333
1.00037 1.00461 0.989459
0.999938 1.00132 0.993503
0.99978 0.999126 0.998362
0.999924 1.00059 0.994208
0.999742 0.998531 0.998645
0.999806 0.99808 0.998797
1.00417 0.994848 0.992385
1.00102 0.994887 0.987641
0.996563 0.99488 0.967899
1.00512 0.998225 0.987639
1.00511 0.999039 0.986561
1.00523 0.997676 0.98786
1.00519 0.998993 0.986603
1.00512 1.00045 0.985077
1.00515 0.996075 0.989119
1.00421 1.00035 0.987178
1.00499 0.997354 0.988227
1.00522 0.994898 0.990288
1.00484 0.996451 0.989907
1.00501 0.995302 0.990107
1.00414 0.995562 0.99182
1.00324 0.995775 0.992033
1.00048 0.99632 0.991642
1.00529 0.994929 0.990483
1.00425 0.996213 0.991723
1.00064 0.997114 0.985945
1.00444 0.995123 0.991982
1.00467 0.996014 0.990632
1.00526 0.99492 0.990524
1.00533 0.994983 0.990609
1.00526 0.994951 0.990656
1.00524 0.994906 0.990381
1.00523 0.994917 0.990436
1.00518 0.994929 0.990664
1.00521 0.994916 0.990489
1.00522 0.995009 0.990457
1.00518 0.995587 0.990122
1.00519 0.995216 0.990277
1.00518 0.996125 0.989595
1.00523 0.997838 0.987942
1.00516 0.996805 0.988965
1.00522 0.998394 0.987397
1.00525 0.999705 0.986048
1.0052 0.998817 0.987034
1.00523 0.999926 0.985837
1.00455 1.00012 0.986776
1.00521 1.00007 0.985707
1.0045 1.00022 0.986761
1.00189 1.00038 0.99239
1.0006 1.00011 0.994536
1.00188 1.00072 0.99143
1.00435 1.00055 0.986681
1.00039 1.00038 0.997415
1.00175 1.00113 0.990566
1.00037 1.00028 0.997466
1.00525 0.997545 0.988097
1.00525 0.999049 0.986591
1.00525 1.00006 0.985618
1.00508 1.00055 0.98535
1.00519 1.00113 0.984635
1.00502 1.00109 0.98499
1.00351 1.00182 0.986828
1.004 1.00241 0.985349
1.00238 1.00347 0.987191
1.00079 1.00237 0.991094
1.00089 1.00489 0.988262
1.0001 1.00221 0.992358
0.999926 0.999827 0.997935
0.999895 1.00129 0.99353
0.999719 0.999016 0.998458
0.999736 0.998451 0.998691
1.00528 0.994849 0.990488
1.00449 0.994847 0.992235
1.00119 0.994902 0.985841
1.00518 0.996636 0.988756
1.00512 0.998149 0.987478
1.00513 0.998645 0.98683
1.00522 0.997819 0.987829
1.0052 0.998962 0.986597
1.00524 0.995282 0.990194
1.00513 0.996085 0.989083
1.00497 0.997651 0.988203
1.00522 0.994898 0.990294
1.00501 0.995404 0.989983
1.00414 0.995681 0.991987
1.00524 0.994924 0.990744
1.00529 0.994929 0.990662
1.00416 0.996965 0.991828
1.00525 0.994912 0.990557
1.00535 0.994964 0.990549
1.00526 0.994947 0.990605
1.00514 0.994956 0.990933
1.00523 0.994927 0.990453
1.00519 0.994928 0.990627
1.0052 0.995219 0.990546
1.00522 0.994985 0.990429
1.00518 0.995601 0.990115
1.00522 0.997405 0.988405
1.00519 0.996152 0.989581
1.00523 0.997848 0.987952
1.00526 0.999474 0.986295
1.00522 0.998402 0.987413
1.00525 0.999696 0.986066
1.00458 1.0001 0.986752
1.00523 0.999919 0.985857
1.00456 1.00011 0.986782
1.00201 1.0001 0.992499
1.0045 1.00022 0.986761
1.00206 1.00029 0.992302
1.0006 0.999989 0.994682
1.00038 1.00036 0.996014
1.00205 1.00066 0.99201
1.00038 1.00046 0.997398
1.00519 0.996822 0.98894
1.00525 0.998665 0.986933
1.00524 0.997352 0.988298
1.00521 1.00001 0.985717
1.00526 0.99913 0.986549
1.00525 1.00007 0.98575
1.00514 1.00053 0.985313
1.00415 1.00079 0.986775
1.00506 1.00107 0.984969
1.00363 1.00164 0.986816
1.00136 1.00183 0.990525
1.00235 1.00343 0.987192
1.00062 1.00252 0.991102
1.00008 1.00055 0.997534
0.999935 1.00228 0.992382
0.999794 0.9997 0.998113
0.999688 0.998887 0.998538
1.00524 0.994877 0.990589
1.00527 0.994851 0.990469
1.00476 0.994856 0.992057
1.00519 0.995765 0.989838
1.00516 0.996729 0.988737
1.00511 0.998079 0.987323
1.00521 0.997964 0.9878
1.00522 0.995282 0.990148
1.00511 0.99611 0.989047
1.0052 0.994899 0.990301
1.00517 0.994927 0.990928
1.00524 0.994924 0.99074
1.00529 0.994931 0.990839
1.0051 0.994953 0.991066
1.00526 0.994941 0.990553
1.00515 0.994952 0.990922
1.0052 0.995046 0.990792
1.0052 0.994928 0.990591
1.00517 0.99524 0.990551
1.00522 0.997161 0.988675
1.00519 0.995619 0.990109
1.00522 0.997417 0.988414
1.00526 0.99923 0.986565
1.00523 0.997858 0.987963
1.00526 0.999462 0.986312
1.0046 1.00007 0.986745
1.00525 0.999687 0.986085
1.00459 1.00009 0.986764
1.00208 1.00005 0.992447
1.00457 1.0001 0.986787
1.00215 1.00004 0.992385
1.00066 0.999888 0.994719
1.00222 1.00019 0.992223
1.00028 1.00015 0.994891
0.999913 1.00066 0.997767
1.00519 0.996736 0.988935
1.00523 0.998051 0.987682
1.0052 0.996891 0.988786
1.00527 0.999671 0.986146
1.00526 0.998442 0.98713
1.00523 0.997164 0.988498
1.00447 1.00021 0.986789
1.00523 1 0.985684
1.00526 0.999209 0.986506
1.0052 1.00051 0.985275
1.00419 1.0007 0.986778
1.00165 1.00123 0.990594
1.00373 1.00143 0.986804
1.00124 1.002 0.990529
1.00012 1.00092 0.997386
1.00048 1.00268 0.991115
0.999986 1.00038 0.997676
0.999694 0.999513 0.998265
1.00516 0.995186 0.990602
1.00524 0.994877 0.990585
1.00527 0.99485 0.990452
1.00519 0.995646 0.989968
1.00515 0.996812 0.988717
1.00522 0.995269 0.990102
1.00516 0.994934 0.991006
1.00518 0.994933 0.990937
1.00524 0.994923 0.990735
1.0051 0.994957 0.991088
1.00519 0.995286 0.990635
1.00515 0.994948 0.990911
1.00518 0.995234 0.99064
1.00526 0.996668 0.989163
1.00515 0.995258 0.990555
1.00523 0.997137 0.988679
1.00525 0.998971 0.986839
1.00521 0.997418 0.988423
1.00526 0.999216 0.986573
1.00462 0.999993 0.9868
1.00526 0.999451 0.98633
1.00461 1.00007 0.986759
1.00211 1.00012 0.992303
1.0046 1.00007 0.986776
1.00221 1 0.992314
1.00072 0.999892 0.994625
1.00228 0.999994 0.992281
1.00038 0.999939 0.99495
0.999976 1.00034 0.995084
1.00521 0.996096 0.989685
1.00524 0.997814 0.987894
1.0052 0.996539 0.989096
1.00527 0.999193 0.986652
1.00522 0.998151 0.987568
1.00522 0.996958 0.988633
1.00461 0.999907 0.986866
1.00527 0.999519 0.986193
1.00526 0.99822 0.987328
1.00184 1.0006 0.990853
1.00448 1.00019 0.986789
1.00524 0.999995 0.985652
1.00423 1.00062 0.986782
1.0016 1.00131 0.990601
1.00015 1.00096 0.9974
1.00112 1.00217 0.990534
1.00011 1.0008 0.997425
0.999852 1.00025 0.99784
1.00516 0.995015 0.990841
1.00516 0.995203 0.990543
1.00523 0.994878 0.99058
1.00518 0.995539 0.990097
1.00517 0.995339 0.990567
1.00514 0.994942 0.991018
1.00518 0.99494 0.990946
1.00509 0.99496 0.991111
1.0052 0.995293 0.99063
1.00529 0.996722 0.989112
1.00516 0.995417 0.990488
1.00527 0.996945 0.988861
1.00525 0.998528 0.987327
1.00525 0.997125 0.988683
1.00526 0.998966 0.986837
1.00461 0.99988 0.986927
1.00526 0.999212 0.986582
1.00462 0.999988 0.986808
1.00217 1.00018 0.990781
1.00461 1.00006 0.986772
1.00223 1.00009 0.991477
1.00062 0.999949 0.997406
1.00233 0.999974 0.992184
1.00047 0.999881 0.994868
1.00011 0.999981 0.995164
1.0052 0.995696 0.990169
1.00524 0.997432 0.988369
1.00521 0.996154 0.989649
1.00526 0.998897 0.986847
1.00524 0.997822 0.987876
1.00522 0.996339 0.989256
1.00465 0.999677 0.986881
1.00527 0.999191 0.98666
1.00522 0.998248 0.987454
1.00202 1.00008 0.991055
1.0046 0.999854 0.986828
1.00527 0.999357 0.98624
1.00026 1.00069 0.997468
1.00184 1.00059 0.990859
1.00448 1.00016 0.986789
1.00154 1.00135 0.990611
1.00016 1.00087 0.997387
1.00006 1.00073 0.997483
1.00519 0.995228 0.990628
1.00517 0.99503 0.99081
1.00517 0.995219 0.990485
1.00524 0.99689 0.988977
1.00518 0.995227 0.990679
1.00512 0.99495 0.99103
1.0052 0.995284 0.990625
1.00529 0.996698 0.989117
1.00524 0.998512 0.987516
1.00528 0.997226 0.988559
1.00525 0.998729 0.98717
1.00458 0.999626 0.987121
1.00527 0.998952 0.986836
1.00461 0.999877 0.986932
1.00216 1.00013 0.990841
1.00463 0.999987 0.986817
1.00218 1.00016 0.990783
1.00061 0.999993 0.997375
1.00226 1.00007 0.990759
1.00051 0.999946 0.996121
1.00021 0.999847 0.995108
1.00521 0.995757 0.990072
1.00522 0.997295 0.988576
1.00521 0.995615 0.990234
1.00524 0.998964 0.986809
1.00524 0.9975 0.988291
1.00521 0.996214 0.989613
1.00465 0.999606 0.986972
1.00526 0.999054 0.98675
1.00523 0.997831 0.987858
1.00214 0.999856 0.991075
1.00464 0.999671 0.986889
1.00527 0.999192 0.986668
1.00044 1.00031 0.997494
1.00204 1.00006 0.991058
1.00459 0.9998 0.986788
1.00027 1.00065 0.997439
1.00184 1.00058 0.990865
1.00014 1.00084 0.997391
1.00524 0.996774 0.989128
1.00519 0.995351 0.990525
1.00517 0.995047 0.99078
1.00524 0.99841 0.987615
1.00524 0.996747 0.989091
1.0052 0.995106 0.990793
1.00528 0.996691 0.989121
1.00524 0.998512 0.98751
1.00454 0.999527 0.987283
1.00525 0.998933 0.987012
1.00458 0.999701 0.987094
1.00215 1.00004 0.990955
1.00462 0.999871 0.986937
1.00215 1.00014 0.990847
1.00059 1.00002 0.99735
1.00218 1.00015 0.990783
1.0006 1 0.997359
1.0006 0.999904 0.994618
1.00524 0.997195 0.98861
1.0052 0.995538 0.990253
1.00524 0.998831 0.98698
1.00523 0.997304 0.988559
1.00522 0.995531 0.990299
1.00462 0.999697 0.987093
1.00524 0.998974 0.986804
1.00524 0.997565 0.988213
1.00221 0.999854 0.990989
1.00464 0.999666 0.986981
1.00526 0.999216 0.986653
1.00059 1.00004 0.997451
1.00216 0.99985 0.991075
1.00463 0.999657 0.986895
1.00041 1.00033 0.997486
1.00205 1.00005 0.99106
1.00027 1.00064 0.997414
1.00525 0.998412 0.987565
1.00524 0.99686 0.989027
1.00519 0.995471 0.990421
1.00452 0.999482 0.987363
1.00524 0.998412 0.987613
1.00525 0.996613 0.989204
1.00524 0.998514 0.987505
1.00456 0.999517 0.987263
1.0021 1 0.991086
1.00458 0.999775 0.987068
1.00213 1.00005 0.99096
1.00058 1.00001 0.997358
1.00215 1.00014 0.990853
1.00058 1.00003 0.997357
1.0006 1.00001 0.997351
1.00526 0.998694 0.987101
1.00524 0.996937 0.988878
1.00519 0.995324 0.990434
1.00459 0.999677 0.987193
1.00524 0.998839 0.98697
1.00524 0.997312 0.988543
1.00219 0.999945 0.990947
1.00461 0.999705 0.987088
1.00524 0.998983 0.986799
1.00065 0.999951 0.997386
1.00221 0.99987 0.990988
1.00463 0.99972 0.986991
1.00056 1.00008 0.99747
1.00217 0.999862 0.991076
1.00042 1.00032 0.997471
1.00453 0.999622 0.987333
1.00525 0.998332 0.987588
1.00524 0.996947 0.988926
1.00207 0.99994 0.991214
1.00453 0.999463 0.987354
1.00524 0.998414 0.987611
1.00457 0.999503 0.987244
1.0021 0.999982 0.991091
1.00056 1.00001 0.99736
1.00211 1.00006 0.990964
1.00057 1.00002 0.997354
1.00055 1.00004 0.997361
1.00456 0.999644 0.987277
1.00526 0.998539 0.987266
1.00525 0.996681 0.989146
1.00224 0.999998 0.992263
1.00457 0.999679 0.987194
1.00524 0.998848 0.986959
1.00063 0.99996 0.997351
1.0022 0.999965 0.990947
1.00459 0.999715 0.987082
1.00064 0.99998 0.997411
1.00221 0.999894 0.990988
1.00054 1.0001 0.997483
1.00214 0.999938 0.99114
1.00453 0.999543 0.987342
1.00525 0.998252 0.98761
1.00051 0.999992 0.997396
1.00206 0.999938 0.99121
1.00454 0.999446 0.987346
1.0021 0.999964 0.991093
1.00054 1.00001 0.99737
1.00056 1.00003 0.997355
1.00227 0.999971 0.992302
1.00455 0.999644 0.987277
1.00525 0.99838 0.987431
1.0002 0.999998 0.997766
1.00215 1 0.991013
1.00456 0.999678 0.987197
1.00063 0.999971 0.997369
1.0022 0.999987 0.990946
1.00062 0.999999 0.997434
1.0005 0.99997 0.994775
1.00216 0.999938 0.991787
1.00453 0.999465 0.98735
1.00053 0.999993 0.9974
1.00206 0.999939 0.991214
1.00056 1 0.997376
1.0001 0.999997 0.995158
1.00218 0.999962 0.991716
1.00454 0.999648 0.987277
1.00037 0.999992 0.996225
1.00214 1 0.991025
1.00064 0.999981 0.997388
1.00052 0.999983 0.997397
1.00206 0.999933 0.991225
1.0005 0.999992 0.997399
1.00032 0.999979 0.996282
1.0021 0.999958 0.99115
1.00059 0.999985 0.997372
1.00053 0.999981 0.997407
1.00053 0.999983 0.997392

TENSORS stress float
0.00184835 -0.000111782 0.000201832
-0.000111782 0.000777819 -2.99365e-05
0.000201832 -2.99365e-05 0.000755445
0.00578151 -5.70347e-05 0.000208214
-5.70347e-05 0.00317293 2.17837e-05
0.000208214 2.17837e-05 0.00316163
0.00159282 -4.34326e-05 9.04347e-05
-4.34326e-05 0.000627915 -1.18663e-05
9.04347e-05 -1.18663e-05 0.00059613
0.00194442 -6.54037e-05 0.000200214
-6.54037e-05 0.000810896 -1.82222e-05
0.000200214 -1.82222e-05 0.000793869
0.00190799 -9.97885e-05 0.000197984
-9.97885e-05 0.000804443 -2.67233e-05
0.000197984 -2.67233e-05 0.000784229
0.00179175 -0.000110203 0.00020771
-0.000110203 0.000743584 -3.02601e-05
0.00020771 -3.02601e-05 0.000722409
0.00156926 -9.13746e-05 3.46562e-05
-9.13746e-05 0.000531582 -1.08045e-05
3.46562e-05 -1.08045e-05 0.000441047
0.00571408 -6.50348e-05 -6.91532e-06
-6.50348e-05 0.00312197 -8.94226e-08
-6.91532e-06 -8.94226e-08 0.00311577
0.00567319 0.000113176 9.98533e-05
0.000113176 0.00307098 7.23989e-06
9.98533e-05 7.23989e-06 0.00305434
0.00550648 -0.00015361 3.56655e-05
-0.00015361 0.0029956 2.51057e-06
3.56655e-05 2.51057e-06 0.00296791
0.00172213 0.000125347 0.00020646
0.000125347 0.000694345 2.12864e-05
0.00020646 2.12864e-05 0.00068752
0.000610607 0.00021236 2.47085e-05
0.00021236 -2.84289e-05 1.59469e-05
2.47085e-05 1.59469e-05 -0.000131183
0.00167472 -3.4089e-05 0.00020624
-3.4089e-05 0.000644298 2.96798e-06
0.00020624 2.96798e-06 0.000639056
0.00131751 -6.33777e-06 4.36225e-05
-6.33777e-06 0.000451485 1.24949e-06
4.36225e-05 1.24949e-06 0.000412148
0.00139273 -3.87265e-05 -3.76754e-05
-3.87265e-05 0.000511264 6.71198e-06
-3.76754e-05 6.71198e-06 0.000471216
0.00163046 -6.85306e-05 6.85694e-05
-6.85306e-05 0.000636106 -3.9668e-06
6.85694e-05 -3.9668e-06 0.000606912
0.00159006 -2.74744e-05 9.7739e-05
-2.74744e-05 0.000633893 -1.18379e-05
9.7739e-05 -1.18379e-05 0.000598152
0.00160998 -5.71491e-05 8.05745e-05
-5.71491e-05 0.000627643 -9.86457e-06
8.05745e-05 -9.86457e-06 0.000599676
0.00163154 -0.00013085 -3.36887e-05
-0.00013085 0.000562251 3.89726e-06
-3.36887e-05 3.89726e-06 0.0004803
0.00564866 -0.000117991 0.000255047
-0.000117991 0.00306439 -8.57333e-06
0.000255047 -8.57333e-06 0.00307259
0.00190864 -4.62281e-05 0.000201601
-4.62281e-05 0.000787332 -1.35772e-05
0.000201601 -1.35772e-05 0.000771617
0.00195165 -8.43188e-05 0.000198548
-8.43188e-05 0.000821229 -2.27185e-05
0.000198548 -2.27185e-05 0.000803125
0.00158363 -0.000113628 5.60072e-05
-0.000113628 0.000516955 -8.5436e-06
5.60072e-05 -8.5436e-06 0.000435745
0.00158288 -0.000104103 4.39646e-05
-0.000104103 0.000523762 -1.0029e-05
4.39646e-05 -1.0029e-05 0.00044051
0.00173198 -8.40766e-05 0.000203592
-8.40766e-05 0.000699321 -2.66673e-05
0.000203592 -2.66673e-05 0.000681627
0.00154401 -8.07585e-05 2.72497e-05
-8.07585e-05 0.000536011 -1.16855e-05
2.72497e-05 -1.16855e-05 0.000435958
0.00201333 -0.000238667 1.50311e-05
-0.000238667 0.00064703 -6.65018e-06
1.50311e-05 -6.65018e-06 0.000489422
0.00566925 -7.91851e-05 -0.000205053
-7.91851e-05 0.00308611 -1.32209e-05
-0.000205053 -1.32209e-05 0.00308444
0.00365772 9.6299e-05 -0.00011641
9.6299e-05 0.00186089 -1.07974e-05
-0.00011641 -1.07974e-05 0.0018418
0.0035418 -7.72125e-06 -0.000111225
-7.72125e-06 0.00181036 -7.14486e-06
-0.000111225 -7.14486e-06 0.00178766
0.00553833 -0.000131973 -1.95879e-06
-0.000131973 0.00303064 5.77589e-07
-1.95879e-06 5.77589e-07 0.00301659
0.000560818 0.000197447 -1.95737e-06
0.000197447 -5.65371e-05 -8.09351e-07
-1.95737e-06 -8.09351e-07 -0.000157791
0.00164515 5.72588e-05 0.000204261
5.72588e-05 0.000635391 1.66891e-05
0.000204261 1.66891e-05 0.000620277
0.00178311 0.00013579 0.000207244
0.00013579 0.000744589 2.52901e-05
0.000207244 2.52901e-05 0.000722251
0.00266967 0.000184257 0.000126092
0.000184257 0.00117252 1.67579e-05
0.000126092 1.67579e-05 0.00110275
0.00454805 -0.000319586 -1.0912e-05
-0.000319586 0.00248725 6.79502e-06
-1.0912e-05 6.79502e-06 0.00242774
0.00276284 0.000239174 0.000127458
0.000239174 0.00125886 1.9743e-05
0.000127458 1.9743e-05 0.00118111
0.000565006 0.000173076 2.75643e-05
0.000173076 -5.05692e-05 2.0197e-05
2.75643e-05 2.0197e-05 -0.000148292
0.000877606 0.000191601 1.08996e-05
0.000191601 3.58354e-05 5.98794e-06
1.08996e-05 5.98794e-06 -0.000137194
0.00353995 -0.00010465 0.000123149
-0.00010465 0.00182532 6.25184e-06
0.000123149 6.25184e-06 0.00182904
0.00564651 7.23349e-05 3.59416e-06
7.23349e-05 0.00305361 -1.48966e-06
3.59416e-06 -1.48966e-06 0.00306711
0.00358353 6.97175e-05 -9.67559e-05
6.97175e-05 0.00181082 -3.7416e-06
-9.67559e-05 -3.7416e-06 0.00179761
0.00553104 6.02686e-05 0.000248968
6.02686e-05 0.00298698 3.17637e-06
0.000248968 3.17637e-06 0.00300055
0.00130945 7.76394e-05 4.6779e-05
7.76394e-05 0.000445326 2.75193e-06
4.6779e-05 2.75193e-06 0.000410666
0.000633816 9.73045e-06 1.61096e-05
9.73045e-06 -8.27072e-05 1.75499e-06
1.61096e-05 1.75499e-06 -0.000158472
0.00557417 0.000200876 0.000133163
0.000200876 0.00303558 1.19676e-05
0.000133163 1.19676e-05 0.00301245
0.00272288 6.28835e-05 0.000122071
6.28835e-05 0.00117079 7.3727e-06
0.000122071 7.3727e-06 0.00111747
0.00125783 -7.51197e-05 -5.74697e-05
-7.51197e-05 0.000427677 7.1238e-06
-5.74697e-05 7.1238e-06 0.00038508
0.00130509 -7.74314e-05 -4.99155e-05
-7.74314e-05 0.000459062 7.96374e-06
-4.99155e-05 7.96374e-06 0.000417523
0.00146038 1.0391e-05 -2.59834e-05
1.0391e-05 0.000557327 6.44247e-06
-2.59834e-05 6.44247e-06 0.00051405
0.00166551 -0.000138431 -0.000109293
-0.000138431 0.000575529 1.83277e-05
-0.000109293 1.83277e-05 0.00050149
0.00353862 3.31127e-06 -0.00010149
3.31127e-06 0.00179101 -1.97194e-06
-0.00010149 -1.97194e-06 0.0017759
0.00161889 -5.20713e-05 7.48438e-05
-5.20713e-05 0.000623981 -3.32338e-06
7.48438e-05 -3.32338e-06 0.000597417
0.00154584 -3.84534e-06 0.000101116
-3.84534e-06 0.000609982 -9.84332e-06
0.000101116 -9.84332e-06 0.000573048
0.00162663 -6.42608e-05 7.3232e-05
-6.42608e-05 0.000632986 -6.77435e-06
7.3232e-05 -6.77435e-06 0.000605534
0.00164266 -9.37836e-05 -2.70848e-05
-9.37836e-05 0.000544329 1.39608e-06
-2.70848e-05 1.39608e-06 0.000471402
0.00161646 -0.000125728 -3.91084e-05
-0.000125728 0.000566105 4.09983e-06
-3.91084e-05 4.09983e-06 0.000478324
0.00163965 -0.000126085 -2.87701e-05
-0.000126085 0.000556097 2.7862e-06
-2.87701e-05 2.7862e-06 0.000478572
0.00201041 -0.000237909 -7.77227e-06
-0.000237909 0.000642361 2.09867e-06
-7.77227e-06 2.09867e-06 0.000484882
0.00550927 3.20337e-05 0.000243969
3.20337e-05 0.00297283 -4.61168e-07
0.000243969 -4.61168e-07 0.00298741
0.00187144 -2.58574e-05 0.00020051
-2.58574e-05 0.00076758 -9.31717e-06
0.00020051 -9.31717e-06 0.000753951
0.00242547 1.0991e-05 4.02426e-05
1.0991e-05 0.00101107 -9.45246e-07
4.02426e-05 -9.45246e-07 0.000948795
0.00158032 -9.21676e-05 4.94179e-05
-9.21676e-05 0.000506536 -5.75147e-06
4.94179e-05 -5.75147e-06 0.000430435
0.001584 -0.000110659 5.14233e-05
-0.000110659 0.000518142 -9.47542e-06
5.14233e-05 -9.47542e-06 0.000436986
0.00189284 -0.000149978 1.16072e-05
-0.000149978 0.000515549 -3.04791e-06
1.16072e-05 -3.04791e-06 0.000381473
0.00170816 -0.00019878 1.62281e-05
-0.00019878 0.00043536 -5.74963e-06
1.62281e-05 -5.74963e-06 0.000286318
0.00135519 -4.23019e-05 0.000170916
-4.23019e-05 0.000473297 -1.95891e-05
0.000170916 -1.95891e-05 0.000459304
0.00142687 -3.98852e-05 1.84875e-05
-3.98852e-05 0.000486629 -1.16421e-05
1.84875e-05 -1.16421e-05 0.000386139
0.00200795 -0.000258197 1.42679e-05
-0.000258197 0.000673722 -7.33313e-06
1.42679e-05 -7.33313e-06 0.000506205
0.00132777 -0.000261698 7.18586e-06
-0.000261698 9.64941e-05 -1.99562e-06
7.18586e-06 -1.99562e-06 -0.000100721
0.00595533 0.000177808 -0.000261388
0.000177808 0.00324185 -2.3925e-05
-0.000261388 -2.3925e-05 0.0032452
0.00526328 -0.000155979 -0.000165788
-0.000155979 0.00286693 -1.07886e-05
-0.000165788 -1.07886e-05 0.00285309
0.00574155 -2.83422e-06 -0.000222556
-2.83422e-06 0.00311791 -1.61849e-05
-0.000222556 -1.61849e-05 0.00312313
0.000511186 0.000189844 -2.43427e-05
0.000189844 -8.09989e-05 -1.61872e-05
-2.43427e-05 -1.61872e-05 -0.000183929
0.00596084 0.000184678 -2.82208e-06
0.000184678 0.00324361 -2.00301e-06
-2.82208e-06 -2.00301e-06 0.00324761
0.00596811 0.000113573 -8.87828e-06
0.000113573 0.00324905 -1.71295e-06
-8.87828e-06 -1.71295e-06 0.00325316
0.000490702 0.000124074 -7.65966e-08
0.000124074 -0.000139407 -2.53372e-07
-7.65966e-08 -2.53372e-07 -0.000232664
0.00291051 -0.000131038 -6.93746e-05
-0.000131038 0.00145924 -2.94846e-06
-6.93746e-05 -2.94846e-06 0.00142772
0.000491327 0.000188522 -3.11807e-07
0.000188522 -0.000101842 -4.37908e-07
-3.11807e-07 -4.37908e-07 -0.000205119
0.00160555 0.000161461 4.23074e-05
0.000161461 0.00058149 1.59467e-06
4.23074e-05 1.59467e-06 0.000499769
0.000868166 0.000188945 4.37511e-08
0.000188945 2.69141e-05 2.36362e-07
4.37511e-08 2.36362e-07 -0.000145127
0.00427515 -0.000113335 0.000153312
-0.000113335 0.00226798 9.9266e-06
0.000153312 9.9266e-06 0.00226719
0.000681306 -1.08353e-05 6.56097e-06
-1.08353e-05 8.17867e-05 9.64982e-06
6.56097e-06 9.64982e-06 3.50571e-05
0.000601355 9.41357e-05 1.67119e-05
9.41357e-05 -9.37635e-05 9.08772e-06
1.67119e-05 9.08772e-06 -0.000182075
0.000645832 0.000150253 2.16813e-05
0.000150253 -3.34719e-05 1.5785e-05
2.16813e-05 1.5785e-05 -0.000132594
0.000993288 0.000165161 1.40311e-05
0.000165161 -9.65089e-06 5.49452e-06
1.40311e-05 5.49452e-06 -0.000166924
0.00264989 9.86019e-05 9.96331e-05
9.86019e-05 0.00123226 1.32097e-05
9.96331e-05 1.32097e-05 0.00117212
0.000950167 0.000189254 1.26154e-05
0.000189254 3.9211e-05 6.6729e-06
1.26154e-05 6.6729e-06 -0.000128218
0.000850861 0.000198865 1.0473e-05
0.000198865 8.3813e-05 5.09064e-06
1.0473e-05 5.09064e-06 -9.88096e-05
0.00109086 0.000247223 5.11691e-06
0.000247223 9.59215e-05 2.16823e-06
5.11691e-06 2.16823e-06 -0.000115128
0.0029193 -0.000120973 7.16966e-05
-0.000120973 0.00144995 2.6168e-06
7.16966e-05 2.6168e-06 0.00145004
0.0032976 -0.000141162 1.3018e-05
-0.000141162 0.00168578 -2.38137e-07
1.3018e-05 -2.38137e-07 0.00168023
0.00587457 3.38287e-05 -0.000253936
3.38287e-05 0.00318193 -1.11157e-05
-0.000253936 -1.11157e-05 0.00319418
0.00571319 6.26109e-05 -0.000255621
6.26109e-05 0.00309065 -6.80833e-06
-0.000255621 -6.80833e-06 0.00310507
0.00561147 8.43689e-05 -1.13015e-07
8.43689e-05 0.00304099 -2.97145e-06
-1.13015e-07 -2.97145e-06 0.00305071
0.00352269 1.86683e-05 -0.000110019
1.86683e-05 0.00177276 -4.79033e-06
-0.000110019 -4.79033e-06 0.00176341
0.00164291 3.4517e-05 5.23515e-05
3.4517e-05 0.000525539 1.13679e-06
5.23515e-05 1.13679e-06 0.000463045
0.00368054 0.000119469 -9.86879e-05
0.000119469 0.00187355 -5.15416e-06
-9.86879e-05 -5.15416e-06 0.001855
0.00168497 8.14964e-05 5.2067e-05
8.14964e-05 0.000550544 2.16795e-06
5.2067e-05 2.16795e-06 0.000481783
0.0055766 0.000136031 0.000251899
0.000136031 0.00303008 6.34206e-06
0.000251899 6.34206e-06 0.00303387
0.000556044 1.06331e-05 1.87039e-05
1.06331e-05 -0.000125241 6.20522e-07
1.87039e-05 6.20522e-07 -0.00019894
0.0027335 2.92915e-05 0.000121662
2.92915e-05 0.00117698 4.94668e-06
0.000121662 4.94668e-06 0.00112725
0.00102545 4.04503e-05 1.245e-05
4.04503e-05 -2.21985e-05 1.20486e-06
1.245e-05 1.20486e-06 -0.000147198
0.00264606 0.000105357 0.000124841
0.000105357 0.00113208 9.49918e-06
0.000124841 9.49918e-06 0.00107424
0.00106183 9.58222e-05 1.22368e-05
9.58222e-05 -6.6508e-06 2.50988e-06
1.22368e-05 2.50988e-06 -0.000142733
0.00168917 4.28274e-05 -0.000204894
4.28274e-05 0.000653775 1.95798e-06
-0.000204894 1.95798e-06 0.00064904
0.00129343 -3.33754e-06 -4.4476e-05
-3.33754e-06 0.000440363 1.9227e-06
-4.4476e-05 1.9227e-06 0.000401673
0.00144549 4.97988e-05 -1.74571e-05
4.97988e-05 0.000556225 6.67393e-06
-1.74571e-05 6.67393e-06 0.000509143
0.00126072 -8.33563e-05 -5.81334e-05
-8.33563e-05 0.000431656 8.3202e-06
-5.81334e-05 8.3202e-06 0.000389412
0.00176075 -7.37036e-05 -0.000107146
-7.37036e-05 0.000606823 9.44169e-06
-0.000107146 9.44169e-06 0.000542509
0.00171639 -0.000117607 -0.000107271
-0.000117607 0.000594282 1.5702e-05
-0.000107271 1.5702e-05 0.000525102
0.00162508 -0.000146687 -0.00011122
-0.000146687 0.000562032 1.93199e-05
-0.00011122 1.93199e-05 0.000483254
0.00200712 -0.000237142 -2.87916e-05
-0.000237142 0.000637931 1.0077e-05
-2.87916e-05 1.0077e-05 0.000480701
0.00559959 -8.89677e-05 2.06909e-06
-8.89677e-05 0.00303511 -1.57019e-06
2.06909e-06 -1.57019e-06 0.00304408
0.00154926 4.17785e-05 8.29613e-05
4.17785e-05 0.000580021 -3.35433e-06
8.29613e-05 -3.35433e-06 0.000557719
0.00113371 -3.54911e-06 -5.55117e-05
-3.54911e-06 0.000224193 1.15774e-06
-5.55117e-05 1.15774e-06 0.000160141
0.00164074 -5.7485e-05 -3.08419e-05
-5.7485e-05 0.000537749 1.94759e-06
-3.08419e-05 1.94759e-06 0.000468135
0.00343075 3.19474e-05 0.000182951
3.19474e-05 0.00175125 -5.68755e-06
0.000182951 -5.68755e-06 0.00173812
0.00208897 -0.000113057 -3.4861e-05
-0.000113057 0.000866444 1.38338e-06
-3.4861e-05 1.38338e-06 0.000778747
0.00164621 -0.000112328 -2.64663e-05
-0.000112328 0.000551959 1.88667e-06
-2.64663e-05 1.88667e-06 0.000477239
0.00184369 -0.000145438 -9.17084e-06
-0.000145438 0.000483081 1.63794e-06
-9.17084e-06 1.63794e-06 0.000349163
0.00200315 -0.000259254 -6.61658e-06
-0.000259254 0.000669133 1.9165e-06
-6.61658e-06 1.9165e-06 0.000501019
0.00186649 -0.00020556 -5.25671e-06
-0.00020556 0.000530178 1.33774e-06
-5.25671e-06 1.33774e-06 0.000381427
0.00134629 -0.000262514 3.84153e-07
-0.000262514 0.000107964 -1.22048e-07
3.84153e-07 -1.22048e-07 -8.88581e-05
0.000596323 1.25465e-05 1.93147e-05
1.25465e-05 -0.000104037 -1.07985e-06
1.93147e-05 -1.07985e-06 -0.000174544
0.00151258 1.17172e-05 4.04666e-05
1.17172e-05 0.000460459 -2.60915e-06
4.04666e-05 -2.60915e-06 0.000391199
0.00167439 -3.86456e-05 1.25318e-05
-3.86456e-05 0.000371126 -9.62194e-07
1.25318e-05 -9.62194e-07 0.000255785
0.00168435 -0.000114023 1.23965e-05
-0.000114023 0.000380978 -2.31508e-06
1.23965e-05 -2.31508e-06 0.000252253
0.00168802 -0.000170436 1.46196e-05
-0.000170436 0.000399877 -4.26445e-06
1.46196e-05 -4.26445e-06 0.000258798
0.00174144 -0.000192276 1.19706e-06
-0.000192276 0.000242074 -5.68022e-07
1.19706e-06 -5.68022e-07 8.55555e-05
0.00479531 0.000183405 0.000136697
0.000183405 0.00260673 -9.7713e-06
0.000136697 -9.7713e-06 0.00258506
0.00137592 -0.000243117 5.92947e-06
-0.000243117 8.84635e-05 -1.68576e-06
5.92947e-06 -1.68576e-06 -9.59466e-05
0.000346752 -0.000120698 1.89027e-05
-0.000120698 -0.000171946 -1.57949e-05
1.89027e-05 -1.57949e-05 -0.000252577
0.000865258 -0.000195221 1.10646e-05
-0.000195221 2.22562e-05 -6.87437e-06
1.10646e-05 -6.87437e-06 -0.000151106
0.00137553 -0.000285711 8.07654e-06
-0.000285711 0.000169365 -3.13625e-06
8.07654e-06 -3.13625e-06 -4.29103e-05
0.00163858 -0.000336781 3.14218e-06
-0.000336781 0.000162665 8.49731e-07
3.14218e-06 8.49731e-07 -4.4199e-05
0.00029677 -5.4722e-05 1.11786e-05
-5.4722e-05 -0.000156098 -1.30652e-05
1.11786e-05 -1.30652e-05 -0.00022031
0.000570258 -5.55665e-05 2.9985e-07
-5.55665e-05 1.7352e-05 -4.81295e-06
2.9985e-07 -4.81295e-06 -0.00012052
0.00598208 0.000202714 -0.000272981
0.000202714 0.00326123 -2.414e-05
-0.000272981 -2.414e-05 0.00326271
0.00586329 9.62386e-05 -0.000242927
9.62386e-05 0.00318444 -2.04538e-05
-0.000242927 -2.04538e-05 0.00319181
0.000486418 0.000118414 -1.84696e-05
0.000118414 -0.000143789 -1.09989e-05
-1.84696e-05 -1.09989e-05 -0.000236958
0.00461649 -0.000188125 -0.000131045
-0.000188125 0.00249514 -8.56888e-06
-0.000131045 -8.56888e-06 0.00247578
0.000441147 0.0001448 -2.1707e-05
0.0001448 -0.000121889 -1.5446e-05
-2.1707e-05 -1.5446e-05 -0.000205978
0.000465244 0.0001733 -2.06125e-05
0.0001733 -0.000114083 -1.53827e-05
-2.06125e-05 -1.53827e-05 -0.000218738
0.0008647 0.000188019 -1.21002e-05
0.000188019 2.16899e-05 -5.64866e-06
-1.21002e-05 -5.64866e-06 -0.000149696
0.00406035 -0.000140155 1.06226e-05
-0.000140155 0.00214728 -7.32459e-07
1.06226e-05 -7.32459e-07 0.00214132
0.000521327 -2.23561e-05 4.86956e-07
-2.23561e-05 -9.85305e-06 6.21642e-07
4.86956e-07 6.21642e-07 -5.63857e-05
0.00166141 0.000125516 5.27031e-05
0.000125516 0.000547706 3.77761e-06
5.27031e-05 3.77761e-06 0.000470666
0.00161742 0.000178571 5.15003e-05
0.000178571 0.00055543 3.70886e-06
5.15003e-05 3.70886e-06 0.000467544
0.000975142 0.000164959 1.07838e-07
0.000164959 -1.57206e-05 -2.24015e-07
1.07838e-07 -2.24015e-07 -0.000173485
0.000579593 9.47705e-05 -4.29077e-07
9.47705e-05 -1.55026e-05 -4.55998e-08
-4.29077e-07 -4.55998e-08 -8.76734e-05
0.000914782 0.000186485 6.86294e-07
0.000186485 2.02731e-05 -3.86557e-09
6.86294e-07 -3.86557e-09 -0.000146662
0.00084486 0.00018942 3.92616e-07
0.00018942 7.62783e-05 -1.15975e-06
3.92616e-07 -1.15975e-06 -0.000104317
0.00105849 0.000247443 -3.77117e-07
0.000247443 7.32284e-05 5.99667e-09
-3.77117e-07 5.99667e-09 -0.000138438
0.000703683 4.74526e-05 1.41259e-05
4.74526e-05 8.04792e-05 1.17662e-05
1.41259e-05 1.17662e-05 1.98489e-05
0.000617108 -4.7642e-05 1.93236e-06
-4.7642e-05 4.88281e-05 7.55301e-06
1.93236e-06 7.55301e-06 1.08103e-05
0.00095699 9.52055e-05 2.76377e-06
9.52055e-05 0.000264716 5.21466e-06
2.76377e-06 5.21466e-06 0.000130936
0.00103268 0.000144839 1.33641e-05
0.000144839 -8.76268e-06 4.35939e-06
1.33641e-05 4.35939e-06 -0.000159179
0.000953076 0.000180351 1.38593e-05
0.000180351 5.81971e-07 6.29373e-06
1.38593e-05 6.29373e-06 -0.000162775
0.00144761 0.000259637 5.37739e-06
0.000259637 0.000122264 1.30832e-06
5.37739e-06 1.30832e-06 -7.00905e-05
0.000805841 0.000197477 8.04471e-06
0.000197477 0.000126175 6.45209e-06
8.04471e-06 6.45209e-06 -5.52897e-05
0.00112687 0.000261669 5.19535e-06
0.000261669 5.49101e-05 1.5913e-06
5.19535e-06 1.5913e-06 -0.000154123
0.0011855 0.000263058 6.01505e-06
0.000263058 0.000203515 1.42757e-06
6.01505e-06 1.42757e-06 -2.46383e-05
0.00131445 0.000302382 -1.90651e-06
0.000302382 0.000167107 -1.10376e-06
-1.90651e-06 -1.10376e-06 -6.53317e-05
0.00260665 -0.000124544 3.68789e-05
-0.000124544 0.00125794 2.97074e-06
3.68789e-05 2.97074e-06 0.0012566
0.00279506 -0.000139959 9.646e-06
-0.000139959 0.00137911 -7.50648e-07
9.646e-06 -7.50648e-07 0.00137358
0.00307962 -0.000160876 -5.33673e-05
-0.000160876 0.00155902 -2.56327e-06
-5.33673e-05 -2.56327e-06 0.00154752
0.000375831 -2.9715e-05 8.42249e-06
-2.9715e-05 -0.000102238 -1.04592e-05
8.42249e-06 -1.04592e-05 -0.000156751
0.00419038 0.00015744 0.000115342
0.00015744 0.00223644 -7.52781e-06
0.000115342 -7.52781e-06 0.00222254
0.00596936 0.000183756 -0.000275301
0.000183756 0.00325148 -2.09009e-05
-0.000275301 -2.09009e-05 0.00325564
0.00573952 7.25277e-05 -0.000253925
7.25277e-05 0.00310421 -9.45307e-06
-0.000253925 -9.45307e-06 0.00311778
0.000572609 9.16957e-05 -1.97251e-05
9.16957e-05 -0.000117428 -5.01119e-06
-1.97251e-05 -5.01119e-06 -0.000198273
0.000557321 4.12107e-05 -1.93406e-05
4.12107e-05 -0.000123731 -2.46225e-06
-1.93406e-05 -2.46225e-06 -0.000200327
0.00555277 -1.14485e-05 -0.000244986
-1.14485e-05 0.0029963 -1.70075e-06
-0.000244986 -1.70075e-06 0.00301168
0.00551419 1.60372e-05 -5.43664e-07
1.60372e-05 0.00297462 -5.78286e-07
-5.43664e-07 -5.78286e-07 0.00298972
0.000538661 8.61386e-07 -1.31543e-07
8.61386e-07 -0.00013817 -2.28742e-09
-1.31543e-07 -2.28742e-09 -0.00021011
0.00163013 3.36323e-05 5.24266e-05
3.36323e-05 0.000514951 1.96351e-06
5.24266e-05 1.96351e-06 0.000451648
0.00100037 4.41242e-05 -3.22844e-08
4.41242e-05 -3.82795e-05 -1.28305e-07
-3.22844e-08 -1.28305e-07 -0.000163776
0.000539258 7.70092e-05 -4.24112e-07
7.70092e-05 -0.000133446 -3.15531e-07
-4.24112e-07 -3.15531e-07 -0.000218531
0.00101506 9.70181e-05 -1.43503e-07
9.70181e-05 -3.38605e-05 -1.48335e-07
-1.43503e-07 -1.48335e-07 -0.000170623
0.000532399 -2.86822e-05 1.92362e-05
-2.86822e-05 -0.000143693 -8.39186e-07
1.92362e-05 -8.39186e-07 -0.000213193
0.000999582 1.72184e-05 1.22628e-05
1.72184e-05 -3.22932e-05 5.4436e-07
1.22628e-05 5.4436e-07 -0.000154877
0.00102673 6.79808e-05 1.21668e-05
6.79808e-05 -2.55919e-05 1.90083e-06
1.21668e-05 1.90083e-06 -0.000155338
0.00152615 6.93293e-05 7.88565e-07
6.93293e-05 5.87159e-05 5.11323e-09
7.88565e-07 5.11323e-09 -6.61184e-05
0.00105854 0.000120648 1.26467e-05
0.000120648 -4.71675e-06 3.31021e-06
1.26467e-05 3.31021e-06 -0.000147776
0.00157251 0.000154129 1.96475e-06
0.000154129 9.35859e-05 1.15613e-07
1.96475e-06 1.15613e-07 -5.16982e-05
0.00552156 -4.92266e-05 -0.000250679
-4.92266e-05 0.00298275 1.05891e-06
-0.000250679 1.05891e-06 0.00299567
0.00126408 -0.000140731 -4.6617e-05
-0.000140731 0.000429322 4.99887e-06
-4.6617e-05 4.99887e-06 0.000390027
-0.000273492 -2.55209e-06 -1.27497e-05
-2.55209e-06 -0.000619208 2.10708e-06
-1.27497e-05 2.10708e-06 -0.000704
0.00173633 -5.11332e-05 -0.000107032
-5.11332e-05 0.000589726 6.75996e-06
-0.000107032 6.75996e-06 0.000527081
0.00517521 0.000355591 1.14841e-05
0.000355591 0.00287895 7.45522e-06
1.14841e-05 7.45522e-06 0.00280683
0.00274628 -0.000199469 -0.000112951
-0.000199469 0.00125191 1.95272e-05
-0.000112951 1.95272e-05 0.00117081
0.00175096 -9.58887e-05 -0.00010697
-9.58887e-05 0.00060592 1.25267e-05
-0.00010697 1.25267e-05 0.000540013
0.00176668 -0.000139685 -2.81562e-05
-0.000139685 0.00043364 5.50272e-06
-2.81562e-05 5.50272e-06 0.000300121
0.00200542 -0.000211081 -2.72561e-05
-0.000211081 0.000613122 8.43303e-06
-2.72561e-05 8.43303e-06 0.000464998
0.00202165 -0.000261481 -2.63786e-05
-0.000261481 0.00067966 1.06707e-05
-2.63786e-05 1.06707e-05 0.00051076
0.00136336 -0.000263216 -5.86001e-06
-0.000263216 0.000118716 1.65665e-06
-5.86001e-06 1.65665e-06 -7.7711e-05
0.00053497 6.80659e-06 -6.26292e-08
6.80659e-06 -0.000138837 1.47324e-07
-6.26292e-08 1.47324e-07 -0.000210295
0.00163819 -7.09287e-05 -3.00292e-05
-7.09287e-05 0.000536875 3.32651e-07
-3.00292e-05 3.32651e-07 0.000470365
0.00126079 -3.41298e-05 -7.90473e-06
-3.41298e-05 0.000123313 4.39292e-07
-7.90473e-06 4.39292e-07 3.47643e-06
0.00182882 -0.00011528 -6.12955e-06
-0.00011528 0.00046662 9.38575e-07
-6.12955e-06 9.38575e-07 0.000338818
0.00493908 0.000161768 -6.29388e-06
0.000161768 0.00268509 -9.33805e-07
-6.29388e-06 -9.33805e-07 0.00266825
0.00156682 -0.000109813 -1.10317e-06
-0.000109813 0.000575597 8.77075e-08
-1.10317e-06 8.77075e-08 0.000482052
0.00132563 -0.000222825 1.38093e-06
-0.000222825 0.000307346 -8.92323e-07
1.38093e-06 -8.92323e-07 0.000133116
0.00172381 -0.000171421 -6.37278e-06
-0.000171421 0.000421393 1.4693e-06
-6.37278e-06 1.4693e-06 0.000280066
0.00165163 -0.000190792 -2.09461e-06
-0.000190792 0.000185618 3.90293e-07
-2.09461e-06 3.90293e-07 3.06468e-05
0.00129386 -0.000280641 2.81301e-07
-0.000280641 0.000123587 -1.32625e-07
2.81301e-07 -1.32625e-07 -8.81839e-05
0.00154967 -0.000250554 4.25497e-07
-0.000250554 0.000192412 -1.36118e-07
4.25497e-07 -1.36118e-07 8.97165e-06
0.00166751 -0.000337146 6.44191e-07
-0.000337146 0.000184559 1.03673e-08
6.44191e-07 1.03673e-08 -2.16991e-05
0.000525371 -6.25827e-05 -1.04738e-06
-6.25827e-05 -2.37908e-05 2.59786e-07
-1.04738e-06 2.59786e-07 -8.92525e-05
0.000626883 -8.06975e-05 1.40361e-08
-8.06975e-05 5.06518e-05 8.8994e-08
1.40361e-08 8.8994e-08 -9.05781e-05
0.000983402 -1.64367e-05 1.22204e-05
-1.64367e-05 -3.61905e-05 -7.79501e-07
1.22204e-05 -7.79501e-07 -0.000158371
0.00171472 -7.17329e-05 1.17035e-05
-7.17329e-05 0.000394832 -1.5605e-06
1.17035e-05 -1.5605e-06 0.00027445
0.00169548 -6.34874e-05 2.53052e-07
-6.34874e-05 0.000179857 1.42237e-07
2.53052e-07 1.42237e-07 5.41984e-05
0.00156313 -0.000153067 2.06399e-06
-0.000153067 0.000116821 -4.72728e-08
2.06399e-06 -4.72728e-08 -2.53247e-05
0.00169618 -0.000232083 2.88374e-06
-0.000232083 0.000244715 -5.98799e-07
2.88374e-06 -5.98799e-07 7.68727e-05
0.0018274 -0.000232252 -3.19803e-07
-0.000232252 0.000160415 5.2179e-07
-3.19803e-07 5.2179e-07 1.83684e-05
0.000364369 -9.64021e-05 1.67215e-05
-9.64021e-05 -0.000138188 -1.46288e-05
1.67215e-05 -1.46288e-05 -0.000210851
0.00169346 -0.000308748 1.28467e-06
-0.000308748 0.000157418 8.5439e-07
1.28467e-06 8.5439e-07 -2.5092e-05
0.000716645 -0.000179688 6.999e-06
-0.000179688 1.25607e-05 -7.40296e-06
6.999e-06 -7.40296e-06 -0.000166531
0.00101939 -0.000265847 9.90414e-06
-0.000265847 2.30332e-05 -3.5147e-06
9.90414e-06 -3.5147e-06 -0.000196818
0.00181628 -0.000381037 2.80627e-06
-0.000381037 0.000324338 2.50247e-07
2.80627e-06 2.50247e-07 8.77308e-05
0.00198895 -0.000371658 -1.77507e-06
-0.000371658 0.000320691 3.2711e-06
-1.77507e-06 3.2711e-06 0.000131835
0.000624377 -0.00013418 1.32587e-06
-0.00013418 5.73027e-05 -5.27229e-06
1.32587e-06 -5.27229e-06 -0.000110143
0.000590347 -4.34503e-05 9.2194e-09
-4.34503e-05 3.04471e-05 -4.63201e-06
9.2194e-09 -4.63201e-06 -8.61982e-05
0.00106259 -0.000189482 -1.24993e-06
-0.000189482 0.000333308 1.28368e-06
-1.24993e-06 1.28368e-06 0.000123141
0.000518077 9.77623e-05 -1.78698e-05
9.77623e-05 -0.00013864 -8.42322e-06
-1.78698e-05 -8.42322e-06 -0.00022766
0.0037729 -0.000168812 -9.30777e-05
-0.000168812 0.00198064 -4.06114e-06
-9.30777e-05 -4.06114e-06 0.00196742
0.000367677 -3.48901e-05 -1.1473e-06
-3.48901e-05 -9.60488e-05 -8.8731e-06
-1.1473e-06 -8.8731e-06 -0.000143591
0.000468648 0.000147216 -1.96811e-05
0.000147216 -0.000133137 -1.37113e-05
-1.96811e-05 -1.37113e-05 -0.000232483
0.000956771 0.000164987 -1.46413e-05
0.000164987 -2.20211e-05 -5.9142e-06
-1.46413e-05 -5.9142e-06 -0.000180297
0.000360269 8.70527e-05 -1.81115e-05
8.70527e-05 -0.000146829 -1.37109e-05
-1.81115e-05 -1.37109e-05 -0.000215382
0.000730297 0.000175442 -8.71953e-06
0.000175442 5.38228e-06 -6.96595e-06
-8.71953e-06 -6.96595e-06 -0.000173018
0.000898409 0.000185112 -1.22201e-05
0.000185112 1.25999e-05 -7.02061e-06
-1.22201e-05 -7.02061e-06 -0.000154041
0.000955346 0.00024169 -6.64862e-06
0.00024169 8.75652e-06 -1.90105e-06
-6.64862e-06 -1.90105e-06 -0.000202617
0.000529519 3.62163e-05 2.35959e-06
3.62163e-05 -2.15323e-05 5.06647e-07
2.35959e-06 5.06647e-07 -7.97574e-05
0.000500245 -5.95729e-05 2.95496e-07
-5.95729e-05 -1.67333e-05 2.64955e-07
2.95496e-07 2.64955e-07 -5.66095e-05
0.000585365 4.52434e-05 5.95572e-07
4.52434e-05 2.88113e-05 5.96443e-07
5.95572e-07 5.96443e-07 -9.03084e-05
0.00100554 0.000145112 -1.73182e-08
0.000145112 -2.15754e-05 -2.70583e-07
-1.73182e-08 -2.70583e-07 -0.000172702
0.000944182 0.000179789 3.2607e-07
0.000179789 -3.00766e-07 -2.0729e-07
3.2607e-07 -2.0729e-07 -0.000163811
0.00144469 0.000259651 9.73773e-08
0.000259651 0.000120214 -3.54091e-08
9.73773e-08 -3.54091e-08 -7.25274e-05
0.000821279 0.000180821 -5.50686e-07
0.000180821 0.000135008 -6.59278e-08
-5.50686e-07 -6.59278e-08 -4.43514e-05
0.00122378 0.000265827 3.61224e-07
0.000265827 0.000113543 5.02744e-08
3.61224e-07 5.02744e-08 -9.59134e-05
0.00110488 0.000256719 2.76561e-07
0.000256719 0.000155513 -1.01942e-06
2.76561e-07 -1.01942e-06 -7.12345e-05
0.00130082 0.000312068 -8.27377e-07
0.000312068 0.000152332 3.89169e-09
-8.27377e-07 3.89169e-09 -8.31823e-05
0.00054417 -6.48573e-05 -1.64852e-06
-6.48573e-05 1.77598e-06 6.46626e-06
-1.64852e-06 6.46626e-06 -3.11558e-05
0.000811339 0.000137557 5.56956e-06
0.000137557 0.000156354 4.97438e-06
5.56956e-06 4.97438e-06 -1.89811e-06
0.000671381 1.68711e-05 1.98716e-06
1.68711e-05 7.53828e-05 4.43503e-06
1.98716e-06 4.43503e-06 -1.63334e-05
0.00102938 0.000125781 1.39566e-06
0.000125781 0.000334914 -9.77216e-09
1.39566e-06 -9.77216e-09 0.00014485
0.00151868 0.000231108 3.93811e-06
0.000231108 0.000114669 2.45731e-07
3.93811e-06 2.45731e-07 -6.14816e-05
0.00133695 0.000273356 5.98795e-06
0.000273356 0.000114912 1.72365e-06
5.98795e-06 1.72365e-06 -9.01202e-05
0.00179324 0.000336749 1.16881e-06
0.000336749 0.000213831 -1.4611e-07
1.16881e-06 -1.4611e-07 1.65768e-05
0.00113411 0.000235073 4.45072e-06
0.000235073 0.000253047 2.9226e-06
4.45072e-06 2.9226e-06 3.44209e-05
0.00179323 0.000386475 -1.67053e-06
0.000386475 0.00036168 -7.70688e-07
-1.67053e-06 -7.70688e-07 0.000126064
0.00127203 0.000306925 4.33552e-07
0.000306925 0.000187538 -7.40596e-07
4.33552e-07 -7.40596e-07 -7.18736e-05
0.00148413 0.000352294 2.04848e-07
0.000352294 0.000160179 -2.35837e-07
2.04848e-07 -2.35837e-07 -8.28396e-05
0.000601356 1.50483e-05 2.55296e-06
1.50483e-05 1.92286e-05 2.5421e-06
2.55296e-06 2.5421e-06 -3.47288e-05
0.000517984 -4.22986e-05 7.69763e-07
-4.22986e-05 -4.01669e-05 4.92806e-06
7.69763e-07 4.92806e-06 -6.14839e-05
0.00246591 -0.000108968 2.91059e-05
-0.000108968 0.00116455 3.33029e-06
2.91059e-05 3.33029e-06 0.00116718
0.00254202 -0.000123728 3.84989e-06
-0.000123728 0.00121901 -4.21839e-07
3.84989e-06 -4.21839e-07 0.00121768
0.00269109 -0.00014183 -3.63332e-05
-0.00014183 0.0013175 -2.83397e-06
-3.63332e-05 -2.83397e-06 0.00131109
0.000437371 -1.73273e-05 6.31501e-06
-1.73273e-05 -6.71238e-05 -8.94844e-06
6.31501e-06 -8.94844e-06 -0.000112155
0.00364255 0.000135112 9.86096e-05
0.000135112 0.00189776 -5.67307e-06
9.86096e-05 -5.67307e-06 0.00189069
0.000504637 -3.25386e-05 -3.1213e-07
-3.25386e-05 -2.78457e-05 4.69089e-07
-3.1213e-07 4.69089e-07 -8.29594e-05
0.00439969 0.000142373 -7.86571e-06
0.000142373 0.00235636 -1.0963e-06
-7.86571e-06 -1.0963e-06 0.0023461
0.000565648 0.000101611 -1.93002e-05
0.000101611 -0.00011574 -6.67154e-06
-1.93002e-05 -6.67154e-06 -0.0002024
0.000577116 3.34258e-05 -1.84931e-05
3.34258e-05 -0.000116647 -3.35793e-06
-1.84931e-05 -3.35793e-06 -0.000193699
0.000987942 9.81328e-05 -1.20855e-05
9.81328e-05 -5.04848e-05 -2.79165e-06
-1.20855e-05 -2.79165e-06 -0.0001878
0.000975029 4.61716e-05 -1.23425e-05
4.61716e-05 -5.45085e-05 -1.43127e-06
-1.23425e-05 -1.43127e-06 -0.000180356
0.000592214 -6.91638e-06 -1.94164e-05
-6.91638e-06 -0.00010972 -7.82038e-07
-1.94164e-05 -7.82038e-07 -0.000179673
0.00559606 -9.47389e-05 -0.000257692
-9.47389e-05 0.00303277 4.01609e-06
-0.000257692 4.01609e-06 0.00304289
0.000577958 -8.20234e-07 1.23793e-07
-8.20234e-07 -0.000116983 -5.31625e-07
1.23793e-07 -5.31625e-07 -0.000186593
0.000987524 2.21069e-05 -5.90342e-08
2.21069e-05 -3.99987e-05 -5.88646e-08
-5.90342e-08 -5.88646e-08 -0.000162828
0.00101435 6.97705e-05 -1.14686e-07
6.97705e-05 -3.42855e-05 -9.86583e-08
-1.14686e-07 -9.86583e-08 -0.000164492
0.00152377 6.82343e-05 -6.86826e-08
6.82343e-05 5.97567e-05 1.27199e-07
-6.86826e-08 1.27199e-07 -6.51817e-05
0.00102139 0.00012208 -1.70794e-07
0.00012208 -2.54048e-05 -2.18777e-07
-1.70794e-07 -2.18777e-07 -0.000169399
0.00155069 0.000154101 -8.36048e-08
0.000154101 8.06714e-05 3.10759e-08
-8.36048e-08 3.10759e-08 -6.51542e-05
0.00098214 -1.24596e-06 1.22169e-05
-1.24596e-06 -3.75215e-05 -2.91362e-07
1.22169e-05 -2.91362e-07 -0.000159473
0.00151288 3.54694e-05 1.02665e-06
3.54694e-05 5.69132e-05 1.34265e-07
1.02665e-06 1.34265e-07 -6.34788e-05
0.00154527 0.000110537 1.00562e-06
0.000110537 7.0106e-05 -1.12453e-07
1.00562e-06 -1.12453e-07 -6.33634e-05
0.00185439 9.86844e-05 -1.48452e-06
9.86844e-05 0.000105676 -4.64818e-07
-1.48452e-06 -4.64818e-07 1.20298e-05
0.00156615 0.000196156 2.93013e-06
0.000196156 0.000105369 2.47872e-07
2.93013e-06 2.47872e-07 -5.46277e-05
0.00183828 0.000197029 -6.26535e-08
0.000197029 0.000123726 -1.43824e-06
-6.26535e-08 -1.43824e-06 -1.15667e-06
0.000559 9.97085e-08 -1.85745e-05
9.97085e-08 -0.000122051 1.09592e-06
-1.85745e-05 1.09592e-06 -0.000195373
0.00172193 -2.83661e-05 -0.000106277
-2.83661e-05 0.00058095 4.45805e-06
-0.000106277 4.45805e-06 0.000521298
0.000817679 -2.84196e-05 -1.51982e-05
-2.84196e-05 -0.00014165 1.72729e-06
-1.51982e-05 1.72729e-06 -0.000266231
0.00195595 -0.000115336 -2.52211e-05
-0.000115336 0.000541451 3.98756e-06
-2.52211e-05 3.98756e-06 0.000414752
0.00517697 0.000141038 -0.000171981
0.000141038 0.00282369 1.37251e-05
-0.000171981 1.37251e-05 0.0028096
0.00278625 -0.000161611 -0.00011184
-0.000161611 0.00129747 1.55018e-05
-0.00011184 1.55018e-05 0.00122471
0.00194731 -0.000267333 -2.14549e-05
-0.000267333 0.000685238 9.14459e-06
-2.14549e-05 9.14459e-06 0.000507338
0.00173872 -0.000171013 -2.68557e-05
-0.000171013 0.000430037 6.85513e-06
-2.68557e-05 6.85513e-06 0.000288794
0.00155837 -0.000189194 -5.0631e-06
-0.000189194 0.000126765 8.2208e-07
-5.0631e-06 8.2208e-07 -2.66514e-05
0.00172435 -0.000258106 -6.18216e-06
-0.000258106 0.000297275 1.82174e-06
-6.18216e-06 1.82174e-06 0.000114779
0.00120957 -0.000275936 -7.03558e-06
-0.000275936 7.59055e-05 1.9681e-06
-7.03558e-06 1.9681e-06 -0.000135521
0.00169788 -0.000337942 -1.46137e-06
-0.000337942 0.000206252 -9.6207e-07
-1.46137e-06 -9.6207e-07 5.01654e-07
0.000679755 -7.3816e-05 -1.46028e-05
-7.3816e-05 6.64121e-05 1.30377e-05
-1.46028e-05 1.30377e-05 -1.21405e-06
0.000853384 -0.000105594 -1.1245e-06
-0.000105594 0.000187633 4.31395e-06
-1.1245e-06 4.31395e-06 4.23727e-05
0.000891752 -1.13993e-05 -1.51989e-07
-1.13993e-05 -9.22254e-05 -7.28376e-09
-1.51989e-07 -7.28376e-09 -0.000214367
0.00172383 -7.29476e-05 -6.57111e-06
-7.29476e-05 0.000399021 7.13149e-07
-6.57111e-06 7.13149e-07 0.000278727
0.00173732 -6.00455e-05 -1.52123e-06
-6.00455e-05 0.000201857 2.18248e-07
-1.52123e-06 2.18248e-07 7.95805e-05
0.00161741 -0.000153239 -9.42287e-07
-0.000153239 0.000151501 3.22825e-07
-9.42287e-07 3.22825e-07 7.40164e-06
0.000500709 -0.00010698 7.33876e-07
-0.00010698 -5.69723e-05 3.59345e-07
7.33876e-07 3.59345e-07 -0.000133511
0.000839454 -0.000193908 -7.79117e-07
-0.000193908 8.30276e-05 -5.10219e-07
-7.79117e-07 -5.10219e-07 -9.73767e-05
0.00107644 -0.000271327 2.67226e-06
-0.000271327 5.77142e-05 -8.70055e-07
2.67226e-06 -8.70055e-07 -0.000162749
0.00171368 -0.000231013 -3.00715e-06
-0.000231013 0.000254961 7.79996e-07
-3.00715e-06 7.79996e-07 8.58139e-05
0.00187266 -0.000236463 1.14478e-06
-0.000236463 0.000181312 -3.24185e-07
1.14478e-06 -3.24185e-07 4.33398e-05
0.00184827 -0.000388629 -1.43334e-06
-0.000388629 0.000344918 1.25269e-07
-1.43334e-06 1.25269e-07 0.000106876
0.00171663 -0.000309672 5.24034e-07
-0.000309672 0.00017244 1.29975e-08
5.24034e-07 1.29975e-08 -9.82225e-06
0.00190959 -0.000368743 8.06101e-07
-0.000368743 0.000265964 6.44995e-07
8.06101e-07 6.44995e-07 7.71652e-05
0.000749563 -0.000143624 -4.93698e-08
-0.000143624 0.000129346 -2.52166e-07
-4.93698e-08 -2.52166e-07 -3.75329e-05
0.000540047 -0.000121535 -5.6169e-07
-0.000121535 4.22251e-06 -4.18363e-07
-5.6169e-07 -4.18363e-07 -0.000188679
0.000678025 -5.82642e-05 -1.58782e-08
-5.82642e-05 8.22634e-05 1.64414e-07
-1.58782e-08 1.64414e-07 -3.75207e-05
0.00167204 -2.60658e-05 8.97425e-09
-2.60658e-05 0.000162951 1.10289e-07
8.97425e-09 1.10289e-07 4.19089e-05
0.00177091 -0.000104272 -3.25141e-07
-0.000104272 0.000225606 5.82257e-07
-3.25141e-07 5.82257e-07 9.71473e-05
0.00175725 -8.39621e-05 -1.2501e-06
-8.39621e-05 6.11941e-05 1.17177e-06
-1.2501e-06 1.17177e-06 -3.7074e-05
0.00180493 -0.000191786 -2.46643e-06
-0.000191786 0.000118381 1.31864e-06
-2.46643e-06 1.31864e-06 -4.55383e-06
0.001677 -0.000278041 -3.49302e-07
-0.000278041 0.000108269 1.65939e-06
-3.49302e-07 1.65939e-06 -5.00118e-05
0.00190384 -0.000258387 1.39239e-07
-0.000258387 0.000149324 5.28902e-07
1.39239e-07 5.28902e-07 3.61603e-05
0.000747051 -0.000176603 4.09138e-06
-0.000176603 9.65806e-05 -6.25592e-06
4.09138e-06 -6.25592e-06 -8.14618e-05
0.00177847 -0.000336167 -1.83054e-06
-0.000336167 0.000141874 1.80727e-06
-1.83054e-06 1.80727e-06 -1.96095e-05
0.00103844 -0.000257634 5.21297e-06
-0.000257634 0.000123131 -5.25272e-06
5.21297e-06 -5.25272e-06 -9.90709e-05
0.00147457 -0.000389041 3.63117e-06
-0.000389041 0.000220564 -7.96956e-07
3.63117e-06 -7.96956e-07 -4.82999e-05
0.00194701 -0.000423014 1.54185e-06
-0.000423014 0.000344695 3.2811e-06
1.54185e-06 3.2811e-06 0.000108328
0.00205402 -0.000391477 -2.68412e-06
-0.000391477 0.000336286 3.38284e-06
-2.68412e-06 3.38284e-06 0.000162277
0.000622216 -3.85498e-05 8.11309e-09
-3.85498e-05 5.87797e-05 -4.22463e-06
8.11309e-09 -4.22463e-06 -4.37641e-05
0.000782366 -0.00018551 -1.89845e-07
-0.00018551 0.000112163 -5.70876e-10
-1.89845e-07 -5.70876e-10 -8.02102e-05
0.00046447 -0.000106253 -1.23415e-06
-0.000106253 -2.15427e-06 2.25326e-06
-1.23415e-06 2.25326e-06 -0.000196494
0.00144268 -0.000258063 -3.97253e-06
-0.000258063 0.000514893 2.95155e-06
-3.97253e-06 2.95155e-06 0.000297704
0.000974928 0.000145534 -1.39917e-05
0.000145534 -3.66068e-05 -4.8429e-06
-1.39917e-05 -4.8429e-06 -0.000188462
0.000409093 -6.36394e-05 2.10986e-06
-6.36394e-05 -6.93616e-05 -7.47734e-06
2.10986e-06 -7.47734e-06 -0.000109767
0.000324683 1.66092e-05 -7.67899e-06
1.66092e-05 -0.000138808 -1.14401e-05
-7.67899e-06 -1.14401e-05 -0.000195785
0.000518026 4.42696e-06 -3.60314e-07
4.42696e-06 -9.11076e-06 -5.0504e-06
-3.60314e-07 -5.0504e-06 -0.000124383
0.000928724 0.000178997 -1.40316e-05
0.000178997 -4.81291e-06 -6.81149e-06
-1.40316e-05 -6.81149e-06 -0.000168478
0.00144412 0.000259706 -5.23976e-06
0.000259706 0.000119653 -1.29748e-06
-5.23976e-06 -1.29748e-06 -7.34553e-05
0.000673328 0.000161765 -5.34937e-06
0.000161765 4.5961e-05 -4.774e-06
-5.34937e-06 -4.774e-06 -0.000130468
0.00116113 0.000262514 -6.77006e-06
0.000262514 0.000189705 -3.59233e-06
-6.77006e-06 -3.59233e-06 -3.7336e-05
0.00135809 0.000272885 -5.47228e-06
0.000272885 0.000194437 -2.3314e-06
-5.47228e-06 -2.3314e-06 -1.58649e-05
0.00123164 0.000315864 -2.61121e-06
0.000315864 0.000106229 -9.56977e-08
-2.61121e-06 -9.56977e-08 -0.000131331
0.000491743 -6.41509e-05 -8.27359e-07
-6.41509e-05 -3.05806e-05 3.53796e-07
-8.27359e-07 3.53796e-07 -6.29649e-05
0.00075166 0.000131922 4.79093e-07
0.000131922 0.000131814 -6.25766e-07
4.79093e-07 -6.25766e-07 -2.96673e-05
0.000618909 -3.99265e-06 4.60666e-09
-3.99265e-06 4.70458e-05 5.32072e-07
4.60666e-09 5.32072e-07 -4.29824e-05
0.000767629 0.000104701 1.2722e-06
0.000104701 0.000175029 -7.18241e-07
1.2722e-06 -7.18241e-07 -9.94354e-06
0.00151187 0.000230577 -2.12259e-07
0.000230577 0.000111325 -5.18965e-07
-2.12259e-07 -5.18965e-07 -6.51237e-05
0.00134806 0.000273649 1.61453e-07
0.000273649 0.000125103 -6.79786e-08
1.61453e-07 -6.79786e-08 -8.02409e-05
0.00176827 0.000334812 2.84832e-07
0.000334812 0.000199461 1.91946e-07
2.84832e-07 1.91946e-07 2.29671e-06
0.001044 0.000231528 1.83865e-06
0.000231528 0.000202299 -2.51495e-08
1.83865e-06 -2.51495e-08 -1.56395e-05
0.00176064 0.000377779 -9.47613e-07
0.000377779 0.000343254 -4.54714e-08
-9.47613e-07 -4.54714e-08 0.000109042
0.00126062 0.000307557 1.8075e-07
0.000307557 0.000177049 -1.28848e-06
1.8075e-07 -1.28848e-06 -8.31051e-05
0.00158033 0.000357588 -3.77951e-06
0.000357588 0.000217533 9.76945e-07
-3.77951e-06 9.76945e-07 -2.36268e-05
0.000511809 -5.51279e-05 -3.18041e-07
-5.51279e-05 -3.30826e-05 5.45362e-06
-3.18041e-07 5.45362e-06 -5.89224e-05
0.000664782 -2.05433e-06 1.32084e-06
-2.05433e-06 6.50609e-05 3.88533e-06
1.32084e-06 3.88533e-06 -7.59389e-06
0.00102027 0.000202204 7.8709e-07
0.000202204 0.000264344 1.65217e-06
7.8709e-07 1.65217e-06 6.78706e-05
0.00118381 8.19132e-05 -9.65862e-07
8.19132e-05 0.000437502 2.3447e-06
-9.65862e-07 2.3447e-06 0.000274793
0.00116692 0.000200173 -1.16665e-06
0.000200173 0.000387126 -1.98461e-06
-1.16665e-06 -1.98461e-06 0.000184198
0.00184303 0.000296872 7.6199e-07
0.000296872 0.000192876 -1.67404e-06
7.6199e-07 -1.67404e-06 2.08945e-05
0.00171869 0.000369891 5.79853e-07
0.000369891 0.000237858 -1.49336e-07
5.79853e-07 -1.49336e-07 1.66753e-05
0.00186734 0.000371393 -6.33323e-08
0.000371393 0.000223428 -2.16957e-07
-6.33323e-08 -2.16957e-07 3.35393e-05
0.00115166 0.000294405 3.31943e-06
0.000294405 0.000203589 3.93033e-06
3.31943e-06 3.93033e-06 -5.07194e-05
0.00202364 0.000448808 2.31617e-07
0.000448808 0.000431737 -6.11542e-07
2.31617e-07 -6.11542e-07 0.000187093
0.000890933 0.000302611 4.98755e-06
0.000302611 -0.000103892 -1.74195e-06
4.98755e-06 -1.74195e-06 -0.000366317
0.000602184 9.5055e-06 2.77949e-06
9.5055e-06 1.93825e-05 2.62609e-06
2.77949e-06 2.62609e-06 -3.64977e-05
0.00067599 5.4994e-05 1.71412e-07
5.4994e-05 9.41447e-05 1.30309e-06
1.71412e-07 1.30309e-06 1.09595e-06
0.000620991 2.54277e-05 2.39099e-06
2.54277e-05 3.6042e-05 2.57641e-06
2.39099e-06 2.57641e-06 -1.79188e-05
0.000586534 -1.02326e-05 -5.56194e-07
-1.02326e-05 1.21696e-05 -6.73926e-09
-5.56194e-07 -6.73926e-09 -4.25445e-05
0.00124571 -5.0209e-05 1.12876e-06
-5.0209e-05 0.000396092 2.82776e-06
1.12876e-06 2.82776e-06 0.000380754
0.000905057 -5.02892e-05 4.75959e-07
-5.02892e-05 0.000194138 -1.02377e-07
4.75959e-07 -1.02377e-07 0.000174752
0.000885756 -5.31469e-05 2.39905e-05
-5.31469e-05 0.000194064 7.73764e-06
2.39905e-05 7.73764e-06 0.000194524
0.00243018 -0.000106365 4.35736e-06
-0.000106365 0.00114188 -3.94679e-07
4.35736e-06 -3.94679e-07 0.00114506
0.00247262 -0.000119668 -3.38423e-05
-0.000119668 0.00117642 -3.05091e-06
-3.38423e-05 -3.05091e-06 0.00117602
0.000427042 6.77587e-06 2.11266e-06
6.77587e-06 -6.98533e-05 -7.08775e-06
2.11266e-06 -7.08775e-06 -0.000106614
0.00328431 0.000136429 6.71957e-05
0.000136429 0.00167441 -3.67845e-06
6.71957e-05 -3.67845e-06 0.0016679
0.000527627 -1.78399e-05 -6.12588e-07
-1.78399e-05 -1.36208e-05 1.35789e-07
-6.12588e-07 1.35789e-07 -5.953e-05
0.00384571 0.000125441 -6.87316e-06
0.000125441 0.00201729 -6.39108e-07
-6.87316e-06 -6.39108e-07 0.0020124
0.000667375 -3.58047e-05 -9.04591e-06
-3.58047e-05 6.68907e-05 1.09991e-05
-9.04591e-06 1.09991e-05 1.06645e-05
0.00455761 0.000126001 -0.000151141
0.000126001 0.00244534 1.06301e-05
-0.000151141 1.06301e-05 0.00243865
0.000988535 0.000123496 -1.28927e-05
0.000123496 -4.35609e-05 -3.70469e-06
-1.28927e-05 -3.70469e-06 -0.000188398
0.000986433 7.33399e-05 -1.21058e-05
7.33399e-05 -5.12301e-05 -2.07829e-06
-1.21058e-05 -2.07829e-06 -0.000182147
0.00154838 0.000150988 -2.87321e-06
0.000150988 8.02365e-05 -1.52122e-07
-2.87321e-06 -1.52122e-07 -6.55889e-05
0.00152107 6.72879e-05 -1.24419e-06
6.72879e-05 6.07622e-05 2.8512e-07
-1.24419e-06 2.8512e-07 -6.42867e-05
0.000980882 2.60851e-05 -1.2302e-05
2.60851e-05 -4.50115e-05 -7.04009e-07
-1.2302e-05 -7.04009e-07 -0.000168092
0.000542258 2.81733e-05 -1.92265e-05
2.81733e-05 -0.000138692 -2.29466e-07
-1.92265e-05 -2.29466e-07 -0.000207769
0.000980778 1.49158e-06 -8.10309e-09
1.49158e-06 -3.92601e-05 -1.26109e-07
-8.10309e-09 -1.26109e-07 -0.000161254
0.00150956 3.66926e-05 -6.8408e-08
3.66926e-05 5.60429e-05 9.33557e-08
-6.8408e-08 9.33557e-08 -6.44811e-05
0.00154527 0.000107879 -8.08408e-09
0.000107879 7.23558e-05 -2.18617e-08
-8.08408e-09 -2.18617e-08 -6.10887e-05
0.00182855 9.67108e-05 1.00385e-07
9.67108e-05 8.50402e-05 3.56742e-07
1.00385e-07 3.56742e-07 -5.4264e-06
0.00155025 0.000194831 -2.80906e-07
0.000194831 9.88408e-05 -6.18922e-08
-2.80906e-07 -6.18922e-08 -6.13156e-05
0.00183936 0.000195029 -4.15637e-07
0.000195029 0.00012783 3.44666e-08
-4.15637e-07 3.44666e-08 3.01846e-06
0.00150421 3.61003e-06 1.25563e-06
3.61003e-06 5.56183e-05 6.48816e-08
1.25563e-06 6.48816e-08 -6.37778e-05
0.00185604 4.95907e-05 -2.88899e-06
4.95907e-05 0.000106997 3.40528e-08
-2.88899e-06 3.40528e-08 2.66235e-05
0.00186379 0.000151145 -8.92928e-07
0.000151145 0.000118141 -9.66461e-07
-8.92928e-07 -9.66461e-07 1.13776e-05
0.00180942 9.77819e-05 4.78678e-06
9.77819e-05 2.64935e-05 1.00623e-06
4.78678e-06 1.00623e-06 -3.76243e-05
0.00186431 0.000247657 2.20928e-07
0.000247657 0.000172813 -1.37452e-06
2.20928e-07 -1.37452e-06 2.59494e-05
0.00179773 0.000215433 7.70929e-07
0.000215433 3.70441e-05 -8.12222e-07
7.70929e-07 -8.12222e-07 -6.08731e-05
0.000802406 -7.84651e-06 -1.22e-05
-7.84651e-06 -0.000146909 6.83127e-07
-1.22e-05 6.83127e-07 -0.000269079
0.00175558 -7.5374e-05 -2.47258e-05
-7.5374e-05 0.000416807 2.94955e-06
-2.47258e-05 2.94955e-06 0.000296548
0.00180418 -5.45713e-05 -4.56929e-06
-5.45713e-05 0.000238393 -1.16356e-07
-4.56929e-06 -1.16356e-07 0.000119776
0.00167532 -0.000153425 -3.70943e-06
-0.000153425 0.00018849 9.21854e-07
-3.70943e-06 9.21854e-07 4.24455e-05
0.000724108 -0.000125829 -1.97843e-05
-0.000125829 7.48953e-05 1.54135e-05
-1.97843e-05 1.54135e-05 -5.69065e-06
0.00073823 -0.000192761 -9.26262e-06
-0.000192761 2.46672e-05 6.82406e-06
-9.26262e-06 6.82406e-06 -0.000155287
0.00114959 -0.000277537 -5.14589e-06
-0.000277537 0.00010248 2.62013e-06
-5.14589e-06 2.62013e-06 -0.00011864
0.00173157 -0.000229812 -7.51299e-06
-0.000229812 0.000265322 2.11778e-06
-7.51299e-06 2.11778e-06 9.49019e-05
0.00191979 -0.000240668 6.51812e-07
-0.000240668 0.000202986 -1.34382e-06
6.51812e-07 -1.34382e-06 6.912e-05
0.00173809 -0.000310476 -6.74848e-07
-0.000310476 0.000186464 -7.21014e-07
-6.74848e-07 -7.21014e-07 4.4651e-06
0.00186814 -0.000394672 -4.00203e-06
-0.000394672 0.000358928 -1.10735e-06
-4.00203e-06 -1.10735e-06 0.000119828
0.00182999 -0.000364693 3.1104e-06
-0.000364693 0.000211501 -2.57273e-06
3.1104e-06 -2.57273e-06 2.3119e-05
0.000774512 -0.000145347 -3.19555e-06
-0.000145347 0.000135503 5.5554e-06
-3.19555e-06 5.5554e-06 -2.82871e-05
0.000423996 -0.000103903 5.81958e-07
-0.000103903 -6.50393e-05 -1.84227e-06
5.81958e-07 -1.84227e-06 -0.000256447
0.000691315 -6.87885e-05 -9.30439e-07
-6.87885e-05 8.94699e-05 4.00026e-06
-9.30439e-07 4.00026e-06 -3.31344e-05
0.00161044 -2.34738e-05 -1.75068e-06
-2.34738e-05 0.000124307 1.47283e-07
-1.75068e-06 1.47283e-07 3.61333e-06
0.00176607 -0.000112335 -2.92198e-06
-0.000112335 0.000221351 4.304e-07
-2.92198e-06 4.304e-07 9.18518e-05
0.00181142 -8.16608e-05 2.10796e-06
-8.16608e-05 9.40841e-05 4.00195e-07
2.10796e-06 4.00195e-07 1.61382e-06
0.00178618 -0.000187101 -1.89523e-06
-0.000187101 0.000106777 6.14942e-07
-1.89523e-06 6.14942e-07 -1.76633e-05
0.000765559 -0.00018434 2.68205e-07
-0.00018434 0.000109875 -3.64281e-08
2.68205e-07 -3.64281e-08 -6.99033e-05
0.00112563 -0.000267843 -1.35936e-06
-0.000267843 0.000167655 -5.01447e-07
-1.35936e-06 -5.01447e-07 -5.62123e-05
0.00146842 -0.000383123 2.26137e-06
-0.000383123 0.000227617 -1.94024e-08
2.26137e-06 -1.94024e-08 -3.9751e-05
0.00167998 -0.000276609 -1.17818e-06
-0.000276609 0.000113045 7.07147e-07
-1.17818e-06 7.07147e-07 -4.91255e-05
0.0019252 -0.000260336 1.76635e-06
-0.000260336 0.000158945 -3.13408e-07
1.76635e-06 -3.13408e-07 4.96162e-05
0.0018563 -0.000423356 -6.24765e-07
-0.000423356 0.000285136 4.06396e-07
-6.24765e-07 4.06396e-07 4.61667e-05
0.00180155 -0.000336413 9.85473e-08
-0.000336413 0.000155934 4.21539e-07
9.85473e-08 4.21539e-07 -5.3879e-06
0.00206997 -0.000386578 2.02025e-06
-0.000386578 0.000342202 -3.39857e-07
2.02025e-06 -3.39857e-07 0.000172338
0.00101659 -0.000213209 3.01851e-07
-0.000213209 0.000253225 8.26616e-07
3.01851e-07 8.26616e-07 5.32499e-05
0.00116919 -0.000241336 -3.62344e-07
-0.000241336 0.000356953 2.56034e-07
-3.62344e-07 2.56034e-07 0.000138793
0.000616732 -4.61641e-05 -1.51093e-07
-4.61641e-05 5.30623e-05 1.77219e-07
-1.51093e-07 1.77219e-07 -4.98591e-05
0.000338562 -5.37254e-05 -7.97627e-08
-5.37254e-05 -9.17489e-05 -9.09394e-07
-7.97627e-08 -9.09394e-07 -0.000270599
0.00182523 -4.4219e-05 -2.04055e-06
-4.4219e-05 9.83704e-05 4.35143e-07
-2.04055e-06 4.35143e-07 1.09951e-05
0.00183128 -0.000134167 -1.00757e-07
-0.000134167 0.000113208 1.2168e-06
-1.00757e-07 1.2168e-06 5.8521e-06
0.00171143 -8.91083e-05 3.70441e-06
-8.91083e-05 -6.85482e-06 -5.11007e-07
3.70441e-06 -5.11007e-07 -7.48384e-05
0.00186269 -0.000212868 -2.33844e-06
-0.000212868 7.89443e-05 3.65044e-07
-2.33844e-06 3.65044e-07 -7.79002e-06
0.00175515 -0.0002988 -3.03324e-06
-0.0002988 9.47516e-05 2.07392e-06
-3.03324e-06 2.07392e-06 -3.87614e-05
0.00193936 -0.000269702 3.84322e-06
-0.000269702 0.000152618 -1.48623e-06
3.84322e-06 -1.48623e-06 5.41283e-05
0.000999574 -0.000240933 1.3751e-06
-0.000240933 0.000177481 -4.66326e-06
1.3751e-06 -4.66326e-06 -3.54859e-05
0.00168939 -0.000346551 -3.92265e-06
-0.000346551 7.13819e-05 1.93003e-06
-3.92265e-06 1.93003e-06 -6.72153e-05
0.00152917 -0.000371303 2.81319e-06
-0.000371303 0.000366279 -3.34442e-06
2.81319e-06 -3.34442e-06 9.37522e-05
0.00173224 -0.000464913 -1.87957e-06
-0.000464913 0.000314289 1.94827e-06
-1.87957e-06 1.94827e-06 2.17284e-05
0.001802 -0.000429871 2.5782e-06
-0.000429871 0.000207488 4.72077e-06
2.5782e-06 4.72077e-06 -2.53983e-05
0.00215681 -0.000384318 6.33179e-07
-0.000384318 0.000380079 1.55906e-07
6.33179e-07 1.55906e-07 0.000214566
0.000515477 -4.47835e-05 3.4243e-07
-4.47835e-05 -5.99795e-06 -3.78181e-06
3.4243e-07 -3.78181e-06 -9.36457e-05
0.000460378 -5.75863e-05 -3.14459e-06
-5.75863e-05 -6.73215e-06 -6.83851e-07
-3.14459e-06 -6.83851e-07 -0.00016583
0.000893583 -0.000239068 -1.90213e-06
-0.000239068 0.000134907 4.88047e-07
-1.90213e-06 4.88047e-07 -7.7893e-05
0.000830412 -0.000168877 -1.26959e-06
-0.000168877 0.000218995 4.38876e-06
-1.26959e-06 4.38876e-06 5.22832e-06
0.00155393 -0.000301744 -6.94756e-06
-0.000301744 0.000569323 3.95896e-06
-6.94756e-06 3.95896e-06 0.000344801
0.000444335 -6.29908e-05 -2.46466e-07
-6.29908e-05 -6.01737e-05 -5.55865e-06
-2.46466e-07 -5.55865e-06 -9.16976e-05
0.00150249 0.000229736 -4.35095e-06
0.000229736 0.000106963 -1.21e-06
-4.35095e-06 -1.21e-06 -6.97421e-05
0.000540499 -2.37598e-05 -1.26404e-07
-2.37598e-05 4.35728e-06 -4.1634e-06
-1.26404e-07 -4.1634e-06 -8.51675e-05
0.00067673 0.000113268 -2.16752e-06
0.000113268 8.07092e-05 -4.88552e-06
-2.16752e-06 -4.88552e-06 -7.28066e-05
0.000454808 8.40101e-05 1.36424e-06
8.40101e-05 -1.61986e-05 -3.09428e-08
1.36424e-06 -3.09428e-08 -0.000195802
0.00135943 0.000274148 -5.81217e-06
0.000274148 0.000135024 -1.79749e-06
-5.81217e-06 -1.79749e-06 -7.06979e-05
0.00174234 0.000332956 3.33326e-08
0.000332956 0.000184023 6.8002e-07
3.33326e-08 6.8002e-07 -1.30928e-05
0.00102165 0.000238164 -2.17703e-06
0.000238164 0.000190996 -3.8709e-06
-2.17703e-06 -3.8709e-06 -2.9897e-05
0.00142225 0.000326526 -2.65159e-06
0.000326526 0.000267485 -2.13492e-06
-2.65159e-06 -2.13492e-06 2.77098e-06
0.00171308 0.000368157 -9.03353e-07
0.000368157 0.000315026 2.40545e-07
-9.03353e-07 2.40545e-07 8.23543e-05
0.00169791 0.000366756 -2.78527e-06
0.000366756 0.0002881 5.73575e-06
-2.78527e-06 5.73575e-06 4.77073e-05
0.000520216 -5.02596e-05 2.32661e-08
-5.02596e-05 -3.05341e-05 2.30317e-09
2.32661e-08 2.30317e-09 -5.50181e-05
0.000622161 -1.14521e-05 -6.66238e-07
-1.14521e-05 4.30685e-05 4.17096e-07
-6.66238e-07 4.17096e-07 -2.97007e-05
0.000977353 0.00020344 -1.79814e-08
0.00020344 0.00024037 9.79819e-07
-1.79814e-08 9.79819e-07 4.31939e-05
0.000678171 3.68628e-05 -5.8499e-07
3.68628e-05 0.000124476 -6.94647e-08
-5.8499e-07 -6.94647e-08 -2.59464e-05
0.000638702 0.000139214 6.94429e-07
0.000139214 5.82605e-05 -4.03556e-07
6.94429e-07 -4.03556e-07 -0.000129558
0.00181571 0.000296778 -5.2328e-07
0.000296778 0.000174151 -1.04725e-06
-5.2328e-07 -1.04725e-06 1.76499e-06
0.00168675 0.000368381 5.33158e-07
0.000368381 0.000216244 1.05342e-07
5.33158e-07 1.05342e-07 -5.04043e-06
0.00179171 0.00036772 1.71716e-06
0.00036772 0.000180737 2.36403e-07
1.71716e-06 2.36403e-07 -9.40785e-06
0.00128378 0.000305342 1.56097e-06
0.000305342 0.000291985 7.91475e-07
1.56097e-06 7.91475e-07 3.45966e-05
0.00188463 0.000435465 1.38588e-06
0.000435465 0.000331186 8.52846e-08
1.38588e-06 8.52846e-08 8.72284e-05
0.00149242 0.000355858 -1.89026e-06
0.000355858 0.000256714 1.30309e-07
-1.89026e-06 1.30309e-07 -1.32686e-05
0.000680846 2.85992e-06 1.95482e-06
2.85992e-06 6.8389e-05 2.92109e-06
1.95482e-06 2.92109e-06 7.23763e-06
0.000975646 8.04943e-05 9.01817e-07
8.04943e-05 0.000291424 2.59167e-06
9.01817e-07 2.59167e-06 0.000169427
0.00111783 0.00026147 -3.27897e-06
0.00026147 0.000268768 -1.38278e-06
-3.27897e-06 -1.38278e-06 5.70812e-05
0.0013837 0.000108113 -3.37942e-07
0.000108113 0.000555766 4.36314e-07
-3.37942e-07 4.36314e-07 0.000368858
0.00116979 0.00016676 -6.37093e-06
0.00016676 0.000323917 -6.39604e-06
-6.37093e-06 -6.39604e-06 0.000153422
0.00182814 0.000307355 -2.83759e-06
0.000307355 0.000152018 -2.54949e-06
-2.83759e-06 -2.54949e-06 -2.53929e-06
0.00186074 0.000422552 8.29159e-07
0.000422552 0.000266097 2.98635e-07
8.29159e-07 2.98635e-07 4.29059e-05
0.00160404 0.000393064 3.61366e-06
0.000393064 4.13893e-05 -5.35563e-07
3.61366e-06 -5.35563e-07 -0.00014696
0.000555213 0.000259379 -1.33873e-06
0.000259379 -0.000131719 2.55306e-06
-1.33873e-06 2.55306e-06 -0.000395615
0.0013859 0.000392066 7.02923e-06
0.000392066 0.000114762 -1.55619e-06
7.02923e-06 -1.55619e-06 -0.000144775
0.000607952 2.30556e-06 -1.95055e-07
2.30556e-06 2.16291e-05 3.87136e-08
-1.95055e-07 3.87136e-08 -3.36464e-05
0.000532391 3.10748e-05 1.46234e-06
3.10748e-05 -3.7851e-06 1.83096e-06
1.46234e-06 1.83096e-06 -9.06705e-05
0.000523758 2.41765e-05 -6.06434e-07
2.41765e-05 -6.27546e-06 -1.4322e-07
-6.06434e-07 -1.4322e-07 -9.1821e-05
0.000942173 0.000106575 3.05833e-07
0.000106575 0.000257986 -7.28133e-07
3.05833e-07 -7.28133e-07 0.000149519
0.000672204 8.17574e-05 2.07164e-06
8.17574e-05 9.44291e-05 1.74057e-06
2.07164e-06 1.74057e-06 2.25422e-06
0.000592321 3.74294e-05 2.50478e-06
3.74294e-05 2.5322e-05 2.66757e-06
2.50478e-06 2.66757e-06 -2.98781e-05
0.000589261 -3.10727e-06 -6.1061e-07
-3.10727e-06 1.79545e-05 -2.27545e-08
-6.1061e-07 -2.27545e-08 -3.62625e-05
0.00124614 -3.68247e-05 9.86224e-07
-3.68247e-05 0.000393689 2.67472e-06
9.86224e-07 2.67472e-06 0.000380241
0.000598443 -7.01539e-06 -1.58515e-06
-7.01539e-06 1.71366e-05 -2.61704e-06
-1.58515e-06 -2.61704e-06 -3.60232e-05
0.00130094 -4.68401e-05 -5.73109e-06
-4.68401e-05 0.000429223 -1.43767e-06
-5.73109e-06 -1.43767e-06 0.000414426
0.000846926 -4.10359e-05 2.44785e-05
-4.10359e-05 0.000162247 7.85076e-06
2.44785e-05 7.85076e-06 0.00016609
0.0013201 -5.61878e-05 -9.95711e-06
-5.61878e-05 0.000446166 -4.04334e-06
-9.95711e-06 -4.04334e-06 0.000429121
0.0016001 -7.10623e-05 2.19032e-05
-7.10623e-05 0.000628573 1.86626e-06
2.19032e-05 1.86626e-06 0.000632294
0.00237766 -0.000103015 -2.98304e-05
-0.000103015 0.0011088 -3.62491e-06
-2.98304e-05 -3.62491e-06 0.00111269
0.000427391 6.99237e-05 -3.34634e-06
6.99237e-05 -6.1609e-05 -5.7187e-06
-3.34634e-06 -5.7187e-06 -9.70438e-05
0.000490848 1.02576e-05 4.4424e-07
1.02576e-05 -2.97582e-05 4.3066e-07
4.4424e-07 4.3066e-07 -6.88399e-05
0.00282619 0.000132309 3.064e-05
0.000132309 0.0013935 -3.76073e-06
3.064e-05 -3.76073e-06 0.00138817
0.00338042 0.000111648 -7.88609e-06
0.000111648 0.00172954 -5.4145e-07
-7.88609e-06 -5.4145e-07 0.00172901
0.000605589 -1.99278e-05 -7.26123e-06
-1.99278e-05 3.22811e-05 9.08292e-06
-7.26123e-06 9.08292e-06 -1.44057e-05
0.00400858 0.000106541 -0.000132812
0.000106541 0.0021096 8.65049e-06
-0.000132812 8.65049e-06 0.00210906
0.00153503 0.000193878 -3.62268e-06
0.000193878 9.19953e-05 -3.50838e-07
-3.62268e-06 -3.50838e-07 -6.83966e-05
0.00152927 0.000108061 -1.72931e-06
0.000108061 6.4197e-05 3.42722e-08
-1.72931e-06 3.42722e-08 -6.97071e-05
0.00183428 0.000194157 -7.45643e-07
0.000194157 0.000127551 1.50857e-06
-7.45643e-07 1.50857e-06 2.60457e-06
0.00182526 9.51701e-05 7.00523e-07
9.51701e-05 7.75242e-05 7.60416e-07
7.00523e-07 7.60416e-07 -9.47723e-06
0.00150059 3.92609e-05 -1.16362e-06
3.92609e-05 5.26514e-05 8.7504e-08
-1.16362e-06 8.7504e-08 -6.80605e-05
0.000985511 6.11781e-06 -1.20668e-05
6.11781e-06 -3.71012e-05 -6.6297e-08
-1.20668e-05 -6.6297e-08 -0.000159061
0.00150108 7.22457e-06 6.91874e-08
7.22457e-06 5.59627e-05 4.25774e-08
6.91874e-08 4.25774e-08 -6.35026e-05
0.00183421 4.10132e-05 -1.92889e-06
4.10132e-05 9.36503e-05 -8.55396e-08
-1.92889e-06 -8.55396e-08 1.36175e-05
0.00184557 0.000149199 -3.52184e-07
0.000149199 0.000106854 2.17151e-07
-3.52184e-07 2.17151e-07 2.68824e-07
0.00183015 9.65565e-05 2.31433e-06
9.65565e-05 3.52912e-05 6.05285e-07
2.31433e-06 6.05285e-07 -2.36634e-05
0.00183742 0.000248271 -2.90468e-07
0.000248271 0.000151776 -1.63048e-07
-2.90468e-07 -1.63048e-07 4.2489e-06
0.0018322 0.000212023 -3.67545e-07
0.000212023 5.77712e-05 7.23187e-07
-3.67545e-07 7.23187e-07 -3.62468e-05
0.00182793 4.54779e-07 -2.14537e-06
4.54779e-07 9.8547e-05 1.0894e-07
-2.14537e-06 1.0894e-07 1.88986e-05
0.00182005 4.46569e-05 5.12434e-06
4.46569e-05 3.81587e-05 3.46874e-07
5.12434e-06 3.46874e-07 -1.36903e-05
0.00186352 0.000155841 1.34072e-06
0.000155841 5.65622e-05 1.99082e-07
1.34072e-06 1.99082e-07 -1.52062e-05
0.00190798 0.000100262 6.30925e-06
0.000100262 5.66684e-05 1.14012e-06
6.30925e-06 1.14012e-06 1.54437e-05
0.00183086 0.000247019 2.88418e-07
0.000247019 0.000105569 -1.97425e-06
2.88418e-07 -1.97425e-06 -1.49411e-05
0.00182534 0.000217391 4.11309e-06
0.000217391 1.49398e-05 1.24202e-06
4.11309e-06 1.24202e-06 -6.34623e-05
0.00153715 -2.1017e-05 -2.99531e-06
-2.1017e-05 7.92634e-05 -5.27468e-08
-2.99531e-06 -5.27468e-08 -4.10921e-05
0.00177686 -0.000118004 -5.59082e-06
-0.000118004 0.000226312 5.79156e-07
-5.59082e-06 5.79156e-07 9.60617e-05
0.00185473 -8.05674e-05 2.84441e-06
-8.05674e-05 0.00012116 -1.48258e-06
2.84441e-06 -1.48258e-06 3.43085e-05
0.0017558 -0.000182703 -4.83657e-07
-0.000182703 8.87544e-05 -7.38306e-08
-4.83657e-07 -7.38306e-08 -3.72874e-05
0.000839476 -0.000206106 -5.88076e-06
-0.000206106 0.000158155 7.54824e-06
-5.88076e-06 7.54824e-06 -2.55583e-05
0.00122897 -0.000279513 -7.22117e-06
-0.000279513 0.000221611 3.96479e-06
-7.22117e-06 3.96479e-06 -4.17608e-06
0.00130927 -0.000363289 2.94471e-07
-0.000363289 0.000143506 7.1303e-07
2.94471e-07 7.1303e-07 -0.000120724
0.0016859 -0.000275343 -1.01613e-06
-0.000275343 0.000119533 9.94017e-08
-1.01613e-06 9.94017e-08 -4.65554e-05
0.00195013 -0.000261879 1.84653e-06
-0.000261879 0.000171797 -1.41811e-06
1.84653e-06 -1.41811e-06 6.6354e-05
0.00182698 -0.000336856 2.21423e-06
-0.000336856 0.000171252 -9.38016e-07
2.21423e-06 -9.38016e-07 1.00614e-05
0.00178766 -0.000426722 -7.85512e-07
-0.000426722 0.000238273 -1.95969e-06
-7.85512e-07 -1.95969e-06 -4.02039e-06
0.00206876 -0.000381189 5.51549e-06
-0.000381189 0.000339629 -6.04799e-06
5.51549e-06 -6.04799e-06 0.000173836
0.000962443 -0.000211424 7.60338e-07
-0.000211424 0.000220599 1.65084e-06
7.60338e-07 1.65084e-06 1.99355e-05
0.00046815 -0.000162551 1.71757e-06
-0.000162551 -7.28948e-05 -4.47288e-07
1.71757e-06 -4.47288e-07 -0.000275701
0.000729118 -5.45619e-05 -6.94762e-07
-5.45619e-05 0.000117706 3.84632e-06
-6.94762e-07 3.84632e-06 1.42728e-05
0.000175247 -2.3269e-05 2.00611e-06
-2.3269e-05 -0.000196978 -3.42601e-06
2.00611e-06 -3.42601e-06 -0.000363698
0.00183201 -4.42259e-05 4.09933e-08
-4.42259e-05 0.000103885 1.98677e-07
4.09933e-08 1.98677e-07 1.6422e-05
0.00180003 -0.00013391 1.02417e-06
-0.00013391 9.80998e-05 -3.62684e-07
1.02417e-06 -3.62684e-07 -1.15217e-05
0.00175912 -8.82025e-05 2.47694e-06
-8.82025e-05 2.21636e-05 -6.22197e-07
2.47694e-06 -6.22197e-07 -4.16895e-05
0.0018388 -0.000210173 -2.03804e-06
-0.000210173 6.98257e-05 6.25572e-07
-2.03804e-06 6.25572e-07 -1.93229e-05
0.00101343 -0.000234493 -1.39187e-06
-0.000234493 0.000190632 2.99921e-07
-1.39187e-06 2.99921e-07 -2.11672e-05
0.00111901 -0.00032548 1.92553e-06
-0.00032548 0.000122856 -1.57656e-06
1.92553e-06 -1.57656e-06 -0.000139373
0.00164563 -0.000463798 -6.63405e-08
-0.000463798 0.000260336 6.72411e-07
-6.63405e-08 6.72411e-07 -3.55952e-05
0.00173419 -0.000295825 -1.58216e-06
-0.000295825 8.93523e-05 7.91634e-07
-1.58216e-06 7.91634e-07 -4.78102e-05
0.00188 -0.000268097 1.71226e-06
-0.000268097 0.000118222 -8.78112e-07
1.71226e-06 -8.78112e-07 2.30523e-05
0.0017878 -0.00043238 -3.65471e-07
-0.00043238 0.000207859 5.82145e-07
-3.65471e-07 5.82145e-07 -2.69368e-05
0.00174265 -0.000350492 -7.33921e-07
-0.000350492 9.64009e-05 1.08809e-06
-7.33921e-07 1.08809e-06 -4.28993e-05
0.00196751 -0.000370809 3.74826e-06
-0.000370809 0.000257899 -5.68782e-06
3.74826e-06 -5.68782e-06 9.86206e-05
0.00109872 -0.000259976 4.33618e-07
-0.000259976 0.000252267 1.42895e-06
4.33618e-07 1.42895e-06 3.62435e-05
0.00137763 -0.000278764 4.86123e-06
-0.000278764 0.000454641 1.80493e-06
4.86123e-06 1.80493e-06 0.000239791
0.000806342 -0.000137093 -1.66971e-07
-0.000137093 0.00020261 -1.83217e-07
-1.66971e-07 -1.83217e-07 -1.35655e-05
0.000444418 -1.64663e-05 -1.62853e-06
-1.64663e-05 -4.89196e-05 5.44835e-07
-1.62853e-06 5.44835e-07 -0.00013788
0.000266083 -1.73368e-05 -3.03321e-07
-1.73368e-05 -0.000127936 -4.97853e-07
-3.03321e-07 -4.97853e-07 -0.000279264
0.00182481 -5.41175e-05 3.52742e-06
-5.41175e-05 4.11983e-05 -8.80981e-07
3.52742e-06 -8.80981e-07 -5.78371e-06
0.00188349 -0.00013081 4.19198e-06
-0.00013081 7.95468e-05 -6.44782e-07
4.19198e-06 -6.44782e-07 1.46727e-05
0.00192616 -0.000255981 2.45423e-06
-0.000255981 8.21228e-05 -1.91091e-06
2.45423e-06 -1.91091e-06 8.93866e-06
0.00174648 -0.000298258 4.42387e-07
-0.000298258 5.92842e-05 -7.96012e-07
4.42387e-07 -7.96012e-07 -4.71391e-05
0.00133172 -0.000304151 -1.51002e-06
-0.000304151 0.000330918 -4.94453e-06
-1.51002e-06 -4.94453e-06 8.95544e-05
0.00220195 -0.000422104 -1.40167e-06
-0.000422104 0.000300587 -7.01644e-07
-1.40167e-06 -7.01644e-07 0.000157552
0.00152974 -0.000428811 1.60178e-06
-0.000428811 0.00034581 -4.44967e-06
1.60178e-06 -4.44967e-06 3.88877e-05
0.00180528 -0.00051851 -4.25744e-07
-0.00051851 0.000316476 1.58062e-06
-4.25744e-07 1.58062e-06 5.85054e-06
0.00174707 -0.000420267 1.71889e-06
-0.000420267 0.000162615 3.44982e-06
1.71889e-06 3.44982e-06 -6.39355e-05
0.000185126 7.14264e-06 -5.27339e-07
7.14264e-06 -0.000203923 -3.73486e-06
-5.27339e-07 -3.73486e-06 -0.000277693
0.000704238 -5.56037e-05 -2.53775e-07
-5.56037e-05 0.000147476 -7.0148e-07
-2.53775e-07 -7.0148e-07 7.59624e-06
0.00099493 -8.68026e-05 -1.98691e-06
-8.68026e-05 0.000312158 1.22143e-06
-1.98691e-06 1.22143e-06 0.000129275
0.00148823 -0.000311303 -9.38559e-06
-0.000311303 0.000462991 -7.36951e-07
-9.38559e-06 -7.36951e-07 0.000234294
0.000438348 -0.000138582 2.52646e-06
-0.000138582 -3.50267e-05 5.78934e-06
2.52646e-06 5.78934e-06 -0.000262009
0.000664854 -0.00023522 -3.4073e-06
-0.00023522 -8.69995e-06 -4.769e-07
-3.4073e-06 -4.769e-07 -0.000217606
0.000525782 -4.84897e-05 -1.11338e-06
-4.84897e-05 -2.84771e-05 -4.92426e-06
-1.11338e-06 -4.92426e-06 -5.23861e-05
0.000570531 -1.54267e-05 -1.52909e-06
-1.54267e-05 1.50418e-05 -3.36533e-06
-1.52909e-06 -3.36533e-06 -5.76679e-05
0.00178825 0.000296702 -1.78498e-06
0.000296702 0.000155171 -4.2433e-07
-1.78498e-06 -4.2433e-07 -1.76246e-05
0.000117648 -4.42878e-05 1.23277e-06
-4.42878e-05 -0.000214197 -2.44579e-06
1.23277e-06 -2.44579e-06 -0.000356607
0.000818055 0.000190571 -8.97619e-07
0.000190571 0.000149035 3.32445e-08
-8.97619e-07 3.32445e-08 -4.48628e-05
0.000115234 7.93191e-05 2.05341e-06
7.93191e-05 -0.00026695 1.38216e-06
2.05341e-06 1.38216e-06 -0.000441148
0.0016587 0.000366792 4.88142e-07
0.000366792 0.000198062 3.92847e-07
4.88142e-07 3.92847e-07 -2.32479e-05
0.00171733 0.000363692 6.25412e-07
0.000363692 0.000140118 1.75478e-07
6.25412e-07 1.75478e-07 -5.01647e-05
0.00125611 0.000299753 1.32656e-06
0.000299753 0.000285126 -1.03351e-06
1.32656e-06 -1.03351e-06 2.76191e-05
0.00206924 0.000405032 -1.45765e-06
0.000405032 0.000601395 -6.73825e-07
-1.45765e-06 -6.73825e-07 0.000326624
0.00174564 0.000422106 -1.66405e-06
0.000422106 0.000231674 8.35348e-07
-1.66405e-06 8.35348e-07 -1.16047e-05
0.000600697 3.27247e-06 -4.16754e-07
3.27247e-06 2.13498e-05 3.78408e-07
-4.16754e-07 3.78408e-07 -3.94698e-05
0.000705451 1.41475e-05 -7.67839e-07
1.41475e-05 0.000125714 3.87985e-07
-7.67839e-07 3.87985e-07 1.1269e-05
0.00112073 0.00026236 -1.07894e-06
0.00026236 0.000271845 -1.95733e-07
-1.07894e-06 -1.95733e-07 5.84319e-05
0.000834022 5.83511e-05 3.70482e-07
5.83511e-05 0.000219407 1.74448e-07
3.70482e-07 1.74448e-07 4.29665e-05
0.00075167 0.000172209 2.45412e-06
0.000172209 9.23794e-05 1.36106e-06
2.45412e-06 1.36106e-06 -8.41852e-05
0.00180138 0.000308511 -2.10312e-06
0.000308511 0.000138187 -1.61976e-06
-2.10312e-06 -1.61976e-06 -1.74447e-05
0.0018229 0.00041902 1.65631e-06
0.00041902 0.000242919 4.522e-07
1.65631e-06 4.522e-07 1.99969e-05
0.00171561 0.000395071 4.7645e-07
0.000395071 0.000108342 -1.54926e-07
4.7645e-07 -1.54926e-07 -7.86916e-05
0.000869881 0.000300311 1.418e-06
0.000300311 4.47977e-05 3.51451e-06
1.418e-06 3.51451e-06 -0.00022527
0.00164882 0.000415779 -2.4365e-06
0.000415779 0.00028284 -1.41238e-06
-2.4365e-06 -1.41238e-06 1.7733e-05
0.000771069 4.08665e-05 5.05152e-07
4.08665e-05 0.000153669 2.20614e-06
5.05152e-07 2.20614e-06 5.45182e-05
0.000308059 -8.94677e-06 -1.36258e-06
-8.94677e-06 -9.34682e-05 1.79191e-06
-1.36258e-06 1.79191e-06 -0.000232635
0.000962603 0.00026592 -4.04123e-06
0.00026592 0.000130802 -2.39615e-06
-4.04123e-06 -2.39615e-06 -8.1052e-05
0.000747831 0.000146661 -5.79895e-06
0.000146661 0.000179809 -4.82906e-06
-5.79895e-06 -4.82906e-06 -1.6034e-05
0.000751368 0.000230227 -1.62834e-06
0.000230227 4.88506e-05 -3.28065e-06
-1.62834e-06 -3.28065e-06 -0.000128439
0.00171281 0.000330891 -4.13616e-07
0.000330891 2.13195e-05 -1.93547e-06
-4.13616e-07 -1.93547e-06 -0.000112637
0.00196515 0.000459113 3.68598e-06
0.000459113 0.000311191 -1.76072e-06
3.68598e-06 -1.76072e-06 7.48606e-05
0.00161126 0.000410489 2.61241e-06
0.000410489 3.69806e-05 1.79058e-07
2.61241e-06 1.79058e-07 -0.000155266
0.000902924 0.000311639 1.02133e-06
0.000311639 2.59541e-05 7.59293e-06
1.02133e-06 7.59293e-06 -0.000257389
0.00154327 0.000436945 -1.06034e-06
0.000436945 0.000232154 -7.62058e-07
-1.06034e-06 -7.62058e-07 -4.00481e-05
0.000589162 -7.38565e-06 -1.8474e-06
-7.38565e-06 1.05525e-05 -2.7116e-06
-1.8474e-06 -2.7116e-06 -4.48233e-05
0.000588504 3.5965e-05 1.10822e-06
3.5965e-05 3.17514e-05 3.92491e-07
1.10822e-06 3.92491e-07 -5.57546e-05
0.00049586 1.86629e-05 1.05685e-07
1.86629e-05 -2.669e-05 1.07634e-06
1.05685e-07 1.07634e-06 -0.000117237
0.000394337 -2.44718e-05 -8.18286e-07
-2.44718e-05 -8.23991e-05 -1.71969e-06
-8.18286e-07 -1.71969e-06 -0.000167748
0.000642363 4.37698e-05 -2.85184e-07
4.37698e-05 7.59689e-05 -1.18427e-09
-2.85184e-07 -1.18427e-09 -1.45831e-05
0.000678385 6.02385e-05 -5.21132e-07
6.02385e-05 8.80499e-05 -3.14926e-07
-5.21132e-07 -3.14926e-07 -9.00271e-06
0.000803783 9.3905e-05 -1.36895e-06
9.3905e-05 0.000173351 -2.48619e-06
-1.36895e-06 -2.48619e-06 6.83434e-05
0.000448041 -4.41784e-06 1.20192e-06
-4.41784e-06 -3.18048e-05 8.01203e-08
1.20192e-06 8.01203e-08 -0.000141345
0.000681103 7.03742e-05 1.03173e-06
7.03742e-05 9.64585e-05 1.97395e-06
1.03173e-06 1.97395e-06 9.29717e-06
0.000612053 4.49149e-05 2.8041e-06
4.49149e-05 4.19765e-05 2.6913e-06
2.8041e-06 2.6913e-06 -1.51032e-05
0.000591533 6.43665e-06 -1.53023e-06
6.43665e-06 2.43603e-05 -6.09193e-09
-1.53023e-06 -6.09193e-09 -3.04642e-05
0.00125132 -2.40303e-05 1.11721e-06
-2.40303e-05 0.000396803 2.60819e-06
1.11721e-06 2.60819e-06 0.000384308
0.000544723 -4.94176e-05 1.95227e-07
-4.94176e-05 -4.22823e-06 -2.6558e-06
1.95227e-07 -2.6558e-06 -6.08577e-05
0.00130033 -3.3431e-05 -4.9797e-06
-3.3431e-05 0.000426149 -1.49483e-06
-4.9797e-06 -1.49483e-06 0.000413078
0.000833846 -3.26306e-05 2.08424e-05
-3.26306e-05 0.000149613 8.22661e-06
2.08424e-05 8.22661e-06 0.00015509
0.00134486 -4.45007e-05 -8.96108e-06
-4.45007e-05 0.000455495 -5.72942e-06
-8.96108e-06 -5.72942e-06 0.00044093
0.000796107 -4.23184e-05 7.53908e-06
-4.23184e-05 0.000130831 3.07445e-06
7.53908e-06 3.07445e-06 0.00013396
0.00230885 -9.64458e-05 -4.17014e-06
-9.64458e-05 0.00105877 -2.09011e-06
-4.17014e-06 -2.09011e-06 0.00106407
0.000461709 4.83003e-05 -1.3379e-06
4.83003e-05 -5.74536e-05 -3.97601e-06
-1.3379e-06 -3.97601e-06 -8.05472e-05
0.000482342 3.83953e-05 -1.87918e-06
3.83953e-05 -3.61025e-05 -4.5387e-08
-1.87918e-06 -4.5387e-08 -6.75725e-05
0.00252628 0.000110761 2.32278e-05
0.000110761 0.00120517 -3.77112e-06
2.32278e-05 -3.77112e-06 0.00120574
0.000585576 -8.53104e-06 -5.39215e-06
-8.53104e-06 2.20832e-05 7.52442e-06
-5.39215e-06 7.52442e-06 -1.52991e-05
0.00299749 0.000126268 -2.28274e-05
0.000126268 0.00149546 -9.39457e-07
-2.28274e-05 -9.39457e-07 0.00149187
0.00353115 9.78629e-05 -0.000109432
9.78629e-05 0.00181768 6.52844e-06
-0.000109432 6.52844e-06 0.00182031
0.00180973 0.000248697 -2.0058e-06
0.000248697 0.000130656 7.82888e-07
-2.0058e-06 7.82888e-07 -1.7497e-05
0.00182712 0.000146085 7.57851e-07
0.000146085 9.66368e-05 1.52621e-06
7.57851e-07 1.52621e-06 -9.59341e-06
0.00187422 0.000208932 -4.1381e-08
0.000208932 8.26386e-05 1.95259e-06
-4.1381e-08 1.95259e-06 -7.38888e-06
0.00182843 9.48439e-05 -5.23663e-07
9.48439e-05 3.06527e-05 -9.09269e-08
-5.23663e-07 -9.09269e-08 -2.33334e-05
0.00181088 3.44681e-05 -1.08111e-06
3.44681e-05 7.9359e-05 2.19359e-07
-1.08111e-06 2.19359e-07 -4.77621e-07
0.00150199 1.01314e-05 -9.6804e-07
1.01314e-05 5.77285e-05 5.287e-08
-9.6804e-07 5.287e-08 -6.1739e-05
0.00181847 1.41747e-06 -1.92644e-06
1.41747e-06 9.21617e-05 5.29342e-08
-1.92644e-06 5.29342e-08 1.00621e-05
0.00183424 4.30924e-05 2.21647e-06
4.30924e-05 5.05216e-05 1.07876e-07
2.21647e-06 1.07876e-07 -3.07743e-06
0.00190522 0.000155739 -9.11306e-07
0.000155739 8.38057e-05 -2.66244e-07
-9.11306e-07 -2.66244e-07 1.15199e-05
0.00188611 0.000101259 1.18822e-06
0.000101259 4.12186e-05 2.18281e-07
1.18822e-06 2.18281e-07 2.49577e-06
0.00181913 0.000244478 -8.43893e-07
0.000244478 0.00010654 -3.2342e-07
-8.43893e-07 -3.2342e-07 -1.35494e-05
0.00186064 0.000222092 3.29346e-06
0.000222092 3.66034e-05 1.34161e-06
3.29346e-06 1.34161e-06 -3.88015e-05
0.00182218 -6.53663e-06 3.93007e-06
-6.53663e-06 5.21459e-05 -1.30546e-07
3.93007e-06 -1.30546e-07 1.71219e-06
0.00186302 4.61294e-05 5.62269e-06
4.61294e-05 2.01376e-05 2.84717e-07
5.62269e-06 2.84717e-07 -7.37493e-06
0.0019419 0.000157864 4.42176e-06
0.000157864 5.18784e-05 1.37026e-06
4.42176e-06 1.37026e-06 7.26033e-06
0.00195309 0.000283219 3.00614e-07
0.000283219 0.000104161 1.73503e-07
3.00614e-07 1.73503e-07 1.06672e-05
0.00184502 -4.43158e-05 1.07978e-06
-4.43158e-05 0.000112668 -1.4354e-08
1.07978e-06 -1.4354e-08 2.51385e-05
0.00175716 -0.000134718 2.24294e-06
-0.000134718 7.58358e-05 -1.16264e-06
2.24294e-06 -1.16264e-06 -3.61847e-05
0.00180048 -8.69621e-05 1.90145e-06
-8.69621e-05 4.7051e-05 -1.38461e-06
1.90145e-06 -1.38461e-06 -1.26448e-05
0.00183815 -0.000207773 -2.54831e-06
-0.000207773 7.31499e-05 9.05327e-07
-2.54831e-06 9.05327e-07 -1.80671e-05
0.00114655 -0.000245818 -2.86978e-06
-0.000245818 0.000275338 4.74738e-06
-2.86978e-06 4.74738e-06 6.00921e-05
0.000905182 -0.000298366 -5.76979e-07
-0.000298366 -3.48556e-06 1.85166e-06
-5.76979e-07 1.85166e-06 -0.00025811
0.0016164 -0.000468014 2.13227e-06
-0.000468014 0.00024112 -1.23214e-06
2.13227e-06 -1.23214e-06 -5.92459e-05
0.00170277 -0.000292615 -5.50926e-07
-0.000292615 7.81212e-05 -7.41893e-08
-5.50926e-07 -7.41893e-08 -6.26711e-05
0.00176727 -0.000264886 9.7606e-07
-0.000264886 5.13688e-05 1.83619e-07
9.7606e-07 1.83619e-07 -4.04617e-05
0.00180841 -0.000355359 2.57623e-06
-0.000355359 0.000127353 2.61207e-07
2.57623e-06 2.61207e-07 -1.27531e-05
0.00176788 -0.00043267 -2.91074e-06
-0.00043267 0.000203332 -2.35692e-06
-2.91074e-06 -2.35692e-06 -3.26483e-05
0.00180224 -0.00035828 1.73633e-06
-0.00035828 0.000149147 -1.07302e-05
1.73633e-06 -1.07302e-05 -3.94766e-06
0.00128137 -0.000278499 3.5327e-06
-0.000278499 0.000357264 1.78262e-06
3.5327e-06 1.78262e-06 0.000138233
0.000939749 -0.000233183 7.02198e-06
-0.000233183 0.000171563 -7.84424e-07
7.02198e-06 -7.84424e-07 -2.59425e-05
0.000641196 -0.00011108 3.03304e-06
-0.00011108 0.000104269 -5.78499e-06
3.03304e-06 -5.78499e-06 -0.000115881
0.000343428 3.41265e-06 -3.39326e-07
3.41265e-06 -0.000109436 3.4848e-06
-3.39326e-07 3.4848e-06 -0.000200478
0.000269468 1.76741e-05 2.50097e-06
1.76741e-05 -0.000129254 -1.11189e-07
2.50097e-06 -1.11189e-07 -0.0002765
0.00182074 -6.02114e-05 -4.49676e-07
-6.02114e-05 3.94019e-05 -1.34268e-07
-4.49676e-07 -1.34268e-07 -1.10058e-05
0.00186146 -0.000131491 1.50284e-06
-0.000131491 6.4771e-05 -5.5468e-07
1.50284e-06 -5.5468e-07 -1.85832e-06
0.00187217 -0.000248137 -1.63514e-06
-0.000248137 6.12364e-05 3.03145e-07
-1.63514e-06 3.03145e-07 -1.46256e-05
0.00122041 -0.000292559 -1.81902e-06
-0.000292559 0.000266164 -1.76298e-07
-1.81902e-06 -1.76298e-07 2.58697e-05
0.00106093 -0.000372531 7.67814e-07
-0.000372531 6.11352e-05 -1.58016e-06
7.67814e-07 -1.58016e-06 -0.000231409
0.00167734 -0.000509939 -3.17388e-07
-0.000509939 0.000245442 -1.67426e-07
-3.17388e-07 -1.67426e-07 -6.72029e-05
0.00174803 -0.000298024 5.32736e-07
-0.000298024 5.55449e-05 -2.22399e-07
5.32736e-07 -2.22399e-07 -5.16911e-05
0.00185736 -0.000427271 9.27988e-07
-0.000427271 0.000226274 -2.74206e-06
9.27988e-07 -2.74206e-06 6.00397e-06
0.00193476 -0.000400443 -4.8967e-07
-0.000400443 0.000163817 -1.02425e-06
-4.8967e-07 -1.02425e-06 2.24894e-05
0.000253837 3.97586e-05 -7.05086e-07
3.97586e-05 -0.000169305 -8.75615e-07
-7.05086e-07 -8.75615e-07 -0.000238171
0.00123183 -0.000285302 -8.13e-07
-0.000285302 0.000291774 3.53407e-07
-8.13e-07 3.53407e-07 7.03413e-05
0.000538468 -0.00021854 1.31614e-06
-0.00021854 -7.7796e-05 1.94473e-06
1.31614e-06 1.94473e-06 -0.000271154
0.00104098 -0.000194717 -4.977e-07
-0.000194717 0.000331419 5.09871e-07
-4.977e-07 5.09871e-07 9.27506e-05
0.00116055 -9.1721e-05 7.14964e-07
-9.1721e-05 0.000412167 -1.91586e-06
7.14964e-07 -1.91586e-06 0.000230151
0.00057074 -8.10467e-06 -7.04348e-07
-8.10467e-06 5.87683e-05 6.89376e-07
-7.04348e-07 6.89376e-07 -7.67546e-05
0.00187935 -7.09839e-05 4.7717e-06
-7.09839e-05 3.68895e-05 -7.07e-07
4.7717e-06 -7.07e-07 7.13349e-06
0.00197092 -0.000171951 2.62712e-06
-0.000171951 4.17918e-05 -4.54119e-07
2.62712e-06 -4.54119e-07 1.07871e-05
0.00187888 -0.00029291 2.4602e-06
-0.00029291 4.04643e-05 -2.07719e-06
2.4602e-06 -2.07719e-06 -1.95593e-05
0.00209243 -0.000370602 1.28298e-06
-0.000370602 0.000168044 -2.97205e-06
1.28298e-06 -2.97205e-06 6.7385e-05
0.00182768 -0.000383483 -4.17291e-06
-0.000383483 0.000587822 -4.58405e-06
-4.17291e-06 -4.58405e-06 0.000320873
0.00188227 -0.000450301 2.63099e-06
-0.000450301 0.000169333 3.116e-06
2.63099e-06 3.116e-06 -1.58268e-05
0.00142402 -0.000477784 -3.58558e-06
-0.000477784 0.000241446 1.41675e-06
-3.58558e-06 1.41675e-06 -0.000106494
0.00185687 -0.000544001 -4.61942e-06
-0.000544001 0.000352138 1.93005e-06
-4.61942e-06 1.93005e-06 2.3909e-05
0.00026498 5.6561e-05 -2.58601e-06
5.6561e-05 -0.000166849 -1.99473e-06
-2.58601e-06 -1.99473e-06 -0.00022345
0.000674924 1.75021e-06 -1.1719e-06
1.75021e-06 0.000117414 -2.79746e-07
-1.1719e-06 -2.79746e-07 5.38266e-06
0.000998351 -0.000119045 -3.08e-06
-0.000119045 0.000320235 2.63682e-06
-3.08e-06 2.63682e-06 0.000159821
0.0009605 -3.10062e-05 -2.93551e-06
-3.10062e-05 0.000278285 4.96217e-06
-2.93551e-06 4.96217e-06 6.18488e-05
0.000844881 -0.000281247 -5.65816e-06
-0.000281247 4.1337e-05 -5.95118e-06
-5.65816e-06 -5.95118e-06 -0.000196796
0.00106832 -0.000266342 -9.67961e-06
-0.000266342 0.000282177 1.8564e-06
-9.67961e-06 1.8564e-06 2.84837e-05
0.000526173 -3.98289e-06 -2.28617e-06
-3.98289e-06 -2.30355e-05 -2.67125e-06
-2.28617e-06 -2.67125e-06 -8.30842e-05
0.000469136 -2.47607e-05 8.97618e-07
-2.47607e-05 -2.61566e-05 -1.9393e-06
8.97618e-07 -1.9393e-06 -0.000129476
0.00177735 0.000310307 -2.5186e-06
0.000310307 0.000124445 -8.39349e-07
-2.5186e-06 -8.39349e-07 -3.23932e-05
0.000265886 9.58189e-06 4.82842e-07
9.58189e-06 -0.000128945 -2.13886e-07
4.82842e-07 -2.13886e-07 -0.000292297
0.00119379 0.000269979 1.8337e-06
0.000269979 0.000317567 2.04536e-07
1.8337e-06 2.04536e-07 0.000101696
-4.0496e-05 8.05082e-05 3.93793e-06
8.05082e-05 -0.000394919 3.58588e-06
3.93793e-06 3.58588e-06 -0.000546964
0.00178738 0.000416137 2.1289e-07
0.000416137 0.000218852 1.84467e-07
2.1289e-07 1.84467e-07 -3.9616e-06
0.00183474 0.000397979 -2.7175e-06
0.000397979 0.000177169 8.57691e-07
-2.7175e-06 8.57691e-07 -8.76187e-06
0.00110842 0.000332378 -1.22165e-06
0.000332378 0.000179942 7.41496e-07
-1.22165e-06 7.41496e-07 -9.57543e-05
0.00199355 0.000446628 -2.69902e-06
0.000446628 0.000499497 9.0051e-07
-2.69902e-06 9.0051e-07 0.000226769
0.000685539 1.7133e-05 -9.97177e-07
1.7133e-05 9.8403e-05 2.18906e-07
-9.97177e-07 2.18906e-07 4.0137e-06
0.00051723 3.13207e-05 9.46302e-07
3.13207e-05 3.16383e-05 7.02068e-07
9.46302e-07 7.02068e-07 -0.000111864
0.00139593 0.000308734 -5.44191e-07
0.000308734 0.00039813 -2.4269e-06
-5.44191e-07 -2.4269e-06 0.00017542
0.000535137 5.46933e-05 -1.23143e-06
5.46933e-05 1.93236e-05 -3.06069e-07
-1.23143e-06 -3.06069e-07 -0.000146063
0.000561292 0.000196042 -1.19183e-06
0.000196042 -7.66424e-05 -6.58442e-07
-1.19183e-06 -6.58442e-07 -0.000233988
0.00191778 0.000342755 -2.98647e-06
0.000342755 0.000136849 -1.23297e-06
-2.98647e-06 -1.23297e-06 4.87095e-06
0.00204642 0.000459297 2.10945e-06
0.000459297 0.000363265 -2.94453e-07
2.10945e-06 -2.94453e-07 0.000130252
0.00178433 0.000429578 1.73271e-06
0.000429578 0.000127434 2.6068e-06
1.73271e-06 2.6068e-06 -6.88281e-05
0.00122842 0.00034838 4.62143e-06
0.00034838 0.000227899 4.41527e-06
4.62143e-06 4.41527e-06 -6.45088e-05
0.00155632 0.000447527 -3.52447e-06
0.000447527 0.000234582 5.25336e-07
-3.52447e-06 5.25336e-07 -4.46294e-05
0.000142748 -1.45519e-05 -1.14086e-06
-1.45519e-05 -0.000216653 3.0926e-06
-1.14086e-06 3.0926e-06 -0.000318589
-7.37067e-05 8.51723e-05 8.96694e-07
8.51723e-05 -0.000283464 1.12705e-07
8.96694e-07 1.12705e-07 -0.000465973
0.00066886 0.000245686 1.55287e-06
0.000245686 -5.59171e-05 2.32951e-06
1.55287e-06 2.32951e-06 -0.000282712
-0.000388676 0.00010144 4.17393e-06
0.00010144 -0.000594282 -1.06962e-06
4.17393e-06 -1.06962e-06 -0.000762119
0.0019809 0.000348404 -4.25613e-07
0.000348404 -2.37662e-05 4.00603e-07
-4.25613e-07 4.00603e-07 -7.50239e-05
0.00245707 0.00043808 1.34904e-06
0.00043808 0.000450394 -9.33579e-07
1.34904e-06 -9.33579e-07 0.000292872
0.00186424 0.000495535 -3.10963e-06
0.000495535 0.000275133 -3.92167e-06
-3.10963e-06 -3.92167e-06 1.17377e-05
0.000791755 0.000353339 -7.73433e-07
0.000353339 -9.7889e-05 1.78591e-06
-7.73433e-07 1.78591e-06 -0.000401841
0.000645572 6.93515e-05 -1.09914e-06
6.93515e-05 7.06923e-05 -1.03712e-06
-1.09914e-06 -1.03712e-06 -1.99142e-05
0.000615035 4.77765e-05 -2.74618e-07
4.77765e-05 5.45436e-05 1.51217e-07
-2.74618e-07 1.51217e-07 -4.31307e-05
0.000946682 4.42852e-05 -2.91933e-06
4.42852e-05 0.000251634 -1.70773e-06
-2.91933e-06 -1.70773e-06 0.00016235
0.00063136 1.88474e-05 -1.53273e-06
1.88474e-05 5.6149e-05 -1.83681e-06
-1.53273e-06 -1.83681e-06 -2.47085e-05
0.000409955 8.15083e-06 -7.3624e-07
8.15083e-06 -7.05542e-05 -5.43973e-07
-7.3624e-07 -5.43973e-07 -0.000165138
0.000646809 3.41694e-05 -1.28163e-07
3.41694e-05 7.8555e-05 3.00738e-08
-1.28163e-07 3.00738e-08 -9.62192e-06
0.000657743 9.26106e-05 -8.94971e-07
9.26106e-05 9.75777e-05 -4.12932e-08
-8.94971e-07 -4.12932e-08 -1.07984e-05
0.000567294 3.02406e-05 9.30515e-07
3.02406e-05 4.31087e-05 2.90515e-07
9.30515e-07 2.90515e-07 -6.92889e-05
0.000772944 6.57874e-05 1.24362e-06
6.57874e-05 0.000141809 -1.72437e-06
1.24362e-06 -1.72437e-06 5.36006e-05
0.000669991 -7.0798e-06 3.19408e-06
-7.0798e-06 0.000100965 -2.45526e-06
3.19408e-06 -2.45526e-06 -1.25609e-05
0.000488671 5.55733e-05 1.03889e-06
5.55733e-05 -2.68854e-06 1.88131e-06
1.03889e-06 1.88131e-06 -0.000119267
0.000662289 8.23501e-05 1.63714e-06
8.23501e-05 9.19743e-05 2.44148e-06
1.63714e-06 2.44148e-06 1.08255e-07
0.000546108 5.37233e-05 2.40589e-06
5.37233e-05 8.88951e-06 2.51179e-06
2.40589e-06 2.51179e-06 -5.20647e-05
0.000555669 -1.83546e-07 -1.37851e-06
-1.83546e-07 9.76332e-06 -5.32041e-08
-1.37851e-06 -5.32041e-08 -4.80667e-05
0.00124515 -1.10366e-05 9.90897e-07
-1.10366e-05 0.00039503 2.473e-06
9.90897e-07 2.473e-06 0.000382838
0.000547462 -4.80658e-05 1.4228e-07
-4.80658e-05 1.40938e-06 -2.61215e-06
1.4228e-07 -2.61215e-06 -5.53541e-05
0.00130436 -2.07046e-05 -4.27696e-06
-2.07046e-05 0.000428977 -1.57639e-06
-4.27696e-06 -1.57639e-06 0.000416649
0.000825899 -2.39711e-05 1.78005e-05
-2.39711e-05 0.000142788 8.49745e-06
1.78005e-05 8.49745e-06 0.000149212
0.001349 -3.11035e-05 -7.67518e-06
-3.11035e-05 0.000455713 -5.74421e-06
-7.67518e-06 -5.74421e-06 0.000442697
0.000789392 -3.34601e-05 6.20499e-06
-3.34601e-05 0.000121774 3.17888e-06
6.20499e-06 3.17888e-06 0.000126817
0.000737366 -4.10846e-05 -1.04225e-06
-4.10846e-05 9.46826e-05 -2.30741e-06
-1.04225e-06 -2.30741e-06 9.78254e-05
0.000497267 3.79536e-05 9.64025e-08
3.79536e-05 -4.92461e-05 -3.25074e-06
9.64025e-08 -3.25074e-06 -6.52313e-05
0.000494386 5.84431e-05 1.38876e-08
5.84431e-05 -3.43229e-05 1.63638e-07
1.38876e-08 1.63638e-07 -5.99796e-05
0.00227563 9.09626e-05 1.85386e-05
9.09626e-05 0.00104544 -3.78975e-06
1.85386e-05 -3.78975e-06 0.00105134
0.000529978 3.2753e-05 -3.07843e-06
3.2753e-05 -6.90487e-06 6.17293e-06
-3.07843e-06 6.17293e-06 -3.90258e-05
0.00260123 0.000113509 -6.54484e-06
0.000113509 0.00125054 -5.53151e-07
-6.54484e-06 -5.53151e-07 0.00125044
0.0030909 8.91205e-05 -8.73333e-05
8.91205e-05 0.00154723 5.16654e-06
-8.73333e-05 5.16654e-06 0.00155239
0.00180324 0.000241526 -6.99219e-07
0.000241526 0.000106133 1.81028e-06
-6.99219e-07 1.81028e-06 -1.34877e-05
0.00195042 0.000155753 -3.05022e-06
0.000155753 0.000112643 -1.00783e-07
-3.05022e-06 -1.00783e-07 3.97537e-05
0.00189023 0.000226382 4.6708e-07
0.000226382 5.48686e-05 -3.09898e-08
4.6708e-07 -3.09898e-08 -1.75985e-05
0.00186742 0.000102622 -5.12578e-06
0.000102622 2.76445e-05 -1.15459e-06
-5.12578e-06 -1.15459e-06 -8.67447e-06
0.00185396 4.23146e-05 -1.22503e-06
4.23146e-05 6.63016e-05 -1.57552e-07
-1.22503e-06 -1.57552e-07 1.09627e-05
0.00178952 -6.38085e-07 -7.57089e-07
-6.38085e-07 7.37346e-05 3.96794e-08
-7.57089e-07 3.96794e-08 -1.09671e-05
0.00179626 -3.50191e-06 -5.58814e-07
-3.50191e-06 3.53674e-05 2.00339e-08
-5.58814e-07 2.00339e-08 -1.45843e-05
0.00188524 4.72048e-05 9.53469e-07
4.72048e-05 4.12131e-05 1.83776e-07
9.53469e-07 1.83776e-07 1.23148e-05
0.0019297 0.000162059 5.31882e-07
0.000162059 4.56614e-05 2.27346e-08
5.31882e-07 2.27346e-08 8.4705e-07
0.00198412 0.00028009 4.12589e-07
0.00028009 0.000109105 2.22442e-07
4.12589e-07 2.22442e-07 1.73507e-05
0.00187352 -8.92364e-06 4.10939e-06
-8.92364e-06 4.02752e-05 -2.09478e-07
4.10939e-06 -2.09478e-07 1.44512e-05
0.00197738 9.35936e-05 2.75531e-06
9.35936e-05 1.35676e-05 6.63605e-08
2.75531e-06 6.63605e-08 1.01716e-05
0.00208586 0.000242883 3.01236e-06
0.000242883 7.29281e-05 1.28295e-06
3.01236e-06 1.28295e-06 2.51428e-05
0.00181811 -6.63068e-05 -2.47572e-06
-6.63068e-05 3.86532e-05 6.51077e-07
-2.47572e-06 6.51077e-07 -1.51385e-05
0.0018311 -0.000132216 -1.23785e-06
-0.000132216 4.53748e-05 -4.37651e-07
-1.23785e-06 -4.37651e-07 -2.32514e-05
0.00183296 -0.000240835 -3.03595e-06
-0.000240835 5.05687e-05 1.53481e-06
-3.03595e-06 1.53481e-06 -2.85362e-05
0.00100636 -0.000271246 -1.16732e-06
-0.000271246 0.000138773 4.1187e-06
-1.16732e-06 4.1187e-06 -9.86073e-05
0.000992598 -0.000357122 3.24292e-06
-0.000357122 1.36061e-05 7.72281e-07
3.24292e-06 7.72281e-07 -0.000272275
0.00161864 -0.000510099 1.60316e-06
-0.000510099 0.000212931 -8.64003e-07
1.60316e-06 -8.64003e-07 -0.000102094
0.00177446 -0.000298703 -9.88605e-07
-0.000298703 6.66987e-05 7.07482e-07
-9.88605e-07 7.07482e-07 -4.12991e-05
0.00160985 -0.000377038 -8.12387e-07
-0.000377038 -8.15535e-06 -1.54902e-06
-8.12387e-07 -1.54902e-06 -0.000147804
0.00192333 -0.000432594 -2.67731e-06
-0.000432594 0.000263389 -7.60056e-06
-2.67731e-06 -7.60056e-06 4.92727e-05
0.00106719 -0.000269762 2.82774e-06
-0.000269762 0.000181367 5.10459e-06
2.82774e-06 5.10459e-06 -3.63484e-05
0.000690214 -0.000227687 -7.42605e-06
-0.000227687 2.74564e-05 4.54172e-06
-7.42605e-06 4.54172e-06 -0.000156883
0.00176699 -0.00025128 1.89341e-06
-0.00025128 0.000778429 -1.74969e-06
1.89341e-06 -1.74969e-06 0.000520702
0.000342718 3.3041e-05 1.24875e-06
3.3041e-05 -0.000117691 6.0814e-07
1.24875e-06 6.0814e-07 -0.000184447
0.000880214 -9.54631e-05 2.76324e-06
-9.54631e-05 0.000237655 -1.1185e-06
2.76324e-06 -1.1185e-06 6.92359e-05
0.000390896 3.25163e-05 3.92966e-06
3.25163e-05 -5.7031e-05 1.61916e-06
3.92966e-06 1.61916e-06 -0.000187815
0.00187904 -7.09218e-05 -3.88068e-07
-7.09218e-05 3.88322e-05 1.61542e-07
-3.88068e-07 1.61542e-07 5.28184e-06
0.00194389 -0.000178404 2.29677e-07
-0.000178404 2.29485e-05 -1.43821e-07
2.29677e-07 -1.43821e-07 -8.78191e-06
0.00190787 -0.000292152 -3.82165e-07
-0.000292152 6.42432e-05 4.1672e-07
-3.82165e-07 4.1672e-07 -3.78886e-07
0.00138032 -0.000339584 -1.85597e-06
-0.000339584 0.000325554 7.66813e-07
-1.85597e-06 7.66813e-07 6.51327e-05
0.00118888 -0.000450221 2.06942e-07
-0.000450221 0.000103275 -1.17482e-06
2.06942e-07 -1.17482e-06 -0.000236534
0.00196434 -0.000545936 -4.12554e-06
-0.000545936 0.000414832 6.67901e-07
-4.12554e-06 6.67901e-07 9.51063e-05
0.00196622 -0.000370168 6.60608e-07
-0.000370168 9.7063e-05 -2.7743e-07
6.60608e-07 -2.7743e-07 -7.29051e-06
0.00172209 -0.000440142 1.30549e-06
-0.000440142 7.00919e-05 -3.12174e-06
1.30549e-06 -3.12174e-06 -0.000113869
0.000430746 5.09833e-05 -5.54489e-07
5.09833e-05 -7.04514e-05 -1.03032e-06
-5.54489e-07 -1.03032e-06 -0.00012275
0.000695002 -1.00788e-05 -6.62726e-07
-1.00788e-05 0.00012713 3.56821e-07
-6.62726e-07 3.56821e-07 1.61888e-05
0.000326023 -0.000228962 -4.91082e-06
-0.000228962 -0.000264492 6.077e-06
-4.91082e-06 6.077e-06 -0.000486455
0.00152635 -0.000288713 1.67959e-06
-0.000288713 0.000570919 -8.83105e-07
1.67959e-06 -8.83105e-07 0.000313872
0.00104075 -8.41074e-05 -2.17045e-07
-8.41074e-05 0.000339149 -1.83418e-06
-2.17045e-07 -1.83418e-06 0.000121439
0.000843661 -9.10975e-05 -6.9451e-07
-9.10975e-05 0.000228292 1.11894e-06
-6.9451e-07 1.11894e-06 6.87489e-05
0.00192807 -8.80251e-05 1.3731e-06
-8.80251e-05 4.43026e-06 1.42114e-07
1.3731e-06 1.42114e-07 -1.34732e-06
0.00202847 -0.000254076 2.40088e-07
-0.000254076 1.34619e-05 1.9531e-07
2.40088e-07 1.9531e-07 1.13967e-05
0.00199033 -0.000319426 1.87059e-06
-0.000319426 7.51701e-05 -2.07211e-06
1.87059e-06 -2.07211e-06 2.42699e-05
0.00197352 -0.000487461 4.81769e-06
-0.000487461 7.83022e-05 -2.59429e-06
4.81769e-06 -2.59429e-06 -5.28516e-05
0.000882427 -0.000348834 -3.47565e-06
-0.000348834 -6.56884e-07 -6.68018e-06
-3.47565e-06 -6.68018e-06 -0.000308975
0.00191752 -0.000553276 -2.17547e-06
-0.000553276 0.000339092 1.23645e-05
-2.17547e-06 1.23645e-05 3.76287e-05
0.00197411 -0.00056849 -3.71176e-06
-0.00056849 0.000529093 -1.16783e-06
-3.71176e-06 -1.16783e-06 0.000145821
0.000602213 5.18326e-05 5.17653e-08
5.18326e-05 2.29931e-05 -1.13787e-06
5.17653e-08 -1.13787e-06 -2.09364e-05
0.000669484 -0.000114934 3.14925e-06
-0.000114934 0.000104544 -1.7599e-06
3.14925e-06 -1.7599e-06 1.87328e-05
0.000436654 5.9933e-05 -3.2106e-06
5.9933e-05 -3.81988e-05 -2.77112e-07
-3.2106e-06 -2.77112e-07 -0.00012796
0.000638413 -4.80502e-05 -2.26655e-06
-4.80502e-05 0.000111644 3.70136e-06
-2.26655e-06 3.70136e-06 -3.06096e-05
0.000499726 -4.40551e-05 3.15446e-07
-4.40551e-05 -5.72554e-06 4.20092e-07
3.15446e-07 4.20092e-07 -0.000170296
-0.000282487 -5.94648e-05 -1.35562e-06
-5.94648e-05 -0.000445865 1.30761e-06
-1.35562e-06 1.30761e-06 -0.000666872
0.000166143 -0.00024286 -7.72843e-06
-0.00024286 -0.000346944 -7.84125e-06
-7.72843e-06 -7.84125e-06 -0.000570937
0.00295053 -0.000430467 -1.477e-05
-0.000430467 0.0014935 3.12715e-06
-1.477e-05 3.12715e-06 0.00111438
0.000637296 -2.1124e-06 -1.10026e-06
-2.1124e-06 6.34326e-05 -1.0832e-06
-1.10026e-06 -1.0832e-06 -2.46566e-05
0.00074439 6.26723e-05 2.91235e-07
6.26723e-05 0.000171176 -1.14239e-06
2.91235e-07 -1.14239e-06 2.03969e-05
0.00211047 0.00035352 -1.69559e-06
0.00035352 0.000246387 -8.00302e-07
-1.69559e-06 -8.00302e-07 0.00011662
0.000757443 9.46485e-05 -1.50273e-06
9.46485e-05 0.000165831 3.37323e-06
-1.50273e-06 3.37323e-06 -1.23215e-05
0.00192078 0.0003622 2.30599e-06
0.0003622 0.000719332 -6.80217e-07
2.30599e-06 -6.80217e-07 0.000482749
0.000365796 0.000160852 -6.32913e-07
0.000160852 -0.000201858 1.77308e-06
-6.32913e-07 1.77308e-06 -0.00034051
0.00209678 0.000455526 -3.0489e-06
0.000455526 0.000400534 -2.44005e-07
-3.0489e-06 -2.44005e-07 0.000171758
0.00193377 0.000446927 -2.12578e-06
0.000446927 0.000205623 5.82695e-06
-2.12578e-06 5.82695e-06 5.80676e-06
0.00157871 0.000391152 -9.92361e-07
0.000391152 0.0004409 -3.26323e-07
-9.92361e-07 -3.26323e-07 0.000138421
0.00146081 0.00044901 -2.72159e-07
0.00044901 0.000171971 1.21965e-06
-2.72159e-07 1.21965e-06 -0.00011223
0.0002874 1.63683e-05 -1.17767e-07
1.63683e-05 -0.000123766 1.2046e-06
-1.17767e-07 1.2046e-06 -0.000232888
0.000355764 0.000121605 -7.28328e-07
0.000121605 -2.39709e-05 -2.28741e-06
-7.28328e-07 -2.28741e-06 -0.00021292
0.00142237 0.000325961 4.35016e-06
0.000325961 0.000392619 -1.71889e-06
4.35016e-06 -1.71889e-06 0.000151362
0.000720988 0.000189028 -2.71249e-06
0.000189028 6.59923e-05 -2.82168e-06
-2.71249e-06 -2.82168e-06 -0.000112544
0.00205486 0.000339485 9.71317e-07
0.000339485 1.84054e-05 -8.45789e-07
9.71317e-07 -8.45789e-07 -3.23465e-05
0.00220085 0.00043108 3.12015e-06
0.00043108 0.00030877 6.12791e-07
3.12015e-06 6.12791e-07 0.000147063
0.00186303 0.000488263 -8.24702e-07
0.000488263 0.000267842 3.81027e-07
-8.24702e-07 3.81027e-07 8.13753e-06
0.00124654 0.000400555 -2.0621e-08
0.000400555 0.000144501 6.3348e-07
-2.0621e-08 6.3348e-07 -0.000162091
0.000233559 4.01078e-05 -1.29922e-06
4.01078e-05 -0.000160658 3.11763e-06
-1.29922e-06 3.11763e-06 -0.000272295
0.002028 0.000279245 1.58175e-06
0.000279245 -5.67223e-05 2.6128e-06
1.58175e-06 2.6128e-06 -4.86402e-05
0.00170277 0.0003088 2.93278e-06
0.0003088 0.000753127 4.69051e-06
2.93278e-06 4.69051e-06 0.00051538
0.00117429 0.00031522 6.45677e-06
0.00031522 0.000216283 3.15303e-06
6.45677e-06 3.15303e-06 -2.34647e-05
0.00245088 0.000426118 -1.7855e-05
0.000426118 0.000333943 -5.68648e-06
-1.7855e-05 -5.68648e-06 0.000223433
0.00102504 0.000453962 -6.09693e-06
0.000453962 -0.000307288 -8.13373e-06
-6.09693e-06 -8.13373e-06 -0.000549686
0.00203192 0.000505428 -1.24533e-06
0.000505428 0.000528009 2.77511e-06
-1.24533e-06 2.77511e-06 0.000200954
0.000697242 6.37896e-05 -1.54407e-06
6.37896e-05 0.000103218 -7.97201e-07
-1.54407e-06 -7.97201e-07 6.10347e-06
0.000671822 5.89994e-05 -1.87548e-06
5.89994e-05 9.61987e-05 -6.20505e-07
-1.87548e-06 -6.20505e-07 2.83983e-06
0.00099284 4.98977e-05 -2.20102e-06
4.98977e-05 0.00029267 3.63146e-07
-2.20102e-06 3.63146e-07 0.000210921
0.000594333 -1.74985e-06 6.193e-08
-1.74985e-06 5.01588e-05 -2.54315e-06
6.193e-08 -2.54315e-06 -3.9833e-05
0.000660093 5.80143e-05 7.60252e-07
5.80143e-05 0.00010071 -7.61837e-08
7.60252e-07 -7.61837e-08 -1.32357e-05
0.00028275 3.57967e-05 -1.54564e-06
3.57967e-05 -0.000113965 2.23584e-06
-1.54564e-06 2.23584e-06 -0.000220293
0.000610856 7.12444e-06 -7.66839e-07
7.12444e-06 6.89728e-05 1.1159e-08
-7.66839e-07 1.1159e-08 -2.74371e-05
0.000410958 -1.60556e-05 -5.5367e-07
-1.60556e-05 -3.94381e-05 4.16593e-07
-5.5367e-07 4.16593e-07 -0.000159686
0.000443759 1.82881e-05 1.8966e-07
1.82881e-05 -4.66332e-05 5.3393e-07
1.8966e-07 5.3393e-07 -0.000129383
0.00075093 5.62506e-05 7.28311e-07
5.62506e-05 0.000161713 -5.52915e-07
7.28311e-07 -5.52915e-07 3.76525e-05
0.00122618 6.48908e-05 6.60396e-07
6.48908e-05 0.00039945 -1.27131e-06
6.60396e-07 -1.27131e-06 0.000329136
0.000676259 -4.89325e-06 3.88113e-06
-4.89325e-06 9.04527e-05 -3.20235e-06
3.88113e-06 -3.20235e-06 -3.11575e-06
0.000661185 6.01865e-05 5.25209e-07
6.01865e-05 0.000114379 1.15476e-06
5.25209e-07 1.15476e-06 -2.31415e-05
0.000622611 3.89639e-05 2.60464e-06
3.89639e-05 8.99036e-05 2.25901e-06
2.60464e-06 2.25901e-06 -4.27164e-05
0.000647328 2.45063e-05 1.80864e-06
2.45063e-05 8.45796e-05 2.42515e-06
1.80864e-06 2.42515e-06 -1.1022e-05
0.000552279 -3.65892e-05 -4.86756e-08
-3.65892e-05 1.14681e-05 2.36892e-06
-4.86756e-08 2.36892e-06 -4.94441e-05
0.000565715 -4.9469e-06 -3.91762e-07
-4.9469e-06 1.74048e-05 -5.06912e-08
-3.91762e-07 -5.06912e-08 -4.11619e-05
0.00128537 1.13237e-06 1.23547e-06
1.13237e-06 0.000422592 2.39335e-06
1.23547e-06 2.39335e-06 0.000409527
0.000570346 -2.35801e-05 6.47805e-07
-2.35801e-05 1.57945e-05 -2.7338e-06
6.47805e-07 -2.7338e-06 -4.00091e-05
0.00130977 -7.63387e-06 -3.30696e-06
-7.63387e-06 0.000434562 -1.61002e-06
-3.30696e-06 -1.61002e-06 0.00042221
0.000811473 -1.58366e-05 1.33956e-05
-1.58366e-05 0.000134085 8.50528e-06
1.33956e-05 8.50528e-06 0.000140969
0.00136319 -1.83692e-05 -5.66084e-06
-1.83692e-05 0.000464757 -5.87837e-06
-5.66084e-06 -5.87837e-06 0.000452312
0.000802908 -2.50777e-05 4.15745e-06
-2.50777e-05 0.000127191 3.28353e-06
4.15745e-06 3.28353e-06 0.000133295
0.000759157 -3.25636e-05 -6.9296e-07
-3.25636e-05 0.000101845 -2.28899e-06
-6.9296e-07 -2.28899e-06 0.000107014
0.000648876 1.00224e-05 1.30978e-06
1.00224e-05 4.68759e-05 -1.41505e-06
1.30978e-06 -1.41505e-06 6.35758e-06
0.000517389 2.87495e-05 4.01061e-07
2.87495e-05 -4.53884e-05 -3.37659e-06
4.01061e-07 -3.37659e-06 -5.72756e-05
0.000524108 3.93288e-05 2.42144e-07
3.93288e-05 -3.21327e-05 1.54397e-07
2.42144e-07 1.54397e-07 -4.8654e-05
0.00213051 7.27778e-05 1.72882e-05
7.27778e-05 0.000948508 -3.93081e-06
1.72882e-05 -3.93081e-06 0.00095908
0.000532224 6.22382e-05 4.05661e-06
6.22382e-05 -9.94436e-06 5.24811e-06
4.05661e-06 5.24811e-06 -3.72405e-05
0.00238778 9.53291e-05 -4.798e-06
9.53291e-05 0.00111394 -4.03221e-07
-4.798e-06 -4.03221e-07 0.00111879
0.00274427 0.000119238 -2.32053e-05
0.000119238 0.00133729 4.35675e-06
-2.32053e-05 4.35675e-06 0.00133574
0.00201385 0.000277287 -4.91095e-07
0.000277287 0.000113082 5.07644e-07
-4.91095e-07 5.07644e-07 2.2909e-05
0.00191492 0.000165955 -3.73717e-06
0.000165955 3.85122e-05 -9.06311e-07
-3.73717e-06 -9.06311e-07 -6.60705e-06
0.00190396 4.99861e-05 -4.92497e-06
4.99861e-05 6.03202e-05 -4.41996e-07
-4.92497e-06 -4.41996e-07 3.00428e-05
0.00178811 -5.00014e-07 -2.74667e-06
-5.00014e-07 2.96343e-05 1.54059e-08
-2.74667e-06 1.54059e-08 -1.96866e-05
0.00185641 -4.76668e-06 -8.24932e-07
-4.76668e-06 2.61874e-05 -2.27132e-09
-8.24932e-07 -2.27132e-09 3.94554e-06
0.00195862 8.80443e-05 5.25335e-08
8.80443e-05 8.68743e-06 2.87623e-08
5.25335e-08 2.87623e-08 3.01808e-06
0.00203277 0.000245385 -7.32138e-07
0.000245385 4.07558e-05 -6.82817e-08
-7.32138e-07 -6.82817e-08 -5.21539e-06
0.00194779 -3.36695e-06 1.34974e-06
-3.36695e-06 -8.3845e-07 -4.91736e-07
1.34974e-06 -4.91736e-07 4.10843e-06
0.00209109 0.000136582 3.196e-06
0.000136582 5.94307e-06 -2.31308e-07
3.196e-06 -2.31308e-07 6.96051e-06
0.00230048 9.08125e-05 -2.13948e-06
9.08125e-05 0.000178996 7.05727e-06
-2.13948e-06 7.05727e-06 0.000227226
0.00187663 -7.09895e-05 -5.09102e-06
-7.09895e-05 3.91834e-05 3.57421e-07
-5.09102e-06 3.57421e-07 1.83761e-06
0.00192751 -0.00018597 -3.50186e-06
-0.00018597 8.66247e-06 7.75939e-07
-3.50186e-06 7.75939e-07 -2.31745e-05
0.00191556 -0.000290376 -3.37418e-06
-0.000290376 7.45448e-05 1.91862e-06
-3.37418e-06 1.91862e-06 6.27163e-06
0.000604077 -0.000260902 1.40286e-06
-0.000260902 -0.000131084 5.8046e-06
1.40286e-06 5.8046e-06 -0.000378036
0.0014701 -0.000473835 1.6246e-06
-0.000473835 0.000266902 -8.71274e-07
1.6246e-06 -8.71274e-07 -7.44679e-05
0.00198551 -0.000536262 -2.17953e-06
-0.000536262 0.000432828 -1.16215e-06
-2.17953e-06 -1.16215e-06 0.00012339
0.00182748 -0.000367239 7.30763e-07
-0.000367239 1.95228e-05 1.66347e-06
7.30763e-07 1.66347e-06 -8.823e-05
0.00164674 -0.000432222 -5.0301e-06
-0.000432222 2.54213e-05 -5.59207e-06
-5.0301e-06 -5.59207e-06 -0.000157144
0.000302031 -0.000222685 -2.04805e-06
-0.000222685 -0.000275653 1.15947e-05
-2.04805e-06 1.15947e-05 -0.000490001
0.00217255 -0.000334466 1.63823e-05
-0.000334466 0.000978382 -3.14923e-06
1.63823e-05 -3.14923e-06 0.000713047
0.000740316 -3.4897e-05 1.18507e-06
-3.4897e-05 0.000149256 -9.16676e-07
1.18507e-06 -9.16676e-07 -5.11084e-05
0.000506463 1.57523e-05 4.33257e-07
1.57523e-05 -2.69239e-05 2.031e-07
4.33257e-07 2.031e-07 -7.5429e-05
0.000805013 3.21401e-05 2.7909e-06
3.21401e-05 0.000189229 5.41121e-07
2.7909e-06 5.41121e-07 7.8457e-05
0.000848945 -6.15854e-05 1.31418e-06
-6.15854e-05 0.000233356 1.59269e-06
1.31418e-06 1.59269e-06 7.18286e-05
0.00194491 -9.07083e-05 3.06265e-07
-9.07083e-05 6.20146e-06 -9.05447e-09
3.06265e-07 -9.05447e-09 2.93192e-06
0.000565663 1.85426e-05 1.06044e-06
1.85426e-05 1.76915e-07 1.43886e-07
1.06044e-06 1.43886e-07 -4.26569e-05
0.000510513 -4.77246e-05 -1.78456e-06
-4.77246e-05 -1.18782e-05 -5.40618e-08
-1.78456e-06 -5.40618e-08 -8.44038e-05
0.00201386 -0.000244106 -1.55575e-07
-0.000244106 2.02419e-05 2.35232e-07
-1.55575e-07 2.35232e-07 1.60387e-05
0.00193404 -0.000315781 -1.32351e-06
-0.000315781 3.97279e-05 1.36739e-07
-1.32351e-06 1.36739e-07 -8.53581e-06
0.00110529 -0.000369472 -2.63852e-06
-0.000369472 0.000135195 1.28376e-06
-2.63852e-06 1.28376e-06 -0.000172357
0.00183457 -0.000555626 4.46567e-07
-0.000555626 0.000453871 7.26583e-07
4.46567e-07 7.26583e-07 6.79524e-05
0.0016157 -0.000527359 3.61423e-06
-0.000527359 0.000155522 -1.8773e-06
3.61423e-06 -1.8773e-06 -0.000137637
0.00209512 -0.000491848 2.4041e-06
-0.000491848 0.000157763 -8.51817e-07
2.4041e-06 -8.51817e-07 2.45733e-05
0.000705784 -6.22997e-06 7.18037e-07
-6.22997e-06 0.000129913 -1.24023e-06
7.18037e-07 -1.24023e-06 3.8498e-05
0.00071042 -3.03812e-05 2.48763e-07
-3.03812e-05 0.000155926 1.41279e-06
2.48763e-07 1.41279e-06 1.07334e-05
0.00112993 -0.000310724 -2.73465e-06
-0.000310724 0.00021463 -1.58741e-06
-2.73465e-06 -1.58741e-06 -2.44706e-05
0.00175805 -0.000314629 1.62266e-05
-0.000314629 0.000781126 -3.25372e-06
1.62266e-05 -3.25372e-06 0.000461525
0.000395989 -7.4586e-05 -3.03595e-06
-7.4586e-05 -5.25853e-05 -5.78213e-07
-3.03595e-06 -5.78213e-07 -0.000266603
0.000645453 -3.54398e-05 6.9824e-07
-3.54398e-05 9.59007e-05 -7.82294e-07
6.9824e-07 -7.82294e-07 -7.74945e-05
0.00196976 -0.000106413 1.62923e-06
-0.000106413 -6.19926e-05 -9.86918e-07
1.62923e-06 -9.86918e-07 -5.8801e-05
0.00194905 -0.000295742 -2.9947e-07
-0.000295742 -9.99403e-05 6.89317e-07
-2.9947e-07 6.89317e-07 -2.03293e-05
0.00205343 -0.00043322 -4.70745e-06
-0.00043322 3.41122e-05 -1.16859e-06
-4.70745e-06 -1.16859e-06 -3.1887e-05
0.00155684 -0.00055975 9.35261e-07
-0.00055975 -3.21694e-05 -1.30426e-06
9.35261e-07 -1.30426e-06 -0.000202457
0.00105094 -0.00035002 -7.16219e-06
-0.00035002 0.000130109 -7.94146e-06
-7.16219e-06 -7.94146e-06 -0.000183525
0.00239156 -0.000655587 -9.55253e-06
-0.000655587 0.000731527 9.43095e-06
-9.55253e-06 9.43095e-06 0.000318246
0.000352238 5.19224e-05 -1.28997e-06
5.19224e-05 -9.56062e-05 -2.08867e-06
-1.28997e-06 -2.08867e-06 -0.000174784
0.000646159 -5.79314e-05 3.64974e-06
-5.79314e-05 6.91818e-05 -6.83362e-07
3.64974e-06 -6.83362e-07 -3.21217e-06
0.000940961 -0.000102019 1.3565e-06
-0.000102019 0.000257418 2.76114e-06
1.3565e-06 2.76114e-06 0.000157799
0.00046942 1.95867e-05 -2.59911e-06
1.95867e-05 -3.81629e-07 4.84045e-06
-2.59911e-06 4.84045e-06 -0.000129623
0.000861452 -7.35486e-05 -3.34112e-06
-7.35486e-05 0.00022523 4.80915e-06
-3.34112e-06 4.80915e-06 8.01257e-05
0.00121268 -5.4304e-05 1.82476e-06
-5.4304e-05 0.000384102 3.14364e-07
1.82476e-06 3.14364e-07 0.000197793
-0.000731443 -0.000117044 5.51445e-06
-0.000117044 -0.000506403 3.03441e-07
5.51445e-06 3.03441e-07 -0.000932832
-0.000239765 -0.000284229 -2.53948e-05
-0.000284229 -0.00057796 1.45019e-06
-2.53948e-05 1.45019e-06 -0.000811523
0.000387681 4.93692e-05 -4.31048e-07
4.93692e-05 -5.63024e-05 -8.08332e-07
-4.31048e-07 -8.08332e-07 -0.000173546
0.000983438 0.000168245 -6.55463e-06
0.000168245 0.000347992 -3.20503e-06
-6.55463e-06 -3.20503e-06 0.000154659
0.00212385 0.000331302 -4.26024e-06
0.000331302 6.11995e-05 -2.04699e-06
-4.26024e-06 -2.04699e-06 9.97206e-06
0.00197534 0.000425462 -1.07145e-06
0.000425462 0.000184353 1.48321e-06
-1.07145e-06 1.48321e-06 1.82842e-05
0.00183332 0.000253871 -7.91109e-06
0.000253871 0.000713225 -1.28371e-06
-7.91109e-06 -1.28371e-06 0.00053313
0.00205924 0.000392352 -5.15785e-06
0.000392352 0.00077218 -8.44446e-06
-5.15785e-06 -8.44446e-06 0.000520185
0.00189963 0.00048486 1.65886e-06
0.00048486 0.00028016 2.05078e-06
1.65886e-06 2.05078e-06 2.30139e-05
0.00182972 0.000458004 -1.73674e-07
0.000458004 0.000464395 -1.45837e-06
-1.73674e-07 -1.45837e-06 0.000153106
0.00052015 7.29509e-05 7.12584e-07
7.29509e-05 2.37918e-05 -1.0222e-06
7.12584e-07 -1.0222e-06 -0.000101764
0.002114 0.000264476 -1.2807e-06
0.000264476 -9.34611e-06 -8.96139e-07
-1.2807e-06 -8.96139e-07 3.95727e-06
0.00115897 0.000225047 1.2761e-06
0.000225047 0.000413884 1.53262e-06
1.2761e-06 1.53262e-06 0.000197386
0.00127012 0.000326351 1.33247e-06
0.000326351 0.000277438 -8.95246e-07
1.33247e-06 -8.95246e-07 2.95449e-05
0.00230622 0.00042041 2.44141e-06
0.00042041 0.000255125 6.07459e-07
2.44141e-06 6.07459e-07 0.000147662
0.0016202 0.000495189 -1.42595e-06
0.000495189 2.58391e-05 -4.03071e-06
-1.42595e-06 -4.03071e-06 -0.000217939
0.0018979 0.000490803 -1.58971e-07
0.000490803 0.000460503 3.22229e-07
-1.58971e-07 3.22229e-07 0.000134311
0.00113072 0.000175304 -3.774e-06
0.000175304 0.000411938 3.54012e-06
-3.774e-06 3.54012e-06 0.000240047
0.00241151 0.0003089 -5.15275e-05
0.0003089 0.000222449 -1.38666e-05
-5.15275e-05 -1.38666e-05 0.000253843
0.00197776 0.000394701 -5.51779e-06
0.000394701 0.000813636 8.41182e-07
-5.51779e-06 8.41182e-07 0.000566849
0.00191115 0.000439549 -7.31123e-06
0.000439549 0.000559825 -1.24666e-06
-7.31123e-06 -1.24666e-06 0.000268106
0.00226383 0.000559653 -2.62834e-05
0.000559653 0.000274758 -1.34298e-05
-2.62834e-05 -1.34298e-05 9.82489e-05
0.00081101 0.000418318 -1.96163e-05
0.000418318 -0.000203855 -1.99815e-06
-1.96163e-05 -1.99815e-06 -0.00050353
0.00119828 0.000439919 3.5053e-05
0.000439919 -0.0004269 -2.35156e-05
3.5053e-05 -2.35156e-05 -0.000659027
0.000385227 7.27381e-05 1.1225e-06
7.27381e-05 -6.19644e-05 -6.37313e-07
1.1225e-06 -6.37313e-07 -0.000160326
0.000604055 5.85909e-05 -9.34959e-08
5.85909e-05 7.86829e-05 1.0743e-06
-9.34959e-08 1.0743e-06 -7.04073e-06
0.00150408 9.49633e-05 8.36493e-07
9.49633e-05 0.000589426 -2.9234e-08
8.36493e-07 -2.9234e-08 0.00050228
0.000554765 -6.38525e-05 3.92313e-07
-6.38525e-05 4.33866e-05 -3.10281e-06
3.92313e-07 -3.10281e-06 -5.71455e-05
0.000474941 -3.99437e-05 -1.48369e-06
-3.99437e-05 -5.83408e-06 -3.39919e-07
-1.48369e-06 -3.39919e-07 -0.000122007
0.000926119 0.000142737 -5.68501e-07
0.000142737 0.000268099 9.77377e-07
-5.68501e-07 9.77377e-07 0.00013821
0.000203813 2.13603e-06 -2.28844e-06
2.13603e-06 -0.000177899 5.39002e-06
-2.28844e-06 5.39002e-06 -0.000261224
0.000604755 -2.24006e-05 -2.40177e-07
-2.24006e-05 7.20401e-05 -2.50445e-08
-2.40177e-07 -2.50445e-08 -3.12913e-05
0.000592094 4.84137e-05 -1.23851e-08
4.84137e-05 5.51875e-05 -5.08145e-07
-1.23851e-08 -5.08145e-07 -6.55793e-05
0.000928941 5.62684e-05 -1.19923e-06
5.62684e-05 0.000225223 1.08143e-06
-1.19923e-06 1.08143e-06 0.000154029
0.000701396 3.74677e-05 1.04036e-06
3.74677e-05 0.000123885 1.23463e-07
1.04036e-06 1.23463e-07 -3.99952e-06
0.000730913 1.87189e-05 -8.59801e-07
1.87189e-05 0.000119518 -6.20782e-07
-8.59801e-07 -6.20782e-07 2.2436e-05
0.0010004 5.85223e-05 1.39366e-06
5.85223e-05 0.000274433 -4.48096e-06
1.39366e-06 -4.48096e-06 0.000198201
0.000874319 6.92125e-05 -1.92024e-06
6.92125e-05 0.000210916 -2.06177e-06
-1.92024e-06 -2.06177e-06 7.82995e-05
0.000853897 8.91943e-05 9.46048e-07
8.91943e-05 0.000206403 8.79584e-07
9.46048e-07 8.79584e-07 7.96556e-05
0.000646256 4.41121e-05 5.08547e-07
4.41121e-05 0.00010362 1.79117e-06
5.08547e-07 1.79117e-06 -3.62417e-05
0.000441721 -2.42057e-05 -2.41707e-07
-2.42057e-05 -4.23829e-05 2.6376e-06
-2.41707e-07 2.6376e-06 -0.000141572
0.000935809 -3.50413e-05 4.36308e-07
-3.50413e-05 0.000303364 -6.87046e-07
4.36308e-07 -6.87046e-07 0.000159973
0.000341235 -2.20553e-05 -1.01282e-06
-2.20553e-05 -9.98734e-05 2.62016e-06
-1.01282e-06 2.62016e-06 -0.000202649
0.000523338 3.79216e-06 -1.52514e-06
3.79216e-06 -2.72946e-06 2.45647e-06
-1.52514e-06 2.45647e-06 -6.62121e-05
0.000545602 2.63006e-05 1.71996e-06
2.63006e-05 9.41727e-06 -4.29224e-08
1.71996e-06 -4.29224e-08 -5.30358e-05
0.000495338 1.26793e-05 1.01605e-06
1.26793e-05 -5.08454e-05 3.93055e-06
1.01605e-06 3.93055e-06 -6.8999e-05
0.000545966 1.82597e-06 -2.35678e-06
1.82597e-06 8.08338e-06 -2.57664e-06
-2.35678e-06 -2.57664e-06 -5.24686e-05
0.000925514 5.73062e-06 -2.32739e-06
5.73062e-06 0.000206374 -1.66085e-06
-2.32739e-06 -1.66085e-06 0.00019087
0.00245292 -1.29531e-05 9.39453e-06
-1.29531e-05 0.001126 5.29341e-06
9.39453e-06 5.29341e-06 0.00114054
0.0013717 -5.33044e-06 -4.01872e-06
-5.33044e-06 0.00047251 -5.76408e-06
-4.01872e-06 -5.76408e-06 0.00045984
0.000795806 -1.61833e-05 2.51841e-06
-1.61833e-05 0.000122387 3.29908e-06
2.51841e-06 3.29908e-06 0.000129277
0.000776852 -2.37043e-05 -1.06605e-07
-2.37043e-05 0.000109483 -2.30332e-06
-1.06605e-07 -2.30332e-06 0.000115808
0.000573238 1.50753e-05 -8.81917e-07
1.50753e-05 4.15686e-06 -1.33453e-06
-8.81917e-07 -1.33453e-06 -3.56447e-05
0.000599375 -3.89391e-06 1.11901e-06
-3.89391e-06 1.83324e-05 -1.55444e-07
1.11901e-06 -1.55444e-07 -2.30864e-05
0.000551471 2.20829e-05 3.46926e-07
2.20829e-05 -2.78219e-05 -3.30777e-06
3.46926e-07 -3.30777e-06 -3.75914e-05
0.000851262 3.55253e-05 -3.26689e-07
3.55253e-05 0.000158103 5.5894e-08
-3.26689e-07 5.5894e-08 0.000147543
0.00210398 5.8378e-05 1.34911e-05
5.8378e-05 0.000925437 -4.16125e-06
1.34911e-05 -4.16125e-06 0.000938917
0.000535436 4.36093e-05 1.40506e-06
4.36093e-05 -2.33035e-05 3.7654e-06
1.40506e-06 3.7654e-06 -4.0917e-05
0.0022127 7.6847e-05 -2.87798e-06
7.6847e-05 0.000999505 -2.0421e-07
-2.87798e-06 -2.0421e-07 0.00100902
0.00244953 9.83782e-05 -1.81023e-05
9.83782e-05 0.0011517 4.13278e-06
-1.81023e-05 4.13278e-06 0.00115577
0.00198806 0.000248412 -3.69002e-06
0.000248412 1.17824e-05 -1.96346e-06
-3.69002e-06 -1.96346e-06 -3.18778e-05
0.00193896 8.34639e-05 -1.59933e-06
8.34639e-05 2.84306e-06 2.77807e-07
-1.59933e-06 2.77807e-07 -4.75126e-06
0.00184219 -2.04284e-06 -4.87259e-06
-2.04284e-06 1.38076e-05 -4.46636e-08
-4.87259e-06 -4.46636e-08 -4.76746e-06
0.00193949 -1.44439e-06 1.47382e-07
-1.44439e-06 -3.15356e-06 -2.05805e-07
1.47382e-07 -2.05805e-07 1.55818e-06
0.00207469 0.0001379 -6.60234e-08
0.0001379 1.15817e-05 2.32554e-07
-6.60234e-08 2.32554e-07 1.13208e-05
0.00199977 7.60068e-05 6.14172e-06
7.60068e-05 -1.40941e-05 -2.56837e-06
6.14172e-06 -2.56837e-06 2.79782e-05
0.0020818 2.44247e-06 -1.03925e-06
2.44247e-06 -2.5658e-05 -1.16182e-06
-1.03925e-06 -1.16182e-06 4.17026e-06
0.00331375 0.000406973 3.77158e-05
0.000406973 -0.000383104 6.22451e-06
3.77158e-05 6.22451e-06 -4.25958e-05
0.00233224 4.97966e-05 -3.05882e-05
4.97966e-05 0.000343899 2.03625e-05
-3.05882e-05 2.03625e-05 0.000451321
0.000559653 8.83415e-05 -9.54738e-07
8.83415e-05 3.3512e-05 4.2949e-08
-9.54738e-07 4.2949e-08 -4.29383e-05
0.00196105 -9.2658e-05 -1.58694e-06
-9.2658e-05 8.7712e-06 -1.97915e-07
-1.58694e-06 -1.97915e-07 7.77637e-06
0.00199176 -0.000234187 -1.21471e-07
-0.000234187 2.44727e-05 1.33674e-07
-1.21471e-07 1.33674e-07 1.56397e-05
0.00188638 -0.000314977 -1.18339e-06
-0.000314977 9.15735e-06 2.12568e-06
-1.18339e-06 2.12568e-06 -3.796e-05
0.000342509 -0.000292127 -3.63651e-06
-0.000292127 -0.000306677 8.87322e-06
-3.63651e-06 8.87322e-06 -0.000596439
0.00211526 -0.000582144 3.50438e-06
-0.000582144 0.000616546 5.17526e-06
3.50438e-06 5.17526e-06 0.000225049
0.00154073 -0.000525437 7.09472e-07
-0.000525437 9.31635e-05 -8.65738e-06
7.09472e-07 -8.65738e-06 -0.000196681
0.00222424 -0.000497569 -2.58567e-06
-0.000497569 0.000242516 -1.37665e-06
-2.58567e-06 -1.37665e-06 0.000106652
0.00206288 -0.000377038 1.91173e-05
-0.000377038 0.000742597 -8.90948e-07
1.91173e-05 -8.90948e-07 0.000490826
0.00037272 -0.000183279 1.4491e-05
-0.000183279 -3.89909e-05 -4.7643e-06
1.4491e-05 -4.7643e-06 -0.000301265
0.00120402 -0.00011258 2.77517e-06
-0.00011258 0.000418558 -2.05689e-06
2.77517e-06 -2.05689e-06 0.000210029
0.000567199 5.76322e-06 -3.49069e-07
5.76322e-06 9.27946e-07 1.35984e-06
-3.49069e-07 1.35984e-06 -4.09383e-05
0.000865295 -2.0761e-05 2.81397e-06
-2.0761e-05 0.000239141 -1.71409e-06
2.81397e-06 -1.71409e-06 5.79099e-05
0.000862668 -3.17281e-05 2.8953e-06
-3.17281e-05 0.000232227 -1.18791e-06
2.8953e-06 -1.18791e-06 0.000139339
0.000864086 -2.82862e-05 2.27185e-06
-2.82862e-05 0.000244446 -1.9107e-06
2.27185e-06 -1.9107e-06 9.70855e-05
0.000340204 -3.16222e-05 -2.49818e-06
-3.16222e-05 -0.000120867 7.52278e-07
-2.49818e-06 7.52278e-07 -0.000190213
0.00199789 -0.000120911 -3.25643e-07
-0.000120911 -6.87055e-05 2.06986e-07
-3.25643e-07 2.06986e-07 -5.01357e-05
0.000459321 3.635e-05 -9.0048e-08
3.635e-05 -2.45314e-05 -1.51336e-06
-9.0048e-08 -1.51336e-06 -0.000106896
0.000623286 -5.37333e-05 1.17916e-06
-5.37333e-05 6.70412e-05 5.46049e-07
1.17916e-06 5.46049e-07 -1.12532e-05
0.000793036 -7.26493e-05 4.73505e-07
-7.26493e-05 0.000166116 7.3412e-07
4.73505e-07 7.3412e-07 6.93713e-05
0.00198384 -0.000299176 1.37583e-06
-0.000299176 -6.26809e-05 -2.53074e-07
1.37583e-06 -2.53074e-07 -3.55292e-06
0.00208839 -0.000435931 2.01716e-07
-0.000435931 5.92845e-05 -5.97511e-07
2.01716e-07 -5.97511e-07 -6.96641e-06
0.00112916 -0.000358501 8.29846e-06
-0.000358501 0.00016979 -7.06233e-07
8.29846e-06 -7.06233e-07 -0.000139531
0.00223253 -0.000641462 7.36472e-06
-0.000641462 0.000646764 -2.14917e-07
7.36472e-06 -2.14917e-07 0.000245297
0.00199538 -0.000589218 -1.34625e-06
-0.000589218 0.000232566 1.61498e-06
-1.34625e-06 1.61498e-06 4.74193e-05
0.00038837 -1.77002e-05 -5.22549e-07
-1.77002e-05 -4.5624e-05 -4.71224e-07
-5.22549e-07 -4.71224e-07 -0.000169522
0.000845803 -8.43392e-05 -1.91463e-06
-8.43392e-05 0.000224508 6.45088e-07
-1.91463e-06 6.45088e-07 6.72139e-05
0.00076682 -0.000377142 -7.07746e-06
-0.000377142 9.99737e-06 -3.2379e-07
-7.07746e-06 -3.2379e-07 -0.000272168
0.000501588 -0.000123136 -1.90479e-09
-0.000123136 0.000118662 -2.08827e-06
-1.90479e-09 -2.08827e-06 -0.000232117
0.000727494 -6.82085e-05 2.88857e-08
-6.82085e-05 9.29084e-05 6.3679e-07
2.88857e-08 6.3679e-07 -8.32389e-05
0.00237447 -0.000239816 -3.6159e-06
-0.000239816 0.000137088 -1.34462e-06
-3.6159e-06 -1.34462e-06 0.000160042
0.00180708 -0.000317653 -1.32326e-05
-0.000317653 -0.00019002 2.81471e-06
-1.32326e-05 2.81471e-06 -9.07622e-05
0.00234541 -0.000593335 -1.13721e-05
-0.000593335 0.000249442 -7.91712e-07
-1.13721e-05 -7.91712e-07 0.000102241
0.00300194 -0.000719616 -2.35281e-05
-0.000719616 0.000906505 2.08309e-07
-2.35281e-05 2.08309e-07 0.000653506
0.00121053 -0.000416216 -2.52135e-05
-0.000416216 0.000255576 -2.56843e-06
-2.52135e-05 -2.56843e-06 -6.48344e-05
0.000375623 -5.55299e-06 1.41054e-06
-5.55299e-06 -7.40933e-05 3.29684e-07
1.41054e-06 3.29684e-07 -0.00017249
0.000446409 3.08659e-05 5.32067e-07
3.08659e-05 -5.33678e-05 2.11276e-06
5.32067e-07 2.11276e-06 -0.000151606
0.000198261 -1.05929e-05 -3.16992e-07
-1.05929e-05 -0.000178652 -1.19609e-06
-3.16992e-07 -1.19609e-06 -0.000283726
0.00156177 -0.000189385 -5.28385e-06
-0.000189385 0.00067366 9.02927e-06
-5.28385e-06 9.02927e-06 0.000522256
0.000595643 -6.7857e-05 -2.97558e-06
-6.7857e-05 4.82059e-05 9.76779e-06
-2.97558e-06 9.76779e-06 -9.81008e-05
-0.00038201 -9.18018e-05 6.96161e-07
-9.18018e-05 -0.000281364 5.18926e-06
6.96161e-07 5.18926e-06 -0.00067996
-0.000252656 -0.000440624 -7.60625e-07
-0.000440624 -0.000311848 -1.51458e-06
-7.60625e-07 -1.51458e-06 -0.000769435
0.00092351 0.000119753 8.99201e-08
0.000119753 0.000278686 -4.73086e-06
8.99201e-08 -4.73086e-06 0.000136062
0.000345248 0.000110176 -3.01839e-06
0.000110176 -8.77612e-05 -1.60598e-06
-3.01839e-06 -1.60598e-06 -0.000276076
0.0021902 0.000245417 7.48657e-06
0.000245417 2.60974e-05 2.5626e-07
7.48657e-06 2.5626e-07 5.05486e-05
0.00222743 0.000417368 1.50308e-05
0.000417368 0.000214779 4.14987e-06
1.50308e-05 4.14987e-06 0.000111801
0.00226671 0.000539167 1.38028e-05
0.000539167 0.000390562 3.9494e-06
1.38028e-05 3.9494e-06 0.000145164
0.00119831 0.000321326 -6.5447e-07
0.000321326 0.00023769 -1.08645e-06
-6.5447e-07 -1.08645e-06 -1.51237e-05
0.00166116 0.000466704 1.4724e-06
0.000466704 0.000333761 1.67318e-06
1.4724e-06 1.67318e-06 1.09334e-05
0.00150492 0.000162617 4.19998e-08
0.000162617 0.000609766 7.81217e-08
4.19998e-08 7.81217e-08 0.000451716
0.00242748 0.000274959 -2.51729e-06
0.000274959 0.000264664 9.46738e-07
-2.51729e-06 9.46738e-07 0.000303167
0.00141519 0.000312875 -1.96148e-06
0.000312875 0.000466733 1.233e-06
-1.96148e-06 1.233e-06 0.000239378
0.00153365 0.00040386 9.52882e-07
0.00040386 0.000372855 1.8485e-06
9.52882e-07 1.8485e-06 7.41948e-05
0.00208786 0.000540464 -1.36934e-06
0.000540464 0.000170814 -2.68901e-06
-1.36934e-06 -2.68901e-06 1.08726e-05
0.0016534 0.000500571 -3.84351e-06
0.000500571 0.000270659 5.2255e-06
-3.84351e-06 5.2255e-06 -4.50493e-05
0.00247028 0.000577401 5.26099e-05
0.000577401 -9.38353e-05 4.38929e-06
5.26099e-05 4.38929e-06 -0.00039061
0.00112983 0.000225675 -5.61085e-06
0.000225675 0.000407266 -5.93294e-08
-5.61085e-06 -5.93294e-08 0.000221958
0.00340456 0.000492037 -6.80484e-05
0.000492037 0.00093804 -2.89002e-05
-6.80484e-05 -2.89002e-05 0.000886293
0.00108295 0.000312769 -3.56485e-06
0.000312769 0.000176843 -1.69098e-06
-3.56485e-06 -1.69098e-06 -4.70122e-05
0.000233024 0.000300397 -1.4048e-06
0.000300397 -0.000372008 -7.12235e-06
-1.4048e-06 -7.12235e-06 -0.000660076
0.000552357 0.000500393 -2.35532e-05
0.000500393 -0.000496172 -5.72652e-06
-2.35532e-05 -5.72652e-06 -0.000687107
0.0117092 0.000416311 -0.000258584
0.000416311 0.00237466 -5.88472e-05
-0.000258584 -5.88472e-05 0.00150727
0.00605073 0.00101954 0.000111648
0.00101954 0.000603513 -4.79622e-05
0.000111648 -4.79622e-05 0.000547824
-0.000118645 0.000677272 8.83836e-06
0.000677272 -0.000883459 4.79451e-06
8.83836e-06 4.79451e-06 -0.00120125
-0.00351363 -0.00101962 0.000596072
-0.00101962 -0.000186316 0.000104253
0.000596072 0.000104253 -0.00203641
0.0114893 -0.00378244 -2.80097e-05
-0.00378244 0.00304597 2.9372e-05
-2.80097e-05 2.9372e-05 0.00376665
0.000317806 6.60599e-05 4.58863e-06
6.60599e-05 -7.70559e-05 8.39505e-07
4.58863e-06 8.39505e-07 -0.000165531
0.000943346 6.62349e-05 1.36288e-06
6.62349e-05 0.000282518 -1.11099e-06
1.36288e-06 -1.11099e-06 0.000197029
0.00129074 0.000146354 -1.33173e-06
0.000146354 0.00049716 -1.62714e-07
-1.33173e-06 -1.62714e-07 0.000388598
0.000574487 -6.24563e-05 -2.99942e-07
-6.24563e-05 6.25932e-05 -2.22539e-06
-2.99942e-07 -2.22539e-06 -4.57314e-05
0.00056522 5.82883e-05 -1.52143e-06
5.82883e-05 4.19339e-05 -2.22764e-06
-1.52143e-06 -2.22764e-06 -8.28741e-05
0.000726461 -2.05567e-05 -4.20865e-07
-2.05567e-05 0.00014083 -8.19252e-07
-4.20865e-07 -8.19252e-07 1.21681e-05
0.000781158 4.1634e-05 -3.26173e-06
4.1634e-05 0.00014521 4.22888e-06
-3.26173e-06 4.22888e-06 4.49003e-05
0.000528434 4.21061e-05 -1.22778e-06
4.21061e-05 -9.2799e-06 3.60772e-06
-1.22778e-06 3.60772e-06 -8.08047e-05
0.000784541 9.43778e-05 -1.98518e-06
9.43778e-05 0.000181391 -6.24001e-07
-1.98518e-06 -6.24001e-07 4.19428e-05
0.000508955 -9.8876e-06 9.01181e-08
-9.8876e-06 5.08144e-06 7.72592e-07
9.01181e-08 7.72592e-07 -9.73777e-05
0.000638351 1.84222e-05 2.87403e-07
1.84222e-05 9.51798e-05 2.00825e-07
2.87403e-07 2.00825e-07 -4.12293e-05
0.000660172 5.39553e-05 6.69941e-07
5.39553e-05 6.77268e-05 -8.29287e-07
6.69941e-07 -8.29287e-07 -9.3996e-06
0.000812576 6.98022e-05 -1.14944e-06
6.98022e-05 0.000174635 -1.3208e-07
-1.14944e-06 -1.3208e-07 4.67291e-05
0.00125968 0.000121523 -1.55225e-06
0.000121523 0.000452884 -1.11033e-06
-1.55225e-06 -1.11033e-06 0.00031721
0.000373693 6.44192e-05 8.35452e-07
6.44192e-05 -6.58431e-05 -3.1715e-06
8.35452e-07 -3.1715e-06 -0.000185645
0.000758496 8.70743e-05 1.94307e-06
8.70743e-05 0.000151294 9.12963e-07
1.94307e-06 9.12963e-07 1.94318e-05
0.000551809 -2.5998e-05 1.37131e-06
-2.5998e-05 2.91734e-05 8.96165e-08
1.37131e-06 8.96165e-08 -9.78047e-05
0.000399195 -5.77614e-05 -1.2288e-06
-5.77614e-05 -6.34888e-05 2.35162e-06
-1.2288e-06 2.35162e-06 -0.000168344
0.000755809 -9.77521e-06 -3.38099e-07
-9.77521e-06 0.000163921 2.40312e-07
-3.38099e-07 2.40312e-07 3.21598e-05
0.000896839 3.10604e-05 2.42945e-07
3.10604e-05 0.000253527 -4.09153e-06
2.42945e-07 -4.09153e-06 0.000123212
0.000645882 -3.39539e-05 -6.39764e-07
-3.39539e-05 0.000110069 3.62011e-07
-6.39764e-07 3.62011e-07 -1.54739e-05
0.000792277 -3.08131e-05 1.36159e-06
-3.08131e-05 0.000195476 -6.65274e-07
1.36159e-06 -6.65274e-07 6.5565e-05
0.000665874 -9.59196e-05 -2.3952e-06
-9.59196e-05 0.000100021 1.80391e-06
-2.3952e-06 1.80391e-06 -2.70538e-06
0.000395128 -1.53995e-05 1.70702e-07
-1.53995e-05 -6.50873e-05 9.49495e-07
1.70702e-07 9.49495e-07 -0.000170117
0.000560278 -2.98614e-05 -1.7589e-06
-2.98614e-05 1.14759e-05 2.74585e-06
-1.7589e-06 2.74585e-06 -4.84285e-05
0.000558866 -2.47565e-05 1.29458e-06
-2.47565e-05 1.66024e-05 3.74195e-08
1.29458e-06 3.74195e-08 -4.60789e-05
0.000545488 5.62021e-06 5.75795e-07
5.62021e-06 -1.99567e-05 5.79844e-06
5.75795e-07 5.79844e-06 -3.86311e-05
0.000560443 2.73448e-05 -1.24534e-06
2.73448e-05 1.49191e-05 -2.50546e-06
-1.24534e-06 -2.50546e-06 -4.52514e-05
0.00050954 8.14134e-06 4.27027e-07
8.14134e-06 -4.20304e-05 1.83483e-08
4.27027e-07 1.83483e-08 -6.02797e-05
0.00241581 -1.36736e-06 -7.46908e-07
-1.36736e-06 0.00110401 5.32941e-06
-7.46908e-07 5.32941e-06 0.00111862
0.000563369 9.63903e-06 -1.44632e-06
9.63903e-06 -1.20605e-05 -6.0003e-06
-1.44632e-06 -6.0003e-06 -3.0183e-05
0.00163088 -9.75982e-06 -3.71487e-08
-9.75982e-06 0.000628042 9.66804e-08
-3.71487e-08 9.66804e-08 0.000638453
0.000774637 -1.45181e-05 2.99471e-07
-1.45181e-05 0.000107276 -2.17948e-06
2.99471e-07 -2.17948e-06 0.000114495
0.000573531 -1.61815e-05 9.4577e-07
-1.61815e-05 7.12755e-06 -1.19109e-06
9.4577e-07 -1.19109e-06 -3.14394e-05
0.000604964 -2.56093e-05 3.75691e-07
-2.56093e-05 2.42761e-05 -5.47474e-08
3.75691e-07 -5.47474e-08 -1.6684e-05
0.000567663 1.39477e-05 5.73783e-07
1.39477e-05 -2.02455e-05 -3.02352e-06
5.73783e-07 -3.02352e-06 -2.81638e-05
0.000572984 -1.97275e-05 -1.39969e-06
-1.97275e-05 9.29341e-07 1.16914e-06
-1.39969e-06 1.16914e-06 -3.97675e-05
0.000833598 2.61078e-05 -4.85645e-08
2.61078e-05 0.000143135 -7.18408e-07
-4.85645e-08 -7.18408e-07 0.000135343
0.00202319 4.33895e-05 9.99298e-06
4.33895e-05 0.000871558 -4.27862e-06
9.99298e-06 -4.27862e-06 0.000887628
0.000537418 3.11525e-05 -3.81326e-07
3.11525e-05 -3.15903e-05 3.34628e-06
-3.81326e-07 3.34628e-06 -4.42388e-05
0.00215607 6.08294e-05 -6.96973e-06
6.08294e-05 0.00095925 1.10844e-06
-6.96973e-06 1.10844e-06 0.000972033
0.00228079 8.07142e-05 -1.40285e-05
8.07142e-05 0.00104188 4.13388e-06
-1.40285e-05 4.13388e-06 0.00105044
0.0020514 0.000139577 -2.63052e-06
0.000139577 1.37031e-05 -7.94204e-07
-2.63052e-06 -7.94204e-07 1.23448e-05
0.00193434 -6.03909e-07 -1.22148e-06
-6.03909e-07 -3.71306e-06 1.74066e-07
-1.22148e-06 1.74066e-07 6.59882e-07
0.00171698 6.06788e-05 7.31894e-06
6.06788e-05 -0.000200125 1.22548e-06
7.31894e-06 1.22548e-06 -0.000163451
0.00228676 0.000291264 4.70973e-05
0.000291264 -0.00071537 1.04165e-05
4.70973e-05 1.04165e-05 -0.000488049
0.00204236 -1.3972e-05 -2.09674e-06
-1.3972e-05 -3.53619e-05 -1.14228e-06
-2.09674e-06 -1.14228e-06 -4.81561e-06
0.00194489 5.73336e-05 3.24651e-06
5.73336e-05 0.000121464 -4.85764e-06
3.24651e-06 -4.85764e-06 0.000203876
0.00299777 -2.0711e-05 -2.90179e-05
-2.0711e-05 0.00079237 4.30042e-06
-2.90179e-05 4.30042e-06 0.000775187
0.00190381 -3.15764e-06 3.18381e-05
-3.15764e-06 -0.0016773 -3.19737e-05
3.18381e-05 -3.19737e-05 -0.00131781
0.00247959 0.000111761 5.08295e-05
0.000111761 -0.000268152 2.93874e-05
5.08295e-05 2.93874e-05 -3.34414e-05
0.000604743 7.35549e-05 1.59924e-07
7.35549e-05 6.37592e-05 -3.0386e-07
1.59924e-07 -3.0386e-07 -1.57008e-05
0.00062501 -7.93071e-06 5.34272e-07
-7.93071e-06 7.84863e-05 -1.93709e-07
5.34272e-07 -1.93709e-07 -3.38918e-06
0.000581249 -9.8335e-05 -1.39894e-06
-9.8335e-05 5.31916e-05 1.39758e-06
-1.39894e-06 1.39758e-06 -4.34035e-05
0.000564546 -4.34464e-05 -1.42943e-06
-4.34464e-05 6.50606e-05 1.22462e-06
-1.42943e-06 1.22462e-06 -4.13933e-05
0.00204175 -0.000134354 -3.5715e-06
-0.000134354 -6.44706e-05 2.15372e-07
-3.5715e-06 2.15372e-07 -3.09067e-05
0.00201323 -0.000297382 8.27786e-07
-0.000297382 -2.50554e-05 -6.83092e-07
8.27786e-07 -6.83092e-07 1.76309e-05
0.00211104 -0.000434665 -1.93925e-06
-0.000434665 7.87664e-05 1.62601e-06
-1.93925e-06 1.62601e-06 1.34319e-05
0.00260234 -0.000519067 1.29774e-05
-0.000519067 0.000998993 1.90852e-06
1.29774e-05 1.90852e-06 0.000673364
0.000983336 -0.000526105 1.17537e-05
-0.000526105 -4.00924e-05 -3.247e-06
1.17537e-05 -3.247e-06 -0.000420418
0.00237809 -0.000614027 7.69713e-06
-0.000614027 0.000463166 -3.24614e-06
7.69713e-06 -3.24614e-06 0.000266168
0.00138657 -0.000424801 -2.98734e-06
-0.000424801 0.000377871 3.40098e-06
-2.98734e-06 3.40098e-06 6.10938e-05
0.00214543 -0.000160751 2.3606e-06
-0.000160751 0.000979932 -3.65988e-07
2.3606e-06 -3.65988e-07 0.000704649
0.000135065 -6.31548e-05 7.61443e-07
-6.31548e-05 -0.000266947 -1.39009e-06
7.61443e-07 -1.39009e-06 -0.000429409
0.00067058 -4.43867e-05 2.4116e-08
-4.43867e-05 9.61913e-05 8.95587e-07
2.4116e-08 8.95587e-07 1.87181e-05
0.000680786 -9.61376e-05 1.41093e-06
-9.61376e-05 0.000137626 -4.43024e-06
1.41093e-06 -4.43024e-06 -2.96787e-05
0.000737292 -4.30646e-06 1.46943e-06
-4.30646e-06 0.000167768 -2.29868e-06
1.46943e-06 -2.29868e-06 4.23883e-05
0.000628531 5.82719e-06 1.32809e-07
5.82719e-06 8.38441e-05 -3.41177e-07
1.32809e-07 -3.41177e-07 -1.576e-06
0.000539493 -1.19814e-05 -4.29695e-06
-1.19814e-05 1.15151e-05 2.39531e-06
-4.29695e-06 2.39531e-06 -8.06799e-05
0.00235946 -0.000223859 1.48229e-06
-0.000223859 0.000135493 8.40749e-07
1.48229e-06 8.40749e-07 0.000172885
0.000620165 -1.7098e-05 9.92418e-07
-1.7098e-05 8.58199e-05 -4.87269e-08
9.92418e-07 -4.87269e-08 -2.17329e-05
0.000721635 -4.10313e-06 3.10807e-06
-4.10313e-06 0.000123941 -3.86684e-07
3.10807e-06 -3.86684e-07 1.92879e-05
0.000230532 1.79526e-05 4.04553e-07
1.79526e-05 -0.000158017 1.12488e-06
4.04553e-07 1.12488e-06 -0.000246007
0.00179603 -0.000321954 -5.90732e-07
-0.000321954 -0.000222696 -1.51669e-06
-5.90732e-07 -1.51669e-06 -0.000128505
0.00211946 -0.000568826 1.75733e-06
-0.000568826 0.00013973 -5.94518e-07
1.75733e-06 -5.94518e-07 2.02865e-06
0.00170894 -0.000501365 -1.69482e-06
-0.000501365 0.000526539 6.79717e-07
-1.69482e-06 6.79717e-07 0.000195235
0.00215301 -0.000652359 -6.01844e-06
-0.000652359 0.000447428 1.82016e-06
-6.01844e-06 1.82016e-06 0.0002003
0.00112539 -8.74333e-05 -1.03834e-06
-8.74333e-05 0.000388959 7.1766e-07
-1.03834e-06 7.1766e-07 0.000249233
0.0004456 -6.86595e-05 9.9037e-07
-6.86595e-05 -4.53689e-05 9.60239e-07
9.9037e-07 9.60239e-07 -0.000196941
0.00120141 -0.000537115 4.30972e-06
-0.000537115 0.000508883 -1.57773e-06
4.30972e-06 -1.57773e-06 3.51479e-05
0.00117081 -0.000224838 -4.05017e-07
-0.000224838 0.000492769 -5.65012e-07
-4.05017e-07 -5.65012e-07 0.000151916
0.00249541 -0.000280331 -2.59309e-05
-0.000280331 0.000116413 -1.25728e-06
-2.59309e-05 -1.25728e-06 0.000265108
0.00239902 -0.000463074 -3.3165e-05
-0.000463074 0.000189519 7.52044e-06
-3.3165e-05 7.52044e-06 0.000214757
0.00278054 -0.000725332 -1.21171e-05
-0.000725332 0.000605852 -4.84889e-06
-1.21171e-05 -4.84889e-06 0.000373641
0.00175331 -0.000569216 -1.22424e-05
-0.000569216 0.000415928 1.95301e-06
-1.22424e-05 1.95301e-06 0.000182662
0.000474907 -2.23619e-05 -1.12669e-06
-2.23619e-05 1.6528e-05 -1.79571e-06
-1.12669e-06 -1.79571e-06 -0.000105505
0.000430602 -8.14625e-05 -1.5942e-06
-8.14625e-05 -2.42455e-05 -5.4633e-06
-1.5942e-06 -5.4633e-06 -0.00015942
0.000342448 -0.00013153 -4.46755e-06
-0.00013153 4.93068e-05 1.56504e-05
-4.46755e-06 1.56504e-05 -0.000164386
-0.000511054 -0.000283136 -5.49355e-06
-0.000283136 -0.000177273 -9.79573e-06
-5.49355e-06 -9.79573e-06 -0.00075861
0.0012246 -0.000460698 2.99931e-05
-0.000460698 -0.00361418 -2.7965e-06
2.99931e-05 -2.7965e-06 -0.00378967
0.00165738 0.000151778 3.72318e-07
0.000151778 0.000686541 -4.19753e-06
3.72318e-07 -4.19753e-06 0.000536729
0.000822392 0.000239271 1.69596e-06
0.000239271 0.000114666 2.35575e-06
1.69596e-06 2.35575e-06 -0.000100641
0.00211462 0.000242306 5.84488e-05
0.000242306 0.000103981 1.23749e-05
5.84488e-05 1.23749e-05 0.000148931
0.00199071 0.000524866 1.96079e-05
0.000524866 0.0001098 6.58628e-06
1.96079e-05 6.58628e-06 -3.59663e-05
0.00207382 0.000543366 8.9555e-06
0.000543366 0.000520034 9.08001e-06
8.9555e-06 9.08001e-06 0.000191342
0.00119204 0.000371655 6.31674e-06
0.000371655 0.000202049 4.87732e-06
6.31674e-06 4.87732e-06 -0.000103568
0.00349454 0.00069599 8.48767e-05
0.00069599 0.000137386 3.54763e-05
8.48767e-05 3.54763e-05 -0.000267817
0.001272 0.000208441 4.32819e-06
0.000208441 0.000492109 7.28171e-07
4.32819e-06 7.28171e-07 0.000311296
0.00250354 0.000437877 -9.23049e-06
0.000437877 0.000416414 -6.98758e-07
-9.23049e-06 -6.98758e-07 0.000393523
0.00112476 0.000317607 1.10292e-06
0.000317607 0.000224375 9.46397e-07
1.10292e-06 9.46397e-07 -2.41792e-06
0.00118958 0.000413038 1.85727e-06
0.000413038 0.000166966 -3.22109e-06
1.85727e-06 -3.22109e-06 -0.000138938
0.00135782 0.000562214 -5.99762e-06
0.000562214 -7.73737e-05 -1.00809e-06
-5.99762e-06 -1.00809e-06 -0.000278702
0.0028056 -0.000389716 -0.000142004
-0.000389716 -0.00314468 -4.2658e-05
-0.000142004 -4.2658e-05 -0.00417417
0.00644334 0.000885132 -3.41487e-05
0.000885132 0.00064339 -5.49032e-05
-3.41487e-05 -5.49032e-05 0.000342292
0.000781321 0.000631933 -7.86187e-06
0.000631933 -0.000313284 7.11522e-06
-7.86187e-06 7.11522e-06 -0.000670544
-0.00238932 -0.000819401 0.000250684
-0.000819401 0.00122948 0.000107252
0.000250684 0.000107252 -0.000776727
0.00333747 -0.00376745 -0.000195553
-0.00376745 0.000486213 -0.000200047
-0.000195553 -0.000200047 0.00134264
0.00132881 0.000240516 -8.3571e-06
0.000240516 0.000497062 -1.96546e-06
-8.3571e-06 -1.96546e-06 0.000329002
0.00074714 0.000501128 0.000312408
0.000501128 0.00248298 9.09464e-06
0.000312408 9.09464e-06 0.00114039
0.00104437 -0.00111401 -0.000139149
-0.00111401 0.00315805 -0.000198996
-0.000139149 -0.000198996 0.000383313
0.00270433 0.000686331 -3.56511e-05
0.000686331 0.0005075 -1.06233e-05
-3.56511e-05 -1.06233e-05 0.000499458
0.000664557 0.000190772 -1.612e-05
0.000190772 -2.98068e-05 -4.99152e-06
-1.612e-05 -4.99152e-06 -0.000234363
0.000553457 0.000452521 -2.83412e-05
0.000452521 -0.000163736 -1.90204e-05
-2.83412e-05 -1.90204e-05 -0.000457218
0.000257732 0.00066016 3.76106e-05
0.00066016 -0.000646716 7.7848e-05
3.76106e-05 7.7848e-05 -0.000842184
0.0136369 0.00117114 -6.81018e-06
0.00117114 0.00362468 -5.30882e-05
-6.81018e-06 -5.30882e-05 0.00213663
0.00245428 0.00121692 7.74909e-06
0.00121692 0.000240943 -2.91547e-06
7.74909e-06 -2.91547e-06 -0.000755602
0.00515479 -0.00333053 0.000493534
-0.00333053 0.000563848 0.000319942
0.000493534 0.000319942 0.000267606
0.00759672 -0.00167864 -4.87205e-05
-0.00167864 0.00035609 0.000325816
-4.87205e-05 0.000325816 0.000571819
0.000624159 5.2122e-05 2.88502e-06
5.2122e-05 0.000113882 -2.7497e-06
2.88502e-06 -2.7497e-06 2.77519e-05
0.000696249 0.000108304 4.8402e-06
0.000108304 0.000148374 8.15454e-07
4.8402e-06 8.15454e-07 4.21304e-05
0.00141104 0.00019115 -5.6116e-07
0.00019115 0.000584879 -2.56641e-06
-5.6116e-07 -2.56641e-06 0.000456052
0.000604269 6.54459e-06 8.70404e-07
6.54459e-06 8.12244e-05 -5.53903e-07
8.70404e-07 -5.53903e-07 -3.29091e-05
0.000731868 3.921e-05 -9.96746e-08
3.921e-05 0.000149367 -2.09602e-06
-9.96746e-08 -2.09602e-06 1.47707e-05
0.000397275 4.27494e-06 -1.92649e-06
4.27494e-06 -6.30397e-05 -3.85869e-07
-1.92649e-06 -3.85869e-07 -0.000188277
0.000753274 7.22542e-05 -3.67018e-06
7.22542e-05 0.000140952 9.94101e-07
-3.67018e-06 9.94101e-07 1.74074e-05
0.000408602 5.03518e-05 -2.76119e-06
5.03518e-05 -8.91089e-05 -2.13201e-07
-2.76119e-06 -2.13201e-07 -0.000166817
0.000412293 -6.37666e-06 2.05497e-07
-6.37666e-06 -5.03849e-05 8.12427e-07
2.05497e-07 8.12427e-07 -0.000158341
0.000909038 5.73652e-05 7.19761e-07
5.73652e-05 0.000245534 6.99106e-07
7.19761e-07 6.99106e-07 0.000114007
0.000763055 3.51581e-05 5.76557e-07
3.51581e-05 0.000156503 5.51218e-07
5.76557e-07 5.51218e-07 2.3115e-05
0.000684123 1.90349e-05 8.12525e-07
1.90349e-05 0.000124548 -2.67555e-07
8.12525e-07 -2.67555e-07 -1.3486e-05
0.000463908 6.83211e-05 -3.21002e-07
6.83211e-05 -9.35015e-06 -1.20913e-06
-3.21002e-07 -1.20913e-06 -0.000129027
0.00112685 7.84262e-05 -1.20672e-06
7.84262e-05 0.000382207 -2.76992e-06
-1.20672e-06 -2.76992e-06 0.000256596
6.34824e-05 4.54971e-05 -3.28513e-06
4.54971e-05 -0.000194098 -5.14469e-06
-3.28513e-06 -5.14469e-06 -0.0003193
0.000765488 -8.74994e-05 -2.3118e-07
-8.74994e-05 0.000159471 -3.52441e-07
-2.3118e-07 -3.52441e-07 2.44606e-05
0.000751606 -5.95161e-05 -3.00469e-07
-5.95161e-05 0.000173277 -2.44257e-07
-3.00469e-07 -2.44257e-07 3.23024e-05
0.000773702 -2.85082e-05 -2.58841e-07
-2.85082e-05 0.000186355 -3.41964e-07
-2.58841e-07 -3.41964e-07 4.63305e-05
0.000833442 -4.2657e-06 -1.82887e-06
-4.2657e-06 0.00020576 -2.15886e-07
-1.82887e-06 -2.15886e-07 8.41905e-05
0.000724773 3.61174e-05 -3.43315e-06
3.61174e-05 0.000163399 -2.07072e-06
-3.43315e-06 -2.07072e-06 1.15298e-05
0.000739916 -2.67842e-06 1.65094e-06
-2.67842e-06 0.000151028 -2.31312e-06
1.65094e-06 -2.31312e-06 3.15557e-05
2.31614e-05 -2.40934e-05 -3.12056e-07
-2.40934e-05 -0.000276779 -2.55141e-06
-3.12056e-07 -2.55141e-06 -0.000383426
0.000575897 -1.39738e-05 7.36981e-07
-1.39738e-05 3.47041e-05 -1.38786e-07
7.36981e-07 -1.38786e-07 -7.85978e-05
0.000642539 -6.12344e-05 4.36506e-07
-6.12344e-05 8.16373e-05 8.62384e-07
4.36506e-07 8.62384e-07 -2.59278e-05
0.000710648 -5.9066e-05 -3.00976e-07
-5.9066e-05 0.000141868 -3.19349e-08
-3.00976e-07 -3.19349e-08 1.90225e-05
0.000642495 -6.25567e-05 -2.08384e-06
-6.25567e-05 7.20664e-05 1.52493e-06
-2.08384e-06 1.52493e-06 -1.8067e-05
0.000615638 -4.5059e-05 1.41717e-06
-4.5059e-05 6.73392e-05 -7.16253e-07
1.41717e-06 -7.16253e-07 -4.88316e-05
0.00056936 -8.72818e-05 1.14388e-07
-8.72818e-05 3.9251e-05 2.36675e-07
1.14388e-07 2.36675e-07 -6.284e-05
0.0006059 -2.87589e-05 -2.1434e-06
-2.87589e-05 3.55137e-05 3.0146e-06
-2.1434e-06 3.0146e-06 -2.46965e-05
0.000465905 -4.97065e-06 1.21629e-06
-4.97065e-06 -1.14067e-05 -8.88969e-07
1.21629e-06 -8.88969e-07 -0.000124625
0.000558966 1.61352e-06 1.49156e-06
1.61352e-06 1.6145e-05 6.51732e-09
1.49156e-06 6.51732e-09 -4.66892e-05
0.00140261 4.0753e-06 -3.77975e-06
4.0753e-06 0.000494746 5.7432e-06
-3.77975e-06 5.7432e-06 0.000480538
0.000552823 4.28058e-05 -8.83968e-07
4.28058e-05 1.34669e-05 -2.56007e-06
-8.83968e-07 -2.56007e-06 -4.90459e-05
0.000935323 -2.8619e-07 -2.13819e-06
-2.8619e-07 0.000215208 7.9747e-07
-2.13819e-06 7.9747e-07 0.000198939
0.000819628 2.8516e-06 -4.23164e-06
2.8516e-06 0.000139736 5.0617e-06
-4.23164e-06 5.0617e-06 0.000146097
0.00051512 -6.81538e-07 8.20686e-07
-6.81538e-07 -3.8423e-05 -4.01502e-06
8.20686e-07 -4.01502e-06 -5.67496e-05
0.00243692 2.91386e-07 4.92734e-06
2.91386e-07 0.00111687 -8.43357e-09
4.92734e-06 -8.43357e-09 0.00113139
0.000855424 -2.29655e-06 -4.49877e-06
-2.29655e-06 0.000160134 -5.20368e-06
-4.49877e-06 -5.20368e-06 0.000166559
0.000562604 6.34273e-05 2.16063e-06
6.34273e-05 4.40008e-05 4.11078e-07
2.16063e-06 4.11078e-07 -4.23977e-05
0.000547785 3.39087e-05 -1.62932e-06
3.39087e-05 -2.28274e-06 -1.6827e-06
-1.62932e-06 -1.6827e-06 -4.27806e-05
0.000561987 -6.14162e-06 1.11481e-06
-6.14162e-06 3.40384e-06 1.84208e-08
1.11481e-06 1.84208e-08 -3.72707e-05
0.000565176 8.3229e-06 5.05066e-07
8.3229e-06 -2.20078e-05 -2.96615e-06
5.05066e-07 -2.96615e-06 -2.92575e-05
0.000595944 -3.99793e-05 -1.68791e-06
-3.99793e-05 2.115e-05 1.29633e-06
-1.68791e-06 1.29633e-06 -2.1666e-05
0.000534726 1.40239e-05 2.80111e-08
1.40239e-05 -4.07635e-05 -7.54989e-07
2.80111e-08 -7.54989e-07 -4.83566e-05
0.00200521 2.9364e-05 6.75715e-06
2.9364e-05 0.000857022 -4.43433e-06
6.75715e-06 -4.43433e-06 0.000874711
0.00112752 3.29049e-05 -5.90211e-07
3.29049e-05 0.000322063 1.76097e-06
-5.90211e-07 1.76097e-06 0.00031554
0.00147058 3.75126e-05 2.06545e-08
3.75126e-05 0.000536738 1.38398e-06
2.06545e-08 1.38398e-06 0.000548671
0.000882722 4.08231e-05 -1.2334e-05
4.08231e-05 0.000185569 7.16326e-06
-1.2334e-05 7.16326e-06 0.000191565
0.0014939 0.000199114 8.08268e-05
0.000199114 -0.00100052 1.6088e-05
8.08268e-05 1.6088e-05 -0.000802515
0.00200167 -2.76716e-05 1.59233e-06
-2.76716e-05 -4.04168e-05 2.103e-06
1.59233e-06 2.103e-06 -1.43746e-05
0.00191613 6.96228e-05 3.64554e-05
6.96228e-05 0.000120527 -1.34586e-05
3.64554e-05 -1.34586e-05 0.000194147
0.00173774 0.000176478 -2.54839e-05
0.000176478 -0.00133746 -1.72639e-05
-2.54839e-05 -1.72639e-05 -0.000742661
0.00193396 7.39555e-05 2.29656e-05
7.39555e-05 -0.000444224 -4.90996e-07
2.29656e-05 -4.90996e-07 -0.000240629
0.0023934 -2.43489e-05 1.52018e-06
-2.43489e-05 0.000373961 -4.37842e-06
1.52018e-06 -4.37842e-06 0.000366101
0.00372928 -0.000127658 -5.85526e-05
-0.000127658 0.000900804 -1.64621e-06
-5.85526e-05 -1.64621e-06 0.000871853
0.00305606 -8.38592e-05 6.34929e-05
-8.38592e-05 0.000298006 9.85303e-06
6.34929e-05 9.85303e-06 0.000321581
0.0109996 -0.000571301 1.44872e-05
-0.000571301 0.00238527 4.26565e-05
1.44872e-05 4.26565e-05 0.000793494
0.0115191 0.00259113 0.000604449
0.00259113 0.00497804 -0.000259084
0.000604449 -0.000259084 0.00440612
0.00738933 0.00288226 -3.19866e-05
0.00288226 0.00559229 1.73175e-05
-3.19866e-05 1.73175e-05 0.00525793
0.000400822 -9.3558e-05 1.5408e-06
-9.3558e-05 -4.63257e-05 -5.12769e-08
1.5408e-06 -5.12769e-08 -0.000144812
0.000619579 -1.16555e-05 1.34026e-06
-1.16555e-05 7.45116e-05 -1.65738e-07
1.34026e-06 -1.65738e-07 -6.75703e-06
0.000678757 -8.271e-05 -1.58185e-06
-8.271e-05 0.000117492 9.6462e-07
-1.58185e-06 9.6462e-07 2.93753e-05
0.000608016 -4.58774e-05 -9.62216e-08
-4.58774e-05 7.09165e-05 3.17903e-07
-9.62216e-08 3.17903e-07 -2.72577e-05
0.000603905 5.87259e-05 -1.83607e-06
5.87259e-05 9.15491e-05 2.24342e-06
-1.83607e-06 2.24342e-06 -2.41065e-05
0.000543624 0.000117945 1.59179e-06
0.000117945 2.71269e-05 4.89159e-06
1.59179e-06 4.89159e-06 -8.38325e-05
0.00089079 -1.53144e-05 3.12816e-06
-1.53144e-05 0.000260166 1.07124e-06
3.12816e-06 1.07124e-06 0.000145595
0.000541771 -2.73181e-05 -1.24841e-06
-2.73181e-05 3.7868e-05 1.05932e-06
-1.24841e-06 1.05932e-06 -6.2898e-05
0.00229435 -0.000211049 6.32037e-06
-0.000211049 9.68337e-05 1.88688e-06
6.32037e-06 1.88688e-06 0.000151238
0.00181969 -0.000336312 1.10661e-05
-0.000336312 -0.000246983 -3.14931e-06
1.10661e-05 -3.14931e-06 -0.000159768
0.00163107 -0.0005258 7.66639e-06
-0.0005258 -0.000114479 2.19966e-06
7.66639e-06 2.19966e-06 -0.000241631
0.00148384 -0.000497419 1.88187e-05
-0.000497419 0.000387862 -1.65459e-07
1.88187e-05 -1.65459e-07 5.38781e-05
0.00180652 -0.000631058 6.43545e-06
-0.000631058 0.000263708 3.90165e-06
6.43545e-06 3.90165e-06 1.86532e-05
0.00274105 -0.000640951 1.21333e-05
-0.000640951 0.00137881 -1.7323e-06
1.21333e-05 -1.7323e-06 0.000882182
0.00260574 -0.000355781 2.60299e-06
-0.000355781 0.00123027 -3.46745e-06
2.60299e-06 -3.46745e-06 0.000924395
0.000725873 -0.000137219 6.5366e-06
-0.000137219 0.000133262 -7.67499e-06
6.5366e-06 -7.67499e-06 -4.03118e-05
0.000625453 -3.3297e-05 2.13352e-07
-3.3297e-05 6.62128e-05 2.54539e-06
2.13352e-07 2.54539e-06 -3.20663e-05
0.000815014 -5.92483e-05 3.55439e-06
-5.92483e-05 0.000184108 -1.08724e-05
3.55439e-06 -1.08724e-05 5.58929e-05
0.000915113 -2.43954e-05 2.00328e-06
-2.43954e-05 0.000266709 -3.63674e-07
2.00328e-06 -3.63674e-07 0.000155352
0.000681943 7.733e-05 2.03996e-06
7.733e-05 0.000116554 1.46323e-06
2.03996e-06 1.46323e-06 3.81796e-05
0.00206143 -0.000265413 -9.308e-07
-0.000265413 -5.86432e-05 2.37555e-06
-9.308e-07 2.37555e-06 7.31491e-05
0.000619152 3.02142e-06 -1.70285e-06
3.02142e-06 0.000104074 -2.40385e-07
-1.70285e-06 -2.40385e-07 -1.83482e-05
0.000885533 -0.000106971 -3.39473e-06
-0.000106971 0.000238812 2.76008e-06
-3.39473e-06 2.76008e-06 0.000113568
0.00169337 -0.000435569 2.77604e-06
-0.000435569 -0.000199195 -1.84854e-06
2.77604e-06 -1.84854e-06 -0.000166976
0.001618 -0.000617826 3.92303e-07
-0.000617826 -1.84798e-05 -3.30147e-07
3.92303e-07 -3.30147e-07 -0.000209946
0.000964627 -0.000495723 -1.03745e-06
-0.000495723 -1.60713e-05 -2.00522e-06
-1.03745e-06 -2.00522e-06 -0.000255097
0.00121242 -0.000192284 2.69273e-07
-0.000192284 0.000528315 -7.53825e-06
2.69273e-07 -7.53825e-06 0.000293348
0.00122069 -0.000356588 -2.24769e-06
-0.000356588 0.000734847 1.86318e-06
-2.24769e-06 1.86318e-06 0.000214005
0.00305734 -0.000405687 -3.71315e-05
-0.000405687 0.000420475 5.67106e-06
-3.71315e-05 5.67106e-06 0.000486367
0.00300951 -0.000640994 -4.0555e-05
-0.000640994 0.000675279 8.07642e-06
-4.0555e-05 8.07642e-06 0.000620306
0.00202678 -0.00070925 -1.28217e-05
-0.00070925 0.000285659 -3.72421e-07
-1.28217e-05 -3.72421e-07 8.90457e-05
0.000328509 -0.00035104 -1.66903e-05
-0.00035104 -0.000187144 1.49611e-05
-1.66903e-05 1.49611e-05 -0.000395385
0.000655179 -0.000141883 1.71852e-06
-0.000141883 0.0001315 3.33887e-06
1.71852e-06 3.33887e-06 -2.16204e-05
0.000444947 -0.000122713 3.09647e-06
-0.000122713 5.0139e-05 1.53709e-06
3.09647e-06 1.53709e-06 -0.000126694
0.00123748 -0.000138069 -1.7225e-06
-0.000138069 0.000738682 -4.80823e-06
-1.7225e-06 -4.80823e-06 0.000313449
-0.00563087 -0.000151723 0.000313806
-0.000151723 -0.00417528 2.11655e-06
0.000313806 2.11655e-06 -0.00292249
0.0104613 -0.000174123 2.31837e-05
-0.000174123 0.00247725 1.50875e-06
2.31837e-05 1.50875e-06 0.00197127
0.00156002 0.000187318 6.74821e-06
0.000187318 0.000646772 -4.72633e-06
6.74821e-06 -4.72633e-06 0.000480366
0.00110668 0.000316444 1.21657e-06
0.000316444 0.000236087 -3.34211e-07
1.21657e-06 -3.34211e-07 7.2987e-06
0.00150538 0.000360679 5.1202e-05
0.000360679 -0.000143059 2.61503e-05
5.1202e-05 2.61503e-05 -0.000136576
0.00253416 0.000657989 1.78825e-05
0.000657989 0.000537961 6.45341e-06
1.78825e-05 6.45341e-06 0.000321825
0.00246036 0.000556879 1.29444e-05
0.000556879 0.000870616 2.00378e-06
1.29444e-05 2.00378e-06 0.000545291
0.012071 0.000687899 6.12568e-05
0.000687899 0.00297995 3.06979e-05
6.12568e-05 3.06979e-05 0.00187175
0.00781651 0.00124632 -0.000178965
0.00124632 0.000712755 -3.47005e-06
-0.000178965 -3.47005e-06 0.000500217
0.00140075 0.000598238 2.46374e-06
0.000598238 0.000108734 -2.14416e-05
2.46374e-06 -2.14416e-05 -0.000314812
0.0113934 -0.00202132 -0.000179564
-0.00202132 0.0050661 3.66095e-06
-0.000179564 3.66095e-06 0.0040215
-0.00583945 -0.00384037 -0.00103277
-0.00384037 -0.00218339 -0.000776821
-0.00103277 -0.000776821 -0.00149157
0.000996477 0.000225987 -4.55227e-07
0.000225987 0.000316052 -8.32059e-07
-4.55227e-07 -8.32059e-07 0.000145089
-0.00246778 -0.0011102 0.000201403
-0.0011102 -0.00248697 3.2859e-05
0.000201403 3.2859e-05 -0.0030075
-0.00329724 -0.000779903 -0.000230263
-0.000779903 0.00232581 -0.000114497
-0.000230263 -0.000114497 -0.000775584
0.00296143 0.000630738 -1.38302e-05
0.000630738 0.000652837 -1.11811e-06
-1.38302e-05 -1.11811e-06 0.000649108
0.000949922 0.000273891 -4.67136e-06
0.000273891 0.000162877 1.92444e-06
-4.67136e-06 1.92444e-06 -6.93458e-05
0.00131382 0.000547614 6.02679e-06
0.000547614 0.000248371 2.28617e-06
6.02679e-06 2.28617e-06 -6.32922e-05
0.00123774 0.000589837 2.43829e-05
0.000589837 2.9428e-05 1.89665e-05
2.43829e-05 1.89665e-05 -3.91422e-05
0.0106619 0.000959297 -8.32429e-05
0.000959297 0.00145993 -4.08223e-05
-8.32429e-05 -4.08223e-05 -0.000477114
0.0057398 0.0017694 -6.93184e-05
0.0017694 0.00113372 -3.62932e-05
-6.93184e-05 -3.62932e-05 0.000484682
0.0127879 -0.00248892 0.000205145
-0.00248892 0.0054704 -4.2175e-05
0.000205145 -4.2175e-05 0.00477808
0.00756404 -0.0021366 0.000180431
-0.0021366 -0.000433696 0.000418342
0.000180431 0.000418342 -7.87595e-05
0.00180861 0.000233455 -1.7528e-05
0.000233455 0.000795593 -1.00313e-05
-1.7528e-05 -1.00313e-05 0.000645092
-0.00781838 0.000552905 -9.60728e-05
0.000552905 0.00150957 -7.62014e-05
-9.60728e-05 -7.62014e-05 -0.002252
0.00368747 0.000457082 -0.000226891
0.000457082 0.00233312 -0.000286161
-0.000226891 -0.000286161 -0.00121576
0.00189619 0.000537906 -2.10942e-05
0.000537906 0.000334888 7.71524e-06
-2.10942e-05 7.71524e-06 0.000337458
0.00184736 0.000495245 -5.79749e-05
0.000495245 0.000736931 -2.0312e-05
-5.79749e-05 -2.0312e-05 0.00047969
0.00222734 0.000495611 -6.09555e-05
0.000495611 0.00132005 -6.3541e-06
-6.09555e-05 -6.3541e-06 0.000838905
0.000814921 0.00112969 -5.32451e-05
0.00112969 -0.000172656 -1.98151e-05
-5.32451e-05 -1.98151e-05 -0.000382865
-0.000135757 0.00120114 0.000199466
0.00120114 -0.00094652 0.000127775
0.000199466 0.000127775 -0.00389986
0.0118599 -0.00295639 0.000157519
-0.00295639 0.00461187 0.00038024
0.000157519 0.00038024 0.0034398
0.00598881 -0.00109401 -7.00359e-05
-0.00109401 -0.00205787 -7.53019e-05
-7.00359e-05 -7.53019e-05 -0.00085964
0.000338928 0.000114369 2.53092e-06
0.000114369 -4.86195e-05 -1.25313e-06
2.53092e-06 -1.25313e-06 -0.000165784
0.00123232 0.000174938 7.19035e-06
0.000174938 0.000467011 3.51863e-06
7.19035e-06 3.51863e-06 0.000342362
-0.000149448 6.44184e-05 4.1073e-06
6.44184e-05 -0.00027158 -8.98629e-06
4.1073e-06 -8.98629e-06 -0.000407281
0.000424306 4.79493e-05 1.53596e-06
4.79493e-05 -4.34175e-05 -6.17485e-07
1.53596e-06 -6.17485e-07 -0.000151184
0.000751373 5.34702e-05 -2.72584e-07
5.34702e-05 0.000171394 -1.1825e-06
-2.72584e-07 -1.1825e-06 2.94004e-05
0.000773727 -9.53109e-06 -6.4123e-07
-9.53109e-06 0.000163193 1.52823e-06
-6.4123e-07 1.52823e-06 2.91734e-05
0.000699914 1.50548e-05 3.46714e-06
1.50548e-05 0.000130406 -4.11706e-08
3.46714e-06 -4.11706e-08 -4.07785e-06
0.000413076 5.71831e-05 -8.7254e-07
5.71831e-05 -3.41318e-05 2.19468e-06
-8.7254e-07 2.19468e-06 -0.000151743
0.000754679 4.75205e-05 4.93135e-08
4.75205e-05 0.000175826 -8.49551e-07
4.93135e-08 -8.49551e-07 3.44918e-05
0.000834936 5.52459e-05 2.1557e-07
5.52459e-05 0.000204037 1.33419e-07
2.1557e-07 1.33419e-07 8.00842e-05
0.000778231 -4.59752e-05 -7.63255e-07
-4.59752e-05 0.000168398 8.67301e-07
-7.63255e-07 8.67301e-07 3.21874e-05
-0.000166483 3.11441e-05 7.97201e-07
3.11441e-05 -0.000308617 5.54476e-07
7.97201e-07 5.54476e-07 -0.000440819
-0.00084129 1.43937e-05 -6.32487e-07
1.43937e-05 -0.000506684 -7.50959e-07
-6.32487e-07 -7.50959e-07 -0.000733991
0.000962681 -2.7573e-06 -4.30216e-06
-2.7573e-06 0.000295842 -5.87049e-06
-4.30216e-06 -5.87049e-06 0.00016777
0.000908849 3.76672e-06 2.09106e-07
3.76672e-06 0.00027066 -9.93374e-08
2.09106e-07 -9.93374e-08 0.000111512
0.000771549 -5.71606e-05 -6.55255e-07
-5.71606e-05 0.000190538 -1.08711e-06
-6.55255e-07 -1.08711e-06 4.64359e-05
0.000852239 -5.29573e-05 3.49082e-07
-5.29573e-05 0.000209905 1.6556e-06
3.49082e-07 1.6556e-06 9.30233e-05
0.000781903 -4.66541e-05 6.59476e-07
-4.66541e-05 0.000186204 -7.25297e-07
6.59476e-07 -7.25297e-07 4.1115e-05
0.000758418 -1.52792e-05 -3.83187e-07
-1.52792e-05 0.00015534 7.24104e-08
-3.83187e-07 7.24104e-08 3.76833e-05
0.000324427 -5.47965e-05 5.36919e-07
-5.47965e-05 -8.61247e-05 1.66588e-06
5.36919e-07 1.66588e-06 -0.000192206
0.0005855 -5.54138e-06 6.81385e-07
-5.54138e-06 5.12544e-05 1.20808e-06
6.81385e-07 1.20808e-06 -6.16986e-05
0.000316236 8.99271e-07 -3.66624e-06
8.99271e-07 -7.79255e-05 -3.53181e-06
-3.66624e-06 -3.53181e-06 -0.000209472
5.10242e-05 -4.4901e-05 2.46493e-06
-4.4901e-05 -0.000247725 -1.10906e-06
2.46493e-06 -1.10906e-06 -0.000350654
0.000767925 -5.19123e-05 3.47524e-06
-5.19123e-05 0.00010902 -7.48799e-06
3.47524e-06 -7.48799e-06 1.21242e-05
-0.000111664 -4.30087e-05 -3.82383e-07
-4.30087e-05 -0.000403292 1.8931e-06
-3.82383e-07 1.8931e-06 -0.000553071
0.000298153 -8.0678e-06 -1.7311e-06
-8.0678e-06 -0.000120941 -9.46794e-07
-1.7311e-06 -9.46794e-07 -0.000238675
0.000739617 -2.39774e-05 1.88533e-07
-2.39774e-05 0.000129678 1.12754e-07
1.88533e-07 1.12754e-07 1.41349e-05
0.000621163 -2.45474e-05 1.94166e-07
-2.45474e-05 6.51247e-05 9.56083e-07
1.94166e-07 9.56083e-07 -4.12156e-05
0.000712963 -4.41716e-05 -1.3023e-07
-4.41716e-05 0.00013834 -2.33052e-08
-1.3023e-07 -2.33052e-08 2.05849e-05
0.000543446 -4.89337e-06 -3.42674e-07
-4.89337e-06 1.91691e-05 1.39889e-06
-3.42674e-07 1.39889e-06 -7.32843e-05
0.000767689 -3.97689e-05 -2.51226e-07
-3.97689e-05 0.000172986 -3.52296e-07
-2.51226e-07 -3.52296e-07 5.21854e-05
0.000651072 -5.49047e-05 -5.9373e-07
-5.49047e-05 8.70664e-05 1.16029e-07
-5.9373e-07 1.16029e-07 -9.37809e-06
0.000528818 3.97651e-05 -6.55156e-07
3.97651e-05 -1.19205e-05 2.85227e-06
-6.55156e-07 2.85227e-06 -7.36004e-05
0.000483743 -7.63353e-05 1.84883e-06
-7.63353e-05 -1.77756e-05 -1.35811e-06
1.84883e-06 -1.35811e-06 -0.00011742
0.000574285 -1.19564e-05 -4.31055e-07
-1.19564e-05 1.54476e-05 2.28136e-08
-4.31055e-07 2.28136e-08 -4.37774e-05
0.00139884 1.59164e-05 -5.29576e-06
1.59164e-05 0.000490106 5.98893e-06
-5.29576e-06 5.98893e-06 0.000475184
0.000565816 -3.53136e-05 1.2294e-06
-3.53136e-05 1.74049e-05 -2.54696e-06
1.2294e-06 -2.54696e-06 -4.36607e-05
0.000929838 3.01571e-06 -3.04387e-06
3.01571e-06 0.000208839 7.20441e-07
-3.04387e-06 7.20441e-07 0.000192703
0.000759454 1.44641e-05 2.27781e-07
1.44641e-05 9.95717e-05 2.08483e-06
2.27781e-07 2.08483e-06 0.000106051
0.000509649 -6.2896e-06 1.09623e-06
-6.2896e-06 -4.32412e-05 -4.01733e-06
1.09623e-06 -4.01733e-06 -6.12817e-05
0.0024409 1.39563e-05 4.92788e-06
1.39563e-05 0.00111934 6.38472e-08
4.92788e-06 6.38472e-08 0.00113374
0.00242865 1.94677e-06 -5.55843e-07
1.94677e-06 0.00111189 -5.26386e-06
-5.55843e-07 -5.26386e-06 0.00112642
0.000990485 7.29065e-05 -8.58339e-07
7.29065e-05 0.000297309 -2.66473e-07
-8.58339e-07 -2.66473e-07 0.000211636
0.000570374 4.32948e-05 -1.38552e-06
4.32948e-05 1.51622e-05 -1.98203e-06
-1.38552e-06 -1.98203e-06 -2.86669e-05
0.000612787 -1.11473e-05 5.21826e-07
-1.11473e-05 7.4295e-05 8.64769e-07
5.21826e-07 8.64769e-07 -1.17661e-05
0.000565688 3.82645e-06 4.90572e-07
3.82645e-06 -2.1861e-05 -3.20619e-06
4.90572e-07 -3.20619e-06 -2.90211e-05
0.000560444 -1.57135e-05 1.77455e-07
-1.57135e-05 5.96158e-06 -2.51205e-08
1.77455e-07 -2.51205e-08 -3.49707e-05
0.000591323 -4.02796e-05 -1.44019e-06
-4.02796e-05 2.24495e-05 1.11621e-06
-1.44019e-06 1.11621e-06 -1.9386e-05
0.000549063 7.75865e-06 -2.81346e-07
7.75865e-06 -3.18266e-05 -2.07016e-08
-2.81346e-07 -2.07016e-08 -3.90012e-05
0.00199113 1.6212e-05 2.14087e-06
1.6212e-05 0.000846078 -4.58111e-06
2.14087e-06 -4.58111e-06 0.000864706
0.00111794 2.14455e-05 -6.96625e-07
2.14455e-05 0.000313398 1.73865e-06
-6.96625e-07 1.73865e-06 0.000308959
0.00137036 2.47863e-05 3.451e-07
2.47863e-05 0.000471108 -1.09346e-08
3.451e-07 -1.09346e-08 0.000485487
0.000849132 2.95325e-05 -1.19033e-05
2.95325e-05 0.000159575 6.95862e-06
-1.19033e-05 6.95862e-06 0.000168658
-0.0090731 0.000603577 0.000267578
0.000603577 -0.00382859 -6.413e-07
0.000267578 -6.413e-07 -0.00518043
-0.00225161 -6.24221e-05 0.000404337
-6.24221e-05 0.00310358 -5.96114e-05
0.000404337 -5.96114e-05 0.000844835
0.00441894 0.000252481 -0.000227745
0.000252481 -0.000154712 -1.8037e-05
-0.000227745 -1.8037e-05 0.00057643
0.000522681 4.46932e-05 2.64894e-05
4.46932e-05 -0.00113278 -2.0803e-05
2.64894e-05 -2.0803e-05 -0.000994129
0.00147076 -3.51809e-05 1.70496e-05
-3.51809e-05 -0.00024216 3.35809e-06
1.70496e-05 3.35809e-06 -0.000247995
-0.000359885 4.83408e-05 -3.3852e-05
4.83408e-05 -0.000935908 -1.10919e-05
-3.3852e-05 -1.10919e-05 -0.000693104
0.00290091 -0.000168474 -2.99462e-06
-0.000168474 0.000317717 4.86871e-06
-2.99462e-06 4.86871e-06 0.000294956
0.00995845 8.01263e-05 8.31068e-05
8.01263e-05 0.000924724 -3.67865e-05
8.31068e-05 -3.67865e-05 -0.00013369
-0.00262453 0.00160844 -1.32921e-05
0.00160844 -0.00047076 -2.56697e-05
-1.32921e-05 -2.56697e-05 -0.00227352
0.00102214 0.00318528 -0.000210819
0.00318528 0.00191501 0.000113316
-0.000210819 0.000113316 0.00218611
0.00195356 -0.00034083 6.81583e-05
-0.00034083 -0.000945117 -1.29283e-05
6.81583e-05 -1.29283e-05 -0.000754731
0.0135592 -0.000782383 0.000134544
-0.000782383 0.00305529 -3.64361e-05
0.000134544 -3.64361e-05 0.00145673
0.00589361 0.00307553 0.000204343
0.00307553 0.00101152 -0.000350595
0.000204343 -0.000350595 0.000918379
0.00947823 0.00217105 -0.000268467
0.00217105 0.00182707 0.000171877
-0.000268467 0.000171877 0.00127194
0.000783369 0.000107727 -2.38175e-06
0.000107727 0.000206301 2.23657e-06
-2.38175e-06 2.23657e-06 6.94275e-05
0.000456641 2.09e-05 -8.51486e-08
2.09e-05 -1.92398e-05 -8.21517e-07
-8.51486e-08 -8.21517e-07 -0.000112738
0.000644021 -9.12623e-05 -7.35024e-07
-9.12623e-05 9.50808e-05 6.71129e-07
-7.35024e-07 6.71129e-07 9.12278e-06
0.00055056 -8.31433e-06 1.68512e-06
-8.31433e-06 4.4568e-05 -9.26852e-07
1.68512e-06 -9.26852e-07 -5.81569e-05
0.000608228 5.7298e-05 1.12907e-06
5.7298e-05 9.95479e-05 1.39461e-06
1.12907e-06 1.39461e-06 -1.7274e-05
0.000712266 4.57484e-05 4.45432e-07
4.57484e-05 0.000163004 4.26715e-06
4.45432e-07 4.26715e-06 2.53689e-05
0.000751931 9.19151e-05 1.38151e-06
9.19151e-05 0.000167281 2.08127e-06
1.38151e-06 2.08127e-06 4.68555e-05
0.000573124 2.90946e-05 3.926e-06
2.90946e-05 4.48614e-05 8.16015e-07
3.926e-06 8.16015e-07 -7.53804e-05
0.000713735 -2.89404e-05 1.70856e-06
-2.89404e-05 0.00015384 -9.59814e-07
1.70856e-06 -9.59814e-07 3.73298e-05
0.000513629 -8.59029e-06 -1.69622e-08
-8.59029e-06 9.04504e-06 -9.58389e-07
-1.69622e-08 -9.58389e-07 -8.57346e-05
0.00174632 -0.000247457 2.26058e-05
-0.000247457 -0.000155894 -2.537e-07
2.26058e-05 -2.537e-07 -4.8768e-05
0.00120158 -0.000410583 3.04389e-05
-0.000410583 -0.000458837 -5.47342e-06
3.04389e-05 -5.47342e-06 -0.000422548
0.000325434 -0.000493856 1.6355e-05
-0.000493856 -0.000713458 2.68574e-06
1.6355e-05 2.68574e-06 -0.000855465
-5.84532e-05 -0.00040352 8.49468e-06
-0.00040352 -0.000564229 -7.49432e-08
8.49468e-06 -7.49432e-08 -0.000798269
0.00283399 -0.000421307 6.14269e-06
-0.000421307 0.0015856 1.00683e-05
6.14269e-06 1.00683e-05 0.00112904
0.000778263 -0.000242605 6.21164e-06
-0.000242605 0.000274596 -3.53078e-06
6.21164e-06 -3.53078e-06 3.39672e-06
0.00116968 -0.000127308 4.2035e-07
-0.000127308 0.000393519 -1.04107e-06
4.2035e-07 -1.04107e-06 0.000280661
0.00074759 -5.44654e-06 -2.00348e-06
-5.44654e-06 0.000180053 1.60576e-06
-2.00348e-06 1.60576e-06 5.9241e-05
0.00222785 -0.000346372 7.8682e-06
-0.000346372 4.7528e-05 -4.62055e-06
7.8682e-06 -4.62055e-06 0.000131505
0.000618065 -6.63605e-05 -1.71291e-07
-6.63605e-05 0.000113181 -1.77702e-07
-1.71291e-07 -1.77702e-07 -4.56524e-05
0.000175332 -0.000107056 1.04495e-06
-0.000107056 -0.000103038 -2.27242e-06
1.04495e-06 -2.27242e-06 -0.000281373
0.00200794 -0.000571066 8.23587e-06
-0.000571066 0.000143987 -1.57057e-06
8.23587e-06 -1.57057e-06 0.000101886
0.00160219 -0.000682873 4.74546e-07
-0.000682873 1.22503e-05 3.11906e-06
4.74546e-07 3.11906e-06 -0.000150758
0.000256623 -0.000387409 9.5733e-06
-0.000387409 -0.000221414 -5.86667e-06
9.5733e-06 -5.86667e-06 -0.000455342
0.00143061 -0.000202615 -1.14906e-06
-0.000202615 0.000826308 -6.47061e-06
-1.14906e-06 -6.47061e-06 0.000420468
0.00238562 -0.00054812 -4.24699e-05
-0.00054812 0.000544483 8.91972e-06
-4.24699e-05 8.91972e-06 0.000245886
0.00168873 -0.000546997 -4.49277e-05
-0.000546997 0.00022798 7.85464e-06
-4.49277e-05 7.85464e-06 0.000141554
0.000746468 -0.000328739 -4.33058e-05
-0.000328739 0.000254822 3.47753e-05
-4.33058e-05 3.47753e-05 -3.67902e-05
-0.00104661 -6.32691e-05 -1.81808e-07
-6.32691e-05 -0.00086025 4.10648e-06
-1.81808e-07 4.10648e-06 -0.00102214
9.15624e-05 -0.000110215 3.32892e-06
-0.000110215 -0.000156649 3.87745e-06
3.32892e-06 3.87745e-06 -0.000344709
0.0008049 -8.70708e-05 4.68991e-06
-8.70708e-05 0.00035194 2.43606e-06
4.68991e-06 2.43606e-06 7.21567e-05
-0.000561222 0.000488077 -0.00020931
0.000488077 0.00483598 7.62527e-06
-0.00020931 7.62527e-06 0.00227256
0.00144728 -0.000645369 1.20803e-05
-0.000645369 0.00149438 2.61494e-05
1.20803e-05 2.61494e-05 0.0014648
0.00139145 0.000872734 -6.84528e-05
0.000872734 -0.00360967 -6.76332e-06
-6.84528e-05 -6.76332e-06 -0.00394292
0.000426494 0.000175185 5.70672e-06
0.000175185 -9.42731e-06 1.91315e-06
5.70672e-06 1.91315e-06 -0.00017299
0.00122078 0.000356439 8.36299e-06
0.000356439 0.000344492 1.30441e-05
8.36299e-06 1.30441e-05 8.58106e-05
0.00319904 0.000559473 3.78552e-05
0.000559473 0.000803409 1.41464e-05
3.78552e-05 1.41464e-05 0.000794971
0.00191359 0.000604494 1.86898e-05
0.000604494 0.000576782 1.56241e-05
1.86898e-05 1.56241e-05 0.000252735
0.00844046 -0.00126903 9.32217e-05
-0.00126903 0.00290742 4.5145e-05
9.32217e-05 4.5145e-05 0.0030817
0.00366755 0.000324212 -0.000203857
0.000324212 -0.00229413 -6.85774e-06
-0.000203857 -6.85774e-06 -0.00418021
0.00334685 0.00162262 -4.58689e-05
0.00162262 -0.000284384 -6.2068e-06
-4.58689e-05 -6.2068e-06 -0.000758912
0.00127383 0.000437503 3.02195e-05
0.000437503 0.000281722 -2.71806e-05
3.02195e-05 -2.71806e-05 0.00026725
-0.00281542 -0.00153678 -0.000185108
-0.00153678 -0.000341233 -0.000194426
-0.000185108 -0.000194426 -0.00133964
-0.000811662 -0.00129864 -0.000196766
-0.00129864 0.00238713 -5.76589e-05
-0.000196766 -5.76589e-05 -0.000745177
0.0125942 -0.002699 0.000320306
-0.002699 0.00222002 0.000214707
0.000320306 0.000214707 0.00270939
0.000652505 0.00016308 8.9975e-06
0.00016308 0.000139997 -2.73859e-06
8.9975e-06 -2.73859e-06 -1.46508e-05
-0.00283208 0.000205473 -0.000114853
0.000205473 0.0029677 -2.78427e-05
-0.000114853 -2.78427e-05 -0.000174938
0.00401975 0.000521789 -2.8187e-05
0.000521789 0.00219833 -0.000105484
-2.8187e-05 -0.000105484 -0.00153669
0.00136368 0.000505159 -3.4947e-06
0.000505159 0.000106429 4.87206e-06
-3.4947e-06 4.87206e-06 7.08661e-05
0.000540322 0.000349642 6.59551e-06
0.000349642 8.20338e-05 2.99252e-06
6.59551e-06 2.99252e-06 -0.00018452
-0.000321061 0.000417811 2.93442e-06
0.000417811 -0.00014792 -4.39936e-05
2.93442e-06 -4.39936e-05 -0.000499098
0.00462924 0.00179527 -6.11054e-06
0.00179527 0.0015985 8.10715e-06
-6.11054e-06 8.10715e-06 0.00110095
0.0139594 0.00149357 7.3399e-05
0.00149357 0.00454925 2.53966e-05
7.3399e-05 2.53966e-05 0.00244425
0.00529439 -0.00191017 4.24384e-05
-0.00191017 0.000474406 -5.58889e-05
4.24384e-05 -5.58889e-05 -0.000931018
0.0110875 -0.00155158 -2.25018e-06
-0.00155158 0.00146302 -4.65829e-05
-2.25018e-06 -4.65829e-05 0.00274497
0.000418978 0.00022618 -6.7684e-06
0.00022618 5.17204e-05 -1.26214e-05
-6.7684e-06 -1.26214e-05 -9.9082e-05
0.00290417 0.000141227 -0.000171739
0.000141227 0.00130788 -2.88618e-05
-0.000171739 -2.88618e-05 -0.0011161
3.723e-05 0.000190139 -3.35874e-05
0.000190139 -6.06971e-05 -0.000114024
-3.35874e-05 -0.000114024 -0.00157906
-0.000964806 0.00012264 -7.53227e-06
0.00012264 -0.000427452 -1.78902e-05
-7.53227e-06 -1.78902e-05 -0.000608864
0.00077933 0.000360669 -6.16252e-05
0.000360669 0.000997732 3.38207e-05
-6.16252e-05 3.38207e-05 0.000261881
0.0108019 0.00199347 4.79943e-05
0.00199347 0.00410168 -7.13731e-07
4.79943e-05 -7.13731e-07 0.000746077
-0.00644901 -0.00275822 -3.4909e-05
-0.00275822 -0.00299144 0.000165235
-3.4909e-05 0.000165235 -0.00575473
0.00901384 0.000543649 3.13975e-05
0.000543649 -0.00122623 -0.000224235
3.13975e-05 -0.000224235 0.00111289
0.000851937 0.000136377 7.7212e-07
0.000136377 0.000221585 8.98318e-06
7.7212e-07 8.98318e-06 0.000107112
0.000946631 0.000161759 -6.36598e-06
0.000161759 0.000374947 -1.45459e-06
-6.36598e-06 -1.45459e-06 0.000232547
0.000427699 0.000104225 -1.06761e-06
0.000104225 0.000232943 -7.13881e-06
-1.06761e-06 -7.13881e-06 1.16475e-05
0.000735249 8.07151e-05 -2.44802e-06
8.07151e-05 0.000152874 -1.58755e-06
-2.44802e-06 -1.58755e-06 2.00161e-05
0.00083977 -3.21084e-05 -6.32639e-07
-3.21084e-05 0.000214204 2.20152e-06
-6.32639e-07 2.20152e-06 7.10092e-05
0.00056923 4.19104e-05 1.76756e-06
4.19104e-05 4.07958e-05 2.33667e-06
1.76756e-06 2.33667e-06 -8.21626e-05
-0.00039611 2.03342e-05 1.51762e-06
2.03342e-05 -0.000422763 4.16988e-06
1.51762e-06 4.16988e-06 -0.000560081
0.000777719 -1.0556e-05 1.11721e-06
-1.0556e-05 0.000171975 1.53606e-07
1.11721e-06 1.53606e-07 2.82093e-05
0.000793729 2.47236e-05 9.45029e-08
2.47236e-05 0.000199827 -1.32051e-06
9.45029e-08 -1.32051e-06 6.88029e-05
0.000201846 -6.36846e-06 7.8541e-07
-6.36846e-06 0.00010164 2.19191e-06
7.8541e-07 2.19191e-06 -0.000122329
-0.000851941 1.72524e-05 -1.10707e-06
1.72524e-05 -0.000269041 3.09711e-06
-1.10707e-06 3.09711e-06 -0.000611045
0.000690399 3.68257e-06 -2.47624e-06
3.68257e-06 0.000343822 -5.9148e-06
-2.47624e-06 -5.9148e-06 0.000143375
0.000890884 3.12353e-05 -1.22397e-06
3.12353e-05 0.000248143 -3.93037e-06
-1.22397e-06 -3.93037e-06 0.00010699
0.000870272 -0.000117484 8.48615e-07
-0.000117484 0.000226307 4.54212e-07
8.48615e-07 4.54212e-07 8.82891e-05
0.000721066 -1.79375e-05 -1.30033e-07
-1.79375e-05 0.000125767 -3.15285e-07
-1.30033e-07 -3.15285e-07 1.11633e-05
0.000520948 -6.47284e-05 -7.92765e-07
-6.47284e-05 4.02032e-05 4.20075e-06
-7.92765e-07 4.20075e-06 -6.21657e-05
0.000420497 -2.49906e-05 2.02277e-06
-2.49906e-05 -2.79043e-05 2.10884e-06
2.02277e-06 2.10884e-06 -0.000151573
0.000693288 -1.31411e-05 2.60556e-07
-1.31411e-05 0.000115404 -2.3909e-07
2.60556e-07 -2.3909e-07 8.52573e-07
0.000562629 -4.11653e-05 1.35364e-07
-4.11653e-05 5.37382e-05 -5.27644e-07
1.35364e-07 -5.27644e-07 -4.74285e-05
0.00104683 -4.38807e-05 -2.40657e-06
-4.38807e-05 0.000305888 -4.13446e-06
-2.40657e-06 -4.13446e-06 0.000204116
-9.52399e-05 -3.73652e-05 4.23661e-06
-3.73652e-05 -0.000251348 -5.10133e-06
4.23661e-06 -5.10133e-06 -0.000352491
0.000343414 -0.000118834 -6.60262e-08
-0.000118834 -0.000206583 3.44373e-08
-6.60262e-08 3.44373e-08 -0.000299818
0.000760991 -8.70221e-05 -3.74651e-06
-8.70221e-05 0.000113701 -4.58197e-07
-3.74651e-06 -4.58197e-07 1.06588e-05
0.000381972 -0.000110738 5.4744e-06
-0.000110738 -0.00011185 3.70181e-06
5.4744e-06 3.70181e-06 -0.000255713
0.00122299 -0.000274266 -1.62263e-06
-0.000274266 0.000330145 8.93172e-06
-1.62263e-06 8.93172e-06 8.92937e-05
0.00143661 -0.00014598 6.8628e-07
-0.00014598 0.000564727 -1.09652e-06
6.8628e-07 -1.09652e-06 0.000416701
0.000208374 -8.38908e-05 -3.17305e-06
-8.38908e-05 -0.000190295 -5.3273e-06
-3.17305e-06 -5.3273e-06 -0.000343368
0.000668719 -2.77597e-05 -4.95026e-08
-2.77597e-05 8.7233e-05 3.64794e-07
-4.95026e-08 3.64794e-07 -2.9277e-05
0.000283228 -1.58891e-05 -3.5869e-07
-1.58891e-05 -0.000125469 -1.0886e-07
-3.5869e-07 -1.0886e-07 -0.000240053
0.000879215 -4.05202e-05 -7.69315e-07
-4.05202e-05 0.000211227 9.38965e-07
-7.69315e-07 9.38965e-07 9.30571e-05
0.000722356 -5.51783e-05 -6.65949e-07
-5.51783e-05 0.000137779 6.89029e-07
-6.65949e-07 6.89029e-07 1.989e-05
0.000590708 -3.25107e-05 -4.34731e-07
-3.25107e-05 3.82237e-05 1.39425e-06
-4.34731e-07 1.39425e-06 -5.27278e-05
0.000857767 -7.73802e-05 -4.1664e-07
-7.73802e-05 0.000239623 -1.31308e-06
-4.1664e-07 -1.31308e-06 0.000108624
0.000667226 -6.46893e-05 -5.83436e-07
-6.46893e-05 9.44696e-05 -3.84934e-08
-5.83436e-07 -3.84934e-08 -1.0752e-06
0.000556902 2.661e-05 -2.05096e-06
2.661e-05 3.1645e-06 2.32568e-06
-2.05096e-06 2.32568e-06 -5.91508e-05
0.000700218 -9.6151e-05 1.91424e-06
-9.6151e-05 0.000119422 -1.66499e-06
1.91424e-06 -1.66499e-06 1.96935e-05
0.000624502 -2.37509e-05 -2.43155e-07
-2.37509e-05 4.11754e-05 6.82173e-08
-2.43155e-07 6.82173e-08 -1.84506e-05
0.00139758 2.70069e-05 -8.25342e-06
2.70069e-05 0.000488028 6.07554e-06
-8.25342e-06 6.07554e-06 0.00047214
0.000592735 -4.2124e-05 2.11346e-06
-4.2124e-05 3.01578e-05 -2.62412e-06
2.11346e-06 -2.62412e-06 -3.15199e-05
0.000941347 1.31358e-05 -4.16001e-06
1.31358e-05 0.000213255 6.98613e-07
-4.16001e-06 6.98613e-07 0.000196268
0.000768229 2.33929e-05 5.76965e-08
2.33929e-05 0.00010636 2.30584e-06
5.76965e-08 2.30584e-06 0.000111162
0.000519117 4.04312e-07 6.00052e-07
4.04312e-07 -4.08169e-05 -4.16542e-06
6.00052e-07 -4.16542e-06 -5.88868e-05
0.00158848 2.35432e-05 6.41937e-06
2.35432e-05 0.000603063 -1.49444e-06
6.41937e-06 -1.49444e-06 0.000613329
0.00241328 1.61924e-05 4.94723e-06
1.61924e-05 0.00110254 -5.1979e-06
4.94723e-06 -5.1979e-06 0.001117
0.000662401 1.91402e-05 1.62075e-06
1.91402e-05 8.82207e-05 -1.05595e-06
1.62075e-06 -1.05595e-06 -8.37254e-07
0.000627931 3.99105e-05 -8.26018e-07
3.99105e-05 4.65195e-05 -1.75659e-06
-8.26018e-07 -1.75659e-06 6.69597e-07
0.000669316 -3.53871e-06 1.24487e-06
-3.53871e-06 0.000100793 4.23877e-07
1.24487e-06 4.23877e-07 1.6065e-05
0.000551406 -1.25428e-06 6.90448e-07
-1.25428e-06 -2.93568e-05 -3.45051e-06
6.90448e-07 -3.45051e-06 -3.73914e-05
0.000564506 3.23608e-05 9.8987e-08
3.23608e-05 9.07589e-06 -4.03691e-08
9.8987e-08 -4.03691e-08 -3.3253e-05
0.000629042 -9.80255e-05 -3.54593e-06
-9.80255e-05 7.80578e-05 1.08896e-06
-3.54593e-06 1.08896e-06 -3.56974e-06
0.00200618 3.17626e-06 -2.70701e-06
3.17626e-06 0.000853686 -4.70816e-06
-2.70701e-06 -4.70816e-06 0.000872706
0.000545949 3.15111e-06 -1.84687e-07
3.15111e-06 -3.32224e-05 3.68201e-09
-1.84687e-07 3.68201e-09 -4.03934e-05
0.000567581 -1.95426e-05 -1.62687e-06
-1.95426e-05 8.23462e-06 1.52016e-06
-1.62687e-06 1.52016e-06 -3.14951e-05
0.000529852 7.27558e-06 -7.8358e-07
7.27558e-06 -4.35397e-05 3.05575e-06
-7.8358e-07 3.05575e-06 -5.06558e-05
0.00201955 1.77487e-05 -4.25371e-06
1.77487e-05 0.000863472 -5.92121e-08
-4.25371e-06 -5.92121e-08 0.000881925
0.00199591 3.02742e-05 -8.66204e-06
3.02742e-05 0.000851383 4.31157e-06
-8.66204e-06 4.31157e-06 0.000869195
-0.00541103 -0.00067641 -7.48137e-05
-0.00067641 0.00250219 2.80747e-05
-7.48137e-05 2.80747e-05 -0.000302608
0.000164836 0.000667146 -0.000126552
0.000667146 -0.000164219 3.09031e-05
-0.000126552 3.09031e-05 -0.00100345
0.00320327 -0.000560768 -0.000364953
-0.000560768 0.00114661 0.000190253
-0.000364953 0.000190253 -0.00234401
-0.00305588 6.54565e-05 0.000533547
6.54565e-05 0.00311332 -0.000214878
0.000533547 -0.000214878 0.000782815
0.000526114 0.000332087 -1.31079e-05
0.000332087 -0.00128576 -4.57593e-06
-1.31079e-05 -4.57593e-06 -0.00105843
0.00253096 -0.000228175 0.000102106
-0.000228175 1.35704e-05 -5.72543e-06
0.000102106 -5.72543e-06 2.28458e-05
0.00107194 -0.000386688 4.47958e-05
-0.000386688 -0.00267128 -7.42365e-05
4.47958e-05 -7.42365e-05 -0.00443728
0.0127331 0.00156406 -0.000246232
0.00156406 0.0060168 5.38622e-07
-0.000246232 5.38622e-07 0.00485299
-0.00578829 0.00363592 -0.000957771
0.00363592 -0.00215946 0.000740502
-0.000957771 0.000740502 -0.0014085
0.00320625 -0.000221571 6.46726e-08
-0.000221571 -0.000258946 -1.37051e-06
6.46726e-08 -1.37051e-06 -0.000180425
0.0062427 -0.000819028 7.65224e-05
-0.000819028 -0.000317885 -7.05502e-05
7.65224e-05 -7.05502e-05 -0.0026077
0.013765 0.00281189 -0.000137334
0.00281189 0.00403819 -9.37475e-05
-0.000137334 -9.37475e-05 0.00399261
0.00633573 0.00217793 -8.18666e-05
0.00217793 -0.000323328 0.000224766
-8.18666e-05 0.000224766 -0.000912277
0.00217957 -0.000882521 -8.06952e-05
-0.000882521 -0.00148045 2.42103e-05
-8.06952e-05 2.42103e-05 -0.00115656
0.00322871 -0.00145806 0.000237675
-0.00145806 -8.31847e-05 -0.000160989
0.000237675 -0.000160989 -0.00366784
-0.00247012 0.00176141 -6.45802e-05
0.00176141 -0.00314369 -0.000432738
-6.45802e-05 -0.000432738 -0.0040363
0.00542864 0.00104462 -0.000112165
0.00104462 -0.00295792 6.96981e-06
-0.000112165 6.96981e-06 -0.00165494
0.00119994 -4.90856e-05 1.48633e-06
-4.90856e-05 0.000479437 7.03007e-06
1.48633e-06 7.03007e-06 0.00031047
0.000622488 8.85512e-05 -1.72741e-06
8.85512e-05 9.76857e-05 -1.5477e-06
-1.72741e-06 -1.5477e-06 -2.78644e-05
0.000593979 7.56465e-05 2.48257e-07
7.56465e-05 5.79931e-05 -1.80718e-06
2.48257e-07 -1.80718e-06 -3.10218e-05
0.000645507 6.00277e-05 4.3353e-06
6.00277e-05 0.000124609 4.52537e-07
4.3353e-06 4.52537e-07 8.59707e-06
0.000613279 5.96026e-05 2.37468e-06
5.96026e-05 9.03814e-05 2.32832e-06
2.37468e-06 2.32832e-06 -6.58929e-05
0.000678061 5.71938e-05 -2.29392e-07
5.71938e-05 0.000139277 1.65784e-06
-2.29392e-07 1.65784e-06 8.0457e-06
0.000562543 3.81267e-05 7.83003e-07
3.81267e-05 5.58492e-05 -9.4525e-07
7.83003e-07 -9.4525e-07 -6.22484e-05
0.000872233 0.000139577 1.9728e-06
0.000139577 0.00024915 2.84991e-06
1.9728e-06 2.84991e-06 0.000103958
0.000841237 9.13706e-05 -9.31163e-08
9.13706e-05 0.00023312 3.42628e-07
-9.31163e-08 3.42628e-07 9.48155e-05
0.000474342 -1.44193e-05 -3.7894e-06
-1.44193e-05 5.44455e-06 -2.8896e-06
-3.7894e-06 -2.8896e-06 -0.000110117
0.000691134 -0.000263195 5.05712e-05
-0.000263195 -0.000749589 -1.99601e-05
5.05712e-05 -1.99601e-05 -0.000643326
0.000836824 -0.000505052 3.79759e-05
-0.000505052 -0.000487347 -5.59512e-06
3.79759e-05 -5.59512e-06 -0.00052206
0.00167739 -0.00069588 1.54024e-05
-0.00069588 3.08052e-05 6.32401e-06
1.54024e-05 6.32401e-06 -0.000119775
0.000154321 -0.000430064 1.12289e-05
-0.000430064 -0.000274334 -1.26812e-05
1.12289e-05 -1.26812e-05 -0.000549678
0.00218394 -0.000248214 -2.80222e-06
-0.000248214 0.00118128 2.08802e-05
-2.80222e-06 2.08802e-05 0.000832744
0.000565921 -0.000104226 -1.56326e-06
-0.000104226 0.000133678 4.06111e-07
-1.56326e-06 4.06111e-07 -5.18733e-05
0.000460008 8.43974e-05 -9.10937e-07
8.43974e-05 2.36652e-05 -6.28095e-06
-9.10937e-07 -6.28095e-06 -0.00013888
0.00066773 -7.30653e-05 -7.26145e-07
-7.30653e-05 0.000163413 4.50364e-06
-7.26145e-07 4.50364e-06 -2.2396e-05
0.00127372 -0.000426908 -1.58761e-07
-0.000426908 -0.000131244 -2.2714e-06
-1.58761e-07 -2.2714e-06 -0.000285497
0.000698316 -3.08068e-05 2.31658e-07
-3.08068e-05 0.000183955 2.34674e-06
2.31658e-07 2.34674e-06 -1.28288e-06
0.00154276 -0.000169857 -1.95415e-07
-0.000169857 0.00078277 -1.13014e-06
-1.95415e-07 -1.13014e-06 0.000495739
0.00169959 -0.000556125 5.29502e-07
-0.000556125 0.000196626 3.04263e-06
5.29502e-07 3.04263e-06 0.000124309
0.00087353 -0.000401813 -1.43339e-05
-0.000401813 0.000283411 5.14587e-06
-1.43339e-05 5.14587e-06 -9.78751e-06
0.00142965 -0.000753766 3.52188e-06
-0.000753766 -8.28147e-05 -2.25423e-05
3.52188e-06 -2.25423e-05 -0.000114623
0.001204 -0.000321269 -1.35618e-05
-0.000321269 0.000433758 1.30035e-05
-1.35618e-05 1.30035e-05 0.000310567
-0.000534686 -5.30378e-05 9.0221e-08
-5.30378e-05 -0.000307856 1.47984e-05
9.0221e-08 1.47984e-05 -0.000660554
0.000757714 1.29415e-05 -1.0763e-06
1.29415e-05 0.000187156 -3.97018e-06
-1.0763e-06 -3.97018e-06 2.2709e-05
0.000851102 4.21084e-05 4.10645e-06
4.21084e-05 0.000358972 1.01237e-06
4.10645e-06 1.01237e-06 0.000119427
0.00174558 -2.76355e-05 -2.33543e-05
-2.76355e-05 0.00153051 -1.10007e-05
-2.33543e-05 -1.10007e-05 -0.000843921
-0.00367642 0.000181332 -0.00017507
0.000181332 0.00400404 -7.02918e-06
-0.00017507 -7.02918e-06 0.000933978
-0.0109176 -0.000974133 -0.000380062
-0.000974133 -0.00564433 -6.14198e-06
-0.000380062 -6.14198e-06 -0.00539863
-0.000327411 0.00011971 6.67304e-06
0.00011971 -0.000405795 -1.31811e-06
6.67304e-06 -1.31811e-06 -0.000573772
-0.00083661 0.0002275 -6.97732e-08
0.0002275 -0.000626946 6.80007e-06
-6.97732e-08 6.80007e-06 -0.000903824
0.00134134 0.000512758 2.73858e-05
0.000512758 7.99556e-05 9.19029e-06
2.73858e-05 9.19029e-06 5.69461e-05
-0.00440444 0.000812411 -9.9468e-06
0.000812411 0.00263626 2.80552e-05
-9.9468e-06 2.80552e-05 -0.000410863
0.00206044 0.00128518 -0.000118269
0.00128518 -1.32395e-05 -0.000120982
-0.000118269 -0.000120982 -0.00368708
0.0028246 0.00133049 0.000234708
0.00133049 0.000629213 6.09482e-05
0.000234708 6.09482e-05 0.000317938
-0.000142539 0.000424577 7.18939e-06
0.000424577 -0.00020465 -3.55516e-05
7.18939e-06 -3.55516e-05 -0.000290324
0.0149897 -0.00201717 -3.99234e-05
-0.00201717 0.00440694 -0.000168321
-3.99234e-05 -0.000168321 0.0035522
0.00438563 0.00058818 0.00022201
0.00058818 0.00223966 8.32539e-05
0.00022201 8.32539e-05 -0.00170503
0.0111265 -0.00136715 7.20156e-05
-0.00136715 0.00169567 2.30619e-05
7.20156e-05 2.30619e-05 0.00301863
0.000739433 0.000249961 2.67322e-06
0.000249961 0.000299485 -2.42402e-06
2.67322e-06 -2.42402e-06 0.000138339
0.00374051 0.000186728 1.06527e-05
0.000186728 0.00192223 8.41578e-06
1.06527e-05 8.41578e-06 4.46062e-05
0.000684754 0.00021375 2.69501e-05
0.00021375 2.48641e-05 1.04673e-05
2.69501e-05 1.04673e-05 -0.00154952
-0.000481365 0.000261844 -3.95189e-06
0.000261844 -0.000247239 -1.95154e-06
-3.95189e-06 -1.95154e-06 -0.000476082
0.00166856 0.000711975 -8.83575e-05
0.000711975 0.00109592 -4.11714e-05
-8.83575e-05 -4.11714e-05 0.00012218
0.00255039 0.00221068 0.000104574
0.00221068 0.000986123 6.80069e-05
0.000104574 6.80069e-05 -0.0025513
0.00692512 0.000190646 -1.25853e-05
0.000190646 -0.00291951 -0.000146865
-1.25853e-05 -0.000146865 -0.000253267
0.00291341 -0.00164389 -4.67307e-05
-0.00164389 0.00115706 -7.07877e-05
-4.67307e-05 -7.07877e-05 -0.00127991
0.00099553 0.000205898 -4.69301e-06
0.000205898 0.000657804 -1.41528e-05
-4.69301e-06 -1.41528e-05 0.000467644
-0.000483771 -1.66062e-05 1.35383e-06
-1.66062e-05 -8.6078e-05 -1.47855e-06
1.35383e-06 -1.47855e-06 -2.74941e-06
0.00311335 3.10106e-05 4.37385e-05
3.10106e-05 4.35894e-05 -0.000109979
4.37385e-05 -0.000109979 -0.00100479
0.00550419 0.00109638 0.000120731
0.00109638 -0.0028347 -1.42765e-05
0.000120731 -1.42765e-05 -0.00164919
-0.00115178 0.000111038 6.22696e-06
0.000111038 -6.80284e-05 -2.21934e-05
6.22696e-06 -2.21934e-05 -0.0006694
0.0110324 0.00174965 0.00015765
0.00174965 0.00521942 5.28388e-05
0.00015765 5.28388e-05 0.00114736
-0.00764545 -0.000463145 7.92654e-05
-0.000463145 2.20304e-05 0.000256727
7.92654e-05 0.000256727 -0.0023236
0.00250529 0.000298381 1.95151e-05
0.000298381 0.00130545 1.55889e-05
1.95151e-05 1.55889e-05 0.00114231
0.000848406 0.000167756 -5.53055e-06
0.000167756 0.000462304 -2.94042e-06
-5.53055e-06 -2.94042e-06 0.00022247
-0.000227353 7.06453e-05 -1.15266e-06
7.06453e-05 6.27334e-05 8.69586e-07
-1.15266e-06 8.69586e-07 -0.00020183
0.000704929 0.000143415 6.37389e-08
0.000143415 0.000142254 2.01524e-07
6.37389e-08 2.01524e-07 -9.08365e-06
0.000523561 6.18164e-05 1.35616e-06
6.18164e-05 3.50244e-05 2.44542e-06
1.35616e-06 2.44542e-06 -9.19454e-05
0.000475354 1.12471e-05 7.90527e-06
1.12471e-05 0.000293953 4.30295e-06
7.90527e-06 4.30295e-06 4.49729e-05
0.000623896 4.27147e-05 -1.51564e-07
4.27147e-05 8.48202e-05 -5.31431e-07
-1.51564e-07 -5.31431e-07 -4.90218e-05
0.000727827 -1.35979e-05 -2.53113e-06
-1.35979e-05 0.00036494 -2.2303e-06
-2.53113e-06 -2.2303e-06 0.000164181
-0.000409972 3.98692e-05 3.95878e-06
3.98692e-05 -2.0845e-05 4.80336e-06
3.95878e-06 4.80336e-06 -0.000365218
0.000407303 1.60624e-06 -6.50374e-06
1.60624e-06 0.00031837 -5.20916e-06
-6.50374e-06 -5.20916e-06 0.000126648
0.000202806 -3.58003e-05 -2.06286e-06
-3.58003e-05 2.63815e-05 -7.17553e-06
-2.06286e-06 -7.17553e-06 -0.000145487
0.000577969 -5.66771e-05 1.99885e-06
-5.66771e-05 5.33083e-05 4.63149e-06
1.99885e-06 4.63149e-06 -6.12815e-05
0.000816328 -1.617e-05 -1.03463e-06
-1.617e-05 0.000187536 -3.49271e-07
-1.03463e-06 -3.49271e-07 7.18755e-05
0.00110151 -4.33326e-05 -8.9596e-06
-4.33326e-05 0.000371181 6.16315e-06
-8.9596e-06 6.16315e-06 0.000270784
0.000672786 -5.38732e-05 4.34204e-06
-5.38732e-05 0.000183917 -5.90681e-07
4.34204e-06 -5.90681e-07 8.66277e-05
0.000550949 -3.45293e-05 -1.533e-06
-3.45293e-05 1.88075e-05 -2.62641e-08
-1.533e-06 -2.62641e-08 -8.39769e-05
0.000755076 -0.000107702 1.84908e-06
-0.000107702 0.000173952 -2.50417e-07
1.84908e-06 -2.50417e-07 6.84332e-05
0.000340668 -0.000103476 -3.48162e-06
-0.000103476 -0.00016289 -8.12621e-07
-3.48162e-06 -8.12621e-07 -0.000238722
-0.000538325 -0.000164036 7.75401e-06
-0.000164036 -0.000649904 4.0835e-06
7.75401e-06 4.0835e-06 -0.000839756
0.00077853 -0.000124211 1.07858e-06
-0.000124211 0.000132699 1.18411e-06
1.07858e-06 1.18411e-06 2.36173e-05
0.00125105 -0.000203384 -8.59768e-07
-0.000203384 0.000392306 3.80749e-06
-8.59768e-07 3.80749e-06 0.000227888
0.00117496 -0.000310325 -5.32665e-06
-0.000310325 0.000260354 5.19687e-06
-5.32665e-06 5.19687e-06 9.65902e-06
0.000974014 -0.000266881 -4.22976e-06
-0.000266881 0.000123868 -1.51887e-08
-4.22976e-06 -1.51887e-08 -0.000119748
0.00106957 -0.000211642 -2.75714e-06
-0.000211642 0.000362827 6.42214e-06
-2.75714e-06 6.42214e-06 0.000164164
0.00028298 -0.000172785 3.09663e-06
-0.000172785 -0.000225328 -2.57549e-07
3.09663e-06 -2.57549e-07 -0.000443537
0.00090282 -9.36513e-05 1.03585e-06
-9.36513e-05 0.000249262 -1.03891e-06
1.03585e-06 -1.03891e-06 0.000108268
0.00107228 -0.00013612 -2.00998e-06
-0.00013612 0.000362424 -4.30319e-07
-2.00998e-06 -4.30319e-07 0.000208545
0.000386779 -0.000111684 5.51858e-06
-0.000111684 -6.38992e-05 -1.31456e-05
5.51858e-06 -1.31456e-05 -0.000216586
0.00102986 -4.84298e-05 6.10333e-07
-4.84298e-05 0.00029 1.48436e-07
6.10333e-07 1.48436e-07 0.000174877
0.000408924 -2.61392e-05 4.53636e-07
-2.61392e-05 -4.79448e-05 -2.12326e-07
4.53636e-07 -2.12326e-07 -0.000165227
0.000619317 -2.20346e-05 -1.7915e-07
-2.20346e-05 5.25374e-05 1.07447e-06
-1.7915e-07 1.07447e-06 -4.37959e-05
0.000792648 -7.67283e-05 -4.54995e-07
-7.67283e-05 0.000191541 -1.70643e-07
-4.54995e-07 -1.70643e-07 6.30131e-05
0.000666785 -4.77833e-05 -7.56764e-08
-4.77833e-05 9.31918e-05 3.5681e-08
-7.56764e-08 3.5681e-08 -5.7339e-06
0.000567282 2.55129e-05 2.29813e-08
2.55129e-05 1.33601e-05 2.50771e-06
2.29813e-08 2.50771e-06 -5.36825e-05
0.000730557 -8.08816e-05 4.25712e-07
-8.08816e-05 0.000141159 -1.75329e-06
4.25712e-07 -1.75329e-06 3.87637e-05
0.000581699 1.7124e-05 -1.20422e-06
1.7124e-05 1.89417e-05 -8.72749e-08
-1.20422e-06 -8.72749e-08 -4.44734e-05
0.00136103 4.19484e-05 -9.26822e-06
4.19484e-05 0.000468378 4.10206e-06
-9.26822e-06 4.10206e-06 0.000451348
0.000626472 -3.53004e-05 2.39965e-06
-3.53004e-05 4.42138e-05 -2.70889e-06
2.39965e-06 -2.70889e-06 -1.67569e-05
0.000929556 2.39503e-05 -5.16975e-06
2.39503e-05 0.000205059 6.32728e-07
-5.16975e-06 6.32728e-07 0.000187123
0.000803158 3.26435e-05 -6.33937e-07
3.26435e-05 0.000129667 2.45355e-06
-6.33937e-07 2.45355e-06 0.000132909
0.000511516 9.34763e-06 7.66063e-07
9.34763e-06 -4.84733e-05 -4.51161e-06
7.66063e-07 -4.51161e-06 -6.72797e-05
0.00161048 3.57043e-05 8.83465e-06
3.57043e-05 0.000617647 -1.34698e-06
8.83465e-06 -1.34698e-06 0.000626589
0.00241008 3.17001e-05 8.37238e-06
3.17001e-05 0.00110124 -5.22837e-06
8.37238e-06 -5.22837e-06 0.0011151
0.000408204 8.47368e-06 1.0612e-06
8.47368e-06 -5.38118e-05 -1.73262e-07
1.0612e-06 -1.73262e-07 -0.000163253
0.000284269 8.31395e-06 -3.56932e-09
8.31395e-06 -0.000161327 -3.13359e-06
-3.56932e-09 -3.13359e-06 -0.000215538
0.000707238 2.77832e-05 4.09144e-09
2.77832e-05 0.000121897 1.28143e-07
4.09144e-09 1.28143e-07 2.75576e-05
0.000547319 -4.98544e-06 5.70974e-07
-4.98544e-06 -3.1936e-05 -3.57716e-06
5.70974e-07 -3.57716e-06 -4.16519e-05
0.000412982 1.39852e-06 1.30922e-06
1.39852e-06 -8.5159e-05 -5.38584e-08
1.30922e-06 -5.38584e-08 -0.000130933
0.000404582 -8.71119e-05 -1.67111e-06
-8.71119e-05 -5.81255e-05 3.95857e-07
-1.67111e-06 3.95857e-07 -0.000145349
0.00207846 -1.03155e-05 -7.23227e-06
-1.03155e-05 0.000897383 -4.75086e-06
-7.23227e-06 -4.75086e-06 0.000915869
0.000545921 -1.45862e-06 -9.40132e-08
-1.45862e-06 -3.29909e-05 -4.83454e-08
-9.40132e-08 -4.83454e-08 -4.08986e-05
0.000537321 -1.90124e-05 -1.86174e-06
-1.90124e-05 -9.46932e-06 1.82115e-06
-1.86174e-06 1.82115e-06 -5.02923e-05
0.00202448 4.5999e-06 -4.08778e-06
4.5999e-06 0.000864998 1.62046e-08
-4.08778e-06 1.62046e-08 0.000883896
0.000529064 2.76254e-06 -6.80633e-07
2.76254e-06 -4.2857e-05 3.18515e-06
-6.80633e-07 3.18515e-06 -5.0053e-05
0.0020077 1.9121e-05 -1.70746e-06
1.9121e-05 0.000856374 4.51253e-06
-1.70746e-06 4.51253e-06 0.000874807
0.000263176 -0.000279147 -0.00013273
-0.000279147 -0.00027587 3.28571e-05
-0.00013273 3.28571e-05 -0.00209359
0.00127035 0.000228162 -4.38023e-05
0.000228162 0.00438686 -2.73231e-06
-4.38023e-05 -2.73231e-06 0.0024143
0.00105933 -0.000336156 -0.000383788
-0.000336156 0.00243287 3.72795e-05
-0.000383788 3.72795e-05 0.00124596
0.000744659 9.32645e-05 2.55209e-06
9.32645e-05 0.000148336 1.41589e-06
2.55209e-06 1.41589e-06 1.01647e-05
0.0035753 -0.000368144 -1.56023e-05
-0.000368144 0.00259109 0.000122718
-1.56023e-05 0.000122718 0.00105959
0.00373678 -0.000651608 -0.000151717
-0.000651608 0.00139947 1.00493e-05
-0.000151717 1.00493e-05 -0.00210936
0.00376736 0.0010632 0.00025897
0.0010632 0.0043256 -0.000194998
0.00025897 -0.000194998 0.00249533
0.00489585 -0.00036999 4.86749e-05
-0.00036999 0.000544698 -3.64563e-05
4.86749e-05 -3.64563e-05 0.000322567
0.0121208 -0.000839226 0.000154733
-0.000839226 0.00247995 -7.4254e-05
0.000154733 -7.4254e-05 0.000875943
0.000215062 0.00240407 -0.000229341
0.00240407 -0.00301785 0.000216134
-0.000229341 0.000216134 -0.00287693
0.00734872 0.00227556 3.38566e-05
0.00227556 0.00111995 7.58133e-05
3.38566e-05 7.58133e-05 0.000111806
0.00538432 -0.00107294 -0.000103955
-0.00107294 0.000212823 -2.93018e-06
-0.000103955 -2.93018e-06 4.28353e-05
0.0127363 -0.00141341 5.50202e-05
-0.00141341 0.00414552 -1.76311e-05
5.50202e-05 -1.76311e-05 0.0019539
0.00780862 0.00150749 9.7081e-05
0.00150749 0.00105366 -0.000168816
9.7081e-05 -0.000168816 -3.67572e-05
0.00726234 0.000975611 6.93055e-06
0.000975611 -0.00142089 1.46168e-05
6.93055e-06 1.46168e-05 -0.000524584
0.00265836 -0.00145535 6.44142e-06
-0.00145535 -0.000191269 1.47736e-05
6.44142e-06 1.47736e-05 -0.000780845
0.0116352 -0.00203984 0.000113464
-0.00203984 0.00525055 -6.24102e-05
0.000113464 -6.24102e-05 0.0013902
0.00463951 -6.21471e-05 9.56547e-05
-6.21471e-05 0.00125072 -0.000252323
9.56547e-05 -0.000252323 0.000195983
0.00871485 0.000532586 -6.51447e-05
0.000532586 -0.00111979 0.000142756
-6.51447e-05 0.000142756 0.00100313
0.000802262 -2.04022e-05 2.68776e-06
-2.04022e-05 0.000226346 3.01815e-06
2.68776e-06 3.01815e-06 5.73154e-05
0.000859388 -7.60216e-05 -4.63949e-07
-7.60216e-05 0.000278111 -4.07742e-08
-4.63949e-07 -4.07742e-08 0.000105472
0.00076434 0.000112815 -2.82852e-07
0.000112815 0.000187831 -3.50553e-06
-2.82852e-07 -3.50553e-06 5.90491e-05
0.000715624 6.3818e-05 1.33865e-06
6.3818e-05 0.000119447 4.04056e-06
1.33865e-06 4.04056e-06 -1.53177e-05
0.000755008 0.000109308 -3.56844e-07
0.000109308 0.000184991 7.49261e-07
-3.56844e-07 7.49261e-07 2.77803e-05
0.000902708 6.69436e-05 -3.0875e-06
6.69436e-05 0.000273608 -1.61768e-06
-3.0875e-06 -1.61768e-06 0.000143593
0.000999197 0.000133613 -1.05134e-06
0.000133613 0.000324454 -7.57684e-08
-1.05134e-06 -7.57684e-08 0.000178944
0.000997499 0.0001429 6.57721e-07
0.0001429 0.000339998 1.99719e-06
6.57721e-07 1.99719e-06 0.000194248
0.000559127 -0.000324702 6.4943e-05
-0.000324702 -0.000576918 -2.71441e-05
6.4943e-05 -2.71441e-05 -0.000564601
0.00184363 -0.000576663 1.10405e-05
-0.000576663 0.00022555 -9.37444e-06
1.10405e-05 -9.37444e-06 0.000177287
0.000919188 -0.000191055 -9.62253e-07
-0.000191055 0.000321328 -7.66897e-06
-9.62253e-07 -7.66897e-06 0.00012488
0.0013001 -0.000469639 2.03221e-05
-0.000469639 0.000499949 -1.86624e-05
2.03221e-05 -1.86624e-05 0.000203878
0.00224774 -0.000262917 -6.90567e-06
-0.000262917 0.00118039 1.62317e-06
-6.90567e-06 1.62317e-06 0.0008918
0.00106335 -8.85982e-05 -1.89032e-06
-8.85982e-05 0.000389735 -1.0375e-05
-1.89032e-06 -1.0375e-05 0.000204302
0.000410278 -2.12964e-05 1.11169e-06
-2.12964e-05 -1.53105e-05 3.64414e-06
1.11169e-06 3.64414e-06 -0.000179979
0.000226405 -0.000654739 -3.42074e-06
-0.000654739 -0.00074023 -1.18011e-06
-3.42074e-06 -1.18011e-06 -0.000714192
0.00126092 4.11584e-05 6.6141e-08
4.11584e-05 0.00060278 5.94935e-07
6.6141e-08 5.94935e-07 0.000352586
0.000877666 -0.000190282 -6.95929e-06
-0.000190282 0.000433075 2.77542e-06
-6.95929e-06 2.77542e-06 0.0001178
0.000486993 -0.000250892 1.84428e-05
-0.000250892 1.36376e-05 2.47967e-06
1.84428e-05 2.47967e-06 -5.88105e-05
0.00115273 8.96549e-05 1.24232e-06
8.96549e-05 0.00039138 -1.63486e-06
1.24232e-06 -1.63486e-06 0.000252775
0.00125852 -0.000599899 9.83265e-06
-0.000599899 4.95843e-05 -3.73713e-05
9.83265e-06 -3.73713e-05 0.000129401
0.000195152 -0.000181151 5.25626e-07
-0.000181151 0.000128893 1.74022e-05
5.25626e-07 1.74022e-05 -2.35723e-05
-0.00057779 4.98366e-05 6.40441e-06
4.98366e-05 -0.0001395 5.58253e-06
6.40441e-06 5.58253e-06 -0.000613961
0.00126198 0.000202089 2.35683e-06
0.000202089 0.000543208 -4.52102e-06
2.35683e-06 -4.52102e-06 0.000360403
-5.16022e-05 1.20997e-05 8.21183e-06
1.20997e-05 0.000783588 -5.78558e-06
8.21183e-06 -5.78558e-06 0.000158108
0.00111892 -3.91351e-05 9.73072e-05
-3.91351e-05 0.00116531 -1.70102e-05
9.73072e-05 -1.70102e-05 -0.00122386
-0.00693781 -9.9995e-05 -0.000174793
-9.9995e-05 0.00328425 1.13767e-05
-0.000174793 1.13767e-05 -0.00036816
0.00118156 0.000274252 1.49367e-05
0.000274252 0.000631298 4.18234e-06
1.49367e-05 4.18234e-06 0.000459844
-0.00154942 0.000330091 2.27628e-06
0.000330091 -0.000851745 9.65366e-06
2.27628e-06 9.65366e-06 -0.0011592
0.00455583 0.000188908 0.000129833
0.000188908 0.00243637 1.21827e-05
0.000129833 1.21827e-05 0.00110229
0.00785834 0.00138455 0.00019209
0.00138455 0.00346697 9.97957e-05
0.00019209 9.97957e-05 -0.000359823
0.00338928 0.00113243 -0.000104368
0.00113243 0.0017727 -8.73851e-05
-0.000104368 -8.73851e-05 0.000637116
0.00499316 -0.00115407 -5.48426e-05
-0.00115407 0.00209847 -0.00027833
-5.48426e-05 -0.00027833 5.57003e-05
0.00125027 0.00022932 6.69969e-05
0.00022932 9.90584e-05 0.000141318
6.69969e-05 0.000141318 -0.0014578
0.00500206 -9.18206e-05 -2.26484e-05
-9.18206e-05 -0.00468568 -0.00015439
-2.26484e-05 -0.00015439 -0.00158322
0.000813469 0.000235217 -1.26796e-06
0.000235217 0.000553933 -2.81565e-06
-1.26796e-06 -2.81565e-06 0.000344108
-0.000433154 -3.21966e-05 2.3205e-07
-3.21966e-05 -0.000101317 -1.04414e-06
2.3205e-07 -1.04414e-06 -6.42096e-05
0.00311248 6.46437e-05 5.29359e-05
6.46437e-05 0.000174486 2.01663e-05
5.29359e-05 2.01663e-05 -0.000403948
-0.00106421 0.000209292 -8.76653e-06
0.000209292 -0.00034328 -6.32922e-06
-8.76653e-06 -6.32922e-06 -0.000837138
0.00733942 0.00107262 -5.37094e-06
0.00107262 -0.0014097 -1.28353e-05
-5.37094e-06 -1.28353e-05 -0.000557356
0.00461507 0.00116573 0.000139816
0.00116573 0.00324897 7.73439e-05
0.000139816 7.73439e-05 -0.00108327
0.00417949 0.000537158 -9.80749e-05
0.000537158 0.00266691 6.15225e-06
-9.80749e-05 6.15225e-06 0.000896793
0.000190236 0.000227788 -1.18208e-05
0.000227788 0.00022873 -1.80453e-05
-1.18208e-05 -1.80453e-05 -8.11368e-05
0.0015261 8.84514e-05 1.32731e-05
8.84514e-05 -0.000321944 -1.81709e-05
1.32731e-05 -1.81709e-05 -5.45321e-05
0.00349544 -0.000320971 2.1835e-05
-0.000320971 0.00253816 -0.000125927
2.1835e-05 -0.000125927 0.00106212
0.00954114 0.00230956 0.00025425
0.00230956 0.00165274 -0.000169263
0.00025425 -0.000169263 0.00123853
0.0063535 -0.000142945 -0.000100449
-0.000142945 0.00188041 0.000253913
-0.000100449 0.000253913 0.000915905
0.000911922 0.000202493 3.16526e-06
0.000202493 0.000316699 -8.36371e-05
3.16526e-06 -8.36371e-05 8.79109e-05
-0.000224589 0.00124178 0.000148922
0.00124178 0.0031378 3.05934e-05
0.000148922 3.05934e-05 -0.00331034
0.00147614 0.000257708 3.67726e-06
0.000257708 0.000780791 2.05692e-05
3.67726e-06 2.05692e-05 0.000543056
0.000317712 0.000120513 2.73081e-06
0.000120513 0.000363111 5.14155e-07
2.73081e-06 5.14155e-07 9.65497e-05
0.000733392 -5.18965e-06 -1.09488e-05
-5.18965e-06 0.00065387 -1.12049e-05
-1.09488e-05 -1.12049e-05 0.000468476
0.000292805 -2.80511e-05 7.70474e-07
-2.80511e-05 -0.000126787 4.0181e-06
7.70474e-07 4.0181e-06 -0.00024726
0.000966441 -5.53758e-06 2.49902e-06
-5.53758e-06 0.000499553 3.44658e-06
2.49902e-06 3.44658e-06 0.000303914
0.00064852 -5.45216e-06 2.44628e-06
-5.45216e-06 0.000541972 -5.46937e-06
2.44628e-06 -5.46937e-06 0.000225809
0.000474972 -5.16006e-05 5.5135e-07
-5.16006e-05 0.000149817 -2.10354e-07
5.5135e-07 -2.10354e-07 6.53181e-06
1.29918e-06 -1.65702e-05 1.38546e-06
-1.65702e-05 8.48997e-05 1.85245e-06
1.38546e-06 1.85245e-06 -0.000115995
0.00137009 -0.000238267 5.86701e-06
-0.000238267 0.000773559 -1.14706e-05
5.86701e-06 -1.14706e-05 0.000561232
0.00138339 -7.71923e-05 -2.59439e-06
-7.71923e-05 0.000586994 5.0729e-06
-2.59439e-06 5.0729e-06 0.000493649
-6.57142e-05 -1.49787e-05 -2.65304e-07
-1.49787e-05 -0.000337101 2.08777e-06
-2.65304e-07 2.08777e-06 -0.000439869
0.00142363 -0.000176269 1.95843e-06
-0.000176269 0.000556367 2.16721e-06
1.95843e-06 2.16721e-06 0.000436012
-0.00110837 -0.000127989 6.95598e-06
-0.000127989 -0.000804866 2.64157e-06
6.95598e-06 2.64157e-06 -0.00103678
0.000261341 -8.44653e-05 -3.37139e-06
-8.44653e-05 -0.00016562 9.71675e-07
-3.37139e-06 9.71675e-07 -0.000223922
-0.000130959 -0.000181793 3.33584e-06
-0.000181793 -0.000421815 -1.2996e-06
3.33584e-06 -1.2996e-06 -0.000597289
0.00117386 -0.000348381 8.86523e-06
-0.000348381 0.000224039 -5.68703e-06
8.86523e-06 -5.68703e-06 -7.23618e-05
0.00142478 -0.000389245 -4.11003e-06
-0.000389245 0.000268052 1.51141e-06
-4.11003e-06 1.51141e-06 -2.60621e-05
0.00210609 -0.000295344 -1.10767e-06
-0.000295344 0.000889073 3.32392e-07
-1.10767e-06 3.32392e-07 0.000703669
0.00109667 -0.000302866 4.67221e-07
-0.000302866 0.000188492 2.58836e-07
4.67221e-07 2.58836e-07 -7.11411e-05
0.00231471 -0.000417156 3.00831e-06
-0.000417156 0.000878287 -1.95639e-06
3.00831e-06 -1.95639e-06 0.000619778
0.000213832 -0.000153992 -1.21096e-06
-0.000153992 -0.000222305 3.89314e-06
-1.21096e-06 3.89314e-06 -0.00043872
0.00104454 -0.000268805 -6.63474e-07
-0.000268805 0.000173922 -9.34159e-07
-6.63474e-07 -9.34159e-07 -6.73171e-05
0.000462722 -8.33931e-05 4.37763e-07
-8.33931e-05 2.25511e-06 -1.72301e-06
4.37763e-07 -1.72301e-06 -0.000166271
0.00107065 -0.000228097 -4.46141e-06
-0.000228097 0.000368773 2.59953e-06
-4.46141e-06 2.59953e-06 0.000163344
-0.000642132 -7.32895e-05 -2.60967e-06
-7.32895e-05 -0.000769812 -4.41264e-06
-2.60967e-06 -4.41264e-06 -0.000967111
0.000505481 -6.52259e-06 1.01635e-06
-6.52259e-06 -8.1309e-06 1.45418e-06
1.01635e-06 1.45418e-06 -0.000118792
0.00064205 -7.50102e-05 3.14387e-07
-7.50102e-05 0.000104443 -6.79065e-08
3.14387e-07 -6.79065e-08 -3.69875e-05
0.000746125 -0.000129231 5.20966e-06
-0.000129231 0.000181992 -3.12654e-06
5.20966e-06 -3.12654e-06 2.1043e-05
0.000589792 -3.71268e-05 3.73397e-07
-3.71268e-05 6.22457e-05 -2.65387e-07
3.73397e-07 -2.65387e-07 -5.7886e-05
0.000687822 -3.32392e-05 -6.6743e-07
-3.32392e-05 0.000105318 -6.54042e-08
-6.6743e-07 -6.54042e-08 -4.29845e-07
0.000538982 2.95978e-05 1.98822e-07
2.95978e-05 -4.17502e-06 3.23994e-06
1.98822e-07 3.23994e-06 -7.63041e-05
0.00077399 -6.1286e-05 2.61651e-07
-6.1286e-05 0.000166175 -1.14032e-06
2.61651e-07 -1.14032e-06 5.97548e-05
0.000586693 2.27882e-05 -1.11337e-06
2.27882e-05 2.34371e-05 -1.84063e-07
-1.11337e-06 -1.84063e-07 -4.309e-05
0.000519125 3.85389e-05 -8.89632e-07
3.85389e-05 -3.64231e-05 4.81365e-06
-8.89632e-07 4.81365e-06 -5.984e-05
0.000669222 -2.7774e-05 2.20076e-06
-2.7774e-05 6.64641e-05 -2.56842e-06
2.20076e-06 -2.56842e-06 5.46225e-06
0.000526742 2.7722e-05 2.0336e-07
2.7722e-05 -3.81677e-05 4.15601e-09
2.0336e-07 4.15601e-09 -5.91334e-05
0.00236959 8.11204e-05 -3.67685e-06
8.11204e-05 0.00108584 2.10931e-06
-3.67685e-06 2.10931e-06 0.00109401
0.000511536 1.93347e-05 9.15615e-07
1.93347e-05 -4.87029e-05 -4.69168e-06
9.15615e-07 -4.69168e-06 -6.8756e-05
0.00162956 4.81004e-05 1.0508e-05
4.81004e-05 0.000632078 -1.13724e-06
1.0508e-05 -1.13724e-06 0.000639283
0.0024396 4.69821e-05 1.36335e-05
4.69821e-05 0.001121 -5.13697e-06
1.36335e-05 -5.13697e-06 0.00113357
0.00035733 7.87363e-06 8.98452e-07
7.87363e-06 -9.98944e-05 -1.4626e-06
8.98452e-07 -1.4626e-06 -0.000203695
0.000305741 3.74064e-06 3.57365e-07
3.74064e-06 -0.000151205 -2.71148e-06
3.57365e-07 -2.71148e-06 -0.000212973
0.000542025 1.92357e-05 -4.59917e-07
1.92357e-05 2.58871e-05 -1.12341e-06
-4.59917e-07 -1.12341e-06 -8.04681e-05
0.000553809 -1.01699e-05 9.04754e-07
-1.01699e-05 -2.73063e-05 -3.87096e-06
9.04754e-07 -3.87096e-06 -3.97158e-05
0.000268394 6.78181e-06 -5.26532e-07
6.78181e-06 -0.000171334 -1.37636e-06
-5.26532e-07 -1.37636e-06 -0.000226637
0.000709022 3.67955e-05 -3.42368e-07
3.67955e-05 0.000132409 1.34191e-06
-3.42368e-07 1.34191e-06 3.21581e-05
0.00212123 -2.35637e-05 -1.22524e-05
-2.35637e-05 0.000923591 -4.67049e-06
-1.22524e-05 -4.67049e-06 0.000941309
0.000543022 -5.78224e-06 -2.88554e-07
-5.78224e-06 -3.47422e-05 -5.42706e-08
-2.88554e-07 -5.42706e-08 -4.42543e-05
0.000227238 6.59726e-06 8.49029e-07
6.59726e-06 -0.000195093 1.62328e-06
8.49029e-07 1.62328e-06 -0.000243806
0.00204953 -8.79165e-06 -3.77203e-06
-8.79165e-06 0.000879623 4.55965e-08
-3.77203e-06 4.55965e-08 0.000898376
0.000536698 -1.62714e-06 -7.04471e-07
-1.62714e-06 -3.87812e-05 3.39424e-06
-7.04471e-07 3.39424e-06 -4.65159e-05
0.00204649 6.10629e-06 3.04572e-06
6.10629e-06 0.000878565 4.65626e-06
3.04572e-06 4.65626e-06 0.00089727
0.000594365 -4.9575e-06 3.0216e-05
-4.9575e-06 0.000634386 5.16505e-06
3.0216e-05 5.16505e-06 0.000567038
0.00043368 -0.00018579 -9.13476e-06
-0.00018579 6.59296e-05 -1.46688e-05
-9.13476e-06 -1.46688e-05 -0.00201456
0.00107518 0.000137665 2.98459e-05
0.000137665 0.00429243 -2.41694e-05
2.98459e-05 -2.41694e-05 0.00250004
0.000743831 0.00010009 -1.0619e-07
0.00010009 0.000140398 3.49114e-07
-1.0619e-07 3.49114e-07 1.08411e-05
0.000531366 6.92298e-05 2.42463e-06
6.92298e-05 -3.19397e-06 1.99176e-07
2.42463e-06 1.99176e-07 -0.000123833
0.000965042 0.000142321 3.58575e-06
0.000142321 0.000273123 3.51631e-06
3.58575e-06 3.51631e-06 0.000135099
0.00327766 -6.53006e-05 -5.13562e-07
-6.53006e-05 -0.000129617 0.000190471
-5.13562e-07 0.000190471 -0.000928956
0.00355716 -0.000327949 3.05095e-05
-0.000327949 0.00249153 -7.08296e-06
3.05095e-05 -7.08296e-06 0.00122284
0.00414548 -0.000722503 7.44327e-05
-0.000722503 0.00170369 -0.000142523
7.44327e-05 -0.000142523 -0.00196945
0.00690914 -0.0013412 -8.2071e-05
-0.0013412 0.000866983 -1.12826e-05
-8.2071e-05 -1.12826e-05 0.000781767
0.00201164 -0.00133444 -0.000175128
-0.00133444 -0.000485459 9.63072e-05
-0.000175128 9.63072e-05 -0.00322673
0.0143659 0.00213343 0.000123146
0.00213343 0.00528437 5.96756e-05
0.000123146 5.96756e-05 0.00387587
0.00398176 0.000240485 0.000114673
0.000240485 -0.0031307 -0.000130239
0.000114673 -0.000130239 -0.00259772
0.00521717 -0.0017192 -2.54638e-05
-0.0017192 0.00100397 8.19499e-06
-2.54638e-05 8.19499e-06 0.000532072
0.00679618 -0.00171161 -4.67055e-05
-0.00171161 0.00300772 2.41241e-05
-4.67055e-05 2.41241e-05 -0.000681592
-0.00327898 0.00178363 -4.9654e-05
0.00178363 0.000820253 -0.000174196
-4.9654e-05 -0.000174196 -0.00183061
0.00683675 0.000167873 -2.68307e-05
0.000167873 -0.00294483 7.47609e-05
-2.68307e-05 7.47609e-05 -0.000282985
0.00100422 -0.000936577 -5.14394e-05
-0.000936577 9.23338e-05 -5.05977e-06
-5.14394e-05 -5.05977e-06 -0.000368606
0.0115096 -0.00186869 -0.000113207
-0.00186869 0.00517927 8.46979e-05
-0.000113207 8.46979e-05 0.00111971
-0.00763562 -0.000100148 3.78591e-05
-0.000100148 0.000318581 -0.000240705
3.78591e-05 -0.000240705 -0.00233362
0.00564591 -0.00111225 5.41866e-05
-0.00111225 -0.00200302 1.37409e-06
5.41866e-05 1.37409e-06 -0.000958966
0.000589293 6.80058e-05 2.08306e-06
6.80058e-05 5.58348e-05 9.09822e-06
2.08306e-06 9.09822e-06 -8.63613e-05
0.000706857 -1.21723e-05 1.56348e-06
-1.21723e-05 0.000164824 -1.32102e-06
1.56348e-06 -1.32102e-06 -8.51575e-06
0.000835579 -9.77075e-05 -1.37676e-07
-9.77075e-05 0.000245819 -4.43008e-06
-1.37676e-07 -4.43008e-06 7.52764e-05
0.00070837 8.21285e-05 -1.07069e-06
8.21285e-05 0.00011576 -2.42049e-07
-1.07069e-06 -2.42049e-07 -2.20957e-05
0.000756679 0.000120132 3.23517e-07
0.000120132 0.000188832 -1.85061e-06
3.23517e-07 -1.85061e-06 3.82908e-05
0.00111 0.000145898 -2.82836e-06
0.000145898 0.00039606 -1.61152e-06
-2.82836e-06 -1.61152e-06 0.000246997
-0.000287264 -0.000618249 1.88498e-05
-0.000618249 -0.00104315 6.96317e-06
1.88498e-05 6.96317e-06 -0.00103333
-0.000981769 -0.000188427 1.92756e-05
-0.000188427 -0.000819844 -1.47694e-05
1.92756e-05 -1.47694e-05 -0.000848547
0.000305225 3.2142e-05 -2.36106e-06
3.2142e-05 -7.29819e-05 -4.21582e-06
-2.36106e-06 -4.21582e-06 -0.000245014
0.00144368 -0.000303779 4.18083e-05
-0.000303779 0.000700476 -2.79322e-05
4.18083e-05 -2.79322e-05 0.000404074
0.0014679 5.1925e-07 -4.67308e-06
5.1925e-07 0.000717971 -5.50907e-06
-4.67308e-06 -5.50907e-06 0.000470455
0.000572469 7.0268e-05 5.04417e-07
7.0268e-05 6.34821e-05 2.51798e-06
5.04417e-07 2.51798e-06 -8.1496e-05
0.000720387 0.000131876 3.76553e-07
0.000131876 0.000221643 -2.02367e-06
3.76553e-07 -2.02367e-06 5.68184e-05
0.000328539 -0.000633601 -5.79063e-08
-0.000633601 -0.000430781 -5.42188e-06
-5.79063e-08 -5.42188e-06 -0.000501277
0.000643276 -8.60855e-06 -1.46857e-06
-8.60855e-06 0.00047007 7.6292e-07
-1.46857e-06 7.6292e-07 0.000108979
0.000227545 -0.000143759 1.3044e-06
-0.000143759 0.000196684 -3.38871e-06
1.3044e-06 -3.38871e-06 -2.97803e-06
0.00109829 0.000123126 2.60581e-06
0.000123126 0.000401095 -6.52979e-06
2.60581e-06 -6.52979e-06 0.000272989
-0.00226233 -6.15902e-05 -5.9367e-05
-6.15902e-05 -0.000757775 -2.08206e-05
-5.9367e-05 -2.08206e-05 -0.00130138
-0.000191736 -3.10895e-05 9.25005e-06
-3.10895e-05 2.77691e-05 1.50049e-05
9.25005e-06 1.50049e-05 -0.00016234
0.00107028 4.07911e-05 8.28456e-06
4.07911e-05 0.000660798 3.77878e-06
8.28456e-06 3.77878e-06 0.000376999
0.000582371 4.51494e-06 -1.0784e-06
4.51494e-06 -0.000352692 9.23844e-07
-1.0784e-06 9.23844e-07 -0.000801631
-0.000307882 1.46362e-05 -7.08692e-06
1.46362e-05 0.00051253 -1.42996e-05
-7.08692e-06 -1.42996e-05 8.97021e-06
0.000350211 -5.17811e-05 0.000212791
-5.17811e-05 0.000780884 -4.40996e-06
0.000212791 -4.40996e-06 -0.00166999
0.000193624 0.000219575 4.38732e-06
0.000219575 0.000193615 1.81761e-05
4.38732e-06 1.81761e-05 -3.85925e-05
0.000913136 0.000500536 3.76521e-06
0.000500536 0.000230524 -1.02157e-05
3.76521e-06 -1.02157e-05 -0.000144485
-0.000399898 -3.90645e-05 9.99387e-06
-3.90645e-05 -0.000118396 -1.29118e-06
9.99387e-06 -1.29118e-06 -0.000135465
-0.00335147 0.000605831 4.53396e-05
0.000605831 0.000753316 9.57347e-05
4.53396e-05 9.57347e-05 -0.00351335
-0.00898889 0.000753745 -0.000115888
0.000753745 -0.00353854 -0.000303761
-0.000115888 -0.000303761 -0.00617104
0.00292329 8.31206e-05 4.73624e-05
8.31206e-05 0.000294321 7.89309e-05
4.73624e-05 7.89309e-05 8.34629e-05
0.00399522 0.000312793 -0.000121115
0.000312793 -0.00306194 0.000131371
-0.000121115 0.000131371 -0.0025879
0.00049874 0.000211793 4.76398e-06
0.000211793 0.000413837 -1.08476e-06
4.76398e-06 -1.08476e-06 0.000148257
0.00128737 1.90997e-05 1.80988e-05
1.90997e-05 -0.000444286 -2.87336e-05
1.80988e-05 -2.87336e-05 -0.000146832
0.00347458 -0.000245134 -3.04394e-05
-0.000245134 0.00243517 7.10923e-06
-3.04394e-05 7.10923e-06 0.00116886
0.000921204 0.000307253 -6.49294e-05
0.000307253 0.000747448 -5.20485e-06
-6.49294e-05 -5.20485e-06 -5.80428e-05
0.00623537 0.00225525 7.44071e-05
0.00225525 -0.000454741 -0.000220073
7.44071e-05 -0.000220073 -0.000859263
-0.0024708 0.00152092 4.75683e-05
0.00152092 0.000422468 0.000171563
4.75683e-05 0.000171563 -0.00185369
0.00729017 0.00018563 5.37913e-05
0.00018563 0.00614266 -2.55926e-05
5.37913e-05 -2.55926e-05 0.000319286
0.0013864 -4.78301e-05 5.06452e-05
-4.78301e-05 0.00137539 -2.13184e-05
5.06452e-05 -2.13184e-05 0.000783416
0.000644128 1.70021e-05 -2.88432e-05
1.70021e-05 0.000618653 1.32174e-08
-2.88432e-05 1.32174e-08 0.000554723
0.00312079 -0.000517512 0.000385714
-0.000517512 0.00102443 -0.000189416
0.000385714 -0.000189416 -0.00244842
0.00749761 0.00298358 6.89768e-06
0.00298358 0.00577056 -3.15789e-06
6.89768e-06 -3.15789e-06 0.00549641
-0.00216952 0.00174073 1.87421e-05
0.00174073 -0.00313885 0.000429097
1.87421e-05 0.000429097 -0.00397097
0.0128856 -0.0018654 0.000147272
-0.0018654 0.00544933 -0.000134762
0.000147272 -0.000134762 0.00125057
0.00306012 -0.00052102 -6.19832e-05
-0.00052102 0.00161041 6.23879e-05
-6.19832e-05 6.23879e-05 0.00112423
0.00110342 0.000181444 8.0834e-06
0.000181444 0.000802187 4.902e-06
8.0834e-06 4.902e-06 0.000532125
0.000168718 -7.00115e-06 -2.31701e-05
-7.00115e-06 0.000281293 5.59578e-07
-2.31701e-05 5.59578e-07 8.50745e-05
0.0015521 -0.000325137 2.41007e-05
-0.000325137 0.000987532 -9.13836e-06
2.41007e-05 -9.13836e-06 0.000650112
0.000787248 -7.95134e-05 1.20864e-06
-7.95134e-05 0.000304335 3.1442e-06
1.20864e-06 3.1442e-06 0.000185439
1.6527e-05 -4.17798e-05 -2.11107e-06
-4.17798e-05 9.15272e-05 3.00709e-06
-2.11107e-06 3.00709e-06 -0.000118421
0.00050824 -0.00021672 -1.56375e-06
-0.00021672 0.000340773 -7.28669e-07
-1.56375e-06 -7.28669e-07 0.000129772
0.00139358 -0.000382509 2.4461e-05
-0.000382509 0.000623072 -1.95761e-05
2.4461e-05 -1.95761e-05 0.000412416
0.00215183 -0.000247337 -4.97329e-06
-0.000247337 0.000974189 4.18192e-06
-4.97329e-06 4.18192e-06 0.00083593
0.0019138 -0.000422397 6.85969e-06
-0.000422397 0.000816689 -1.13404e-06
6.85969e-06 -1.13404e-06 0.000556132
0.00166634 -0.000428166 1.40648e-05
-0.000428166 0.000672766 1.2332e-06
1.40648e-05 1.2332e-06 0.000239768
0.000358126 -0.00018946 -2.94363e-06
-0.00018946 -0.000150883 -1.98114e-06
-2.94363e-06 -1.98114e-06 -0.000306001
0.00143491 -0.000371574 -2.93099e-06
-0.000371574 0.000348084 1.02548e-06
-2.93099e-06 1.02548e-06 4.74595e-05
0.00190064 -0.000496119 -5.86267e-07
-0.000496119 0.000557755 1.35295e-06
-5.86267e-07 1.35295e-06 0.000165411
0.00163976 -0.000500838 -3.79596e-06
-0.000500838 0.000302056 2.57103e-06
-3.79596e-06 2.57103e-06 -3.39971e-05
0.00133745 -0.000368567 -1.83693e-06
-0.000368567 0.000241036 2.1163e-06
-1.83693e-06 2.1163e-06 -3.18005e-05
0.00139196 -0.000389531 -2.62433e-06
-0.000389531 0.000246836 1.50134e-06
-2.62433e-06 1.50134e-06 -5.10938e-05
0.00116323 -0.000311169 -6.30041e-06
-0.000311169 0.000197815 1.95173e-06
-6.30041e-06 1.95173e-06 -7.31492e-05
0.00231585 -0.000402461 5.13624e-06
-0.000402461 0.000921262 -1.02977e-06
5.13624e-06 -1.02977e-06 0.000668531
0.00162785 -0.000348745 3.08465e-06
-0.000348745 0.000468055 -2.60882e-06
3.08465e-06 -2.60882e-06 0.000223983
-0.000103697 -7.44166e-05 1.34731e-06
-7.44166e-05 -0.000383064 1.4686e-06
1.34731e-06 1.4686e-06 -0.000574099
0.000848915 -0.000224601 2.40641e-06
-0.000224601 0.000167178 -1.58817e-06
2.40641e-06 -1.58817e-06 -6.08743e-05
0.00123036 -0.00028258 5.90386e-06
-0.00028258 0.000292939 -5.07484e-06
5.90386e-06 -5.07484e-06 5.21569e-05
0.000156203 -6.3832e-06 7.78556e-07
-6.3832e-06 -0.000203697 1.69397e-06
7.78556e-07 1.69397e-06 -0.000344494
0.000938197 -0.000130451 -5.53168e-07
-0.000130451 0.000292235 -9.51892e-09
-5.53168e-07 -9.51892e-09 0.0001135
0.000991493 -0.000235402 -1.36374e-06
-0.000235402 0.000326987 -1.83124e-06
-1.36374e-06 -1.83124e-06 0.000117293
0.000640574 7.33466e-06 -9.43602e-07
7.33466e-06 5.62948e-05 3.75862e-06
-9.43602e-07 3.75862e-06 -2.32129e-05
0.000761521 -4.77982e-05 -2.42222e-07
-4.77982e-05 0.000144048 -2.35405e-07
-2.42222e-07 -2.35405e-07 2.93487e-05
0.000414869 -5.46045e-05 2.3782e-07
-5.46045e-05 -2.15979e-05 6.0602e-07
2.3782e-07 6.0602e-07 -0.000162771
0.000738786 -5.2058e-05 2.15684e-07
-5.2058e-05 0.000139533 -1.35286e-06
2.15684e-07 -1.35286e-06 2.93717e-05
0.000622655 -9.27743e-06 -2.22776e-07
-9.27743e-06 4.02146e-05 -2.43914e-07
-2.22776e-07 -2.43914e-07 -2.94329e-05
0.000517184 4.56647e-05 -1.01018e-07
4.56647e-05 -2.98826e-05 5.5691e-06
-1.01018e-07 5.5691e-06 -5.69048e-05
0.000630188 -1.77928e-05 1.65248e-06
-1.77928e-05 4.35886e-05 -2.57026e-06
1.65248e-06 -2.57026e-06 -2.01684e-05
0.000533632 4.01461e-05 -4.13107e-07
4.01461e-05 -2.75892e-05 -6.30288e-08
-4.13107e-07 -6.30288e-08 -5.12945e-05
0.0024363 8.90855e-05 -2.68441e-05
8.90855e-05 0.00113331 4.07914e-06
-2.68441e-05 4.07914e-06 0.00114024
0.000529227 2.85632e-05 1.02288e-06
2.85632e-05 -3.65716e-05 -4.67824e-06
1.02288e-06 -4.67824e-06 -5.7657e-05
0.00160799 6.06895e-05 1.25801e-05
6.06895e-05 0.000623946 -9.43326e-07
1.25801e-05 -9.43326e-07 0.000629353
0.002466 6.29402e-05 1.78249e-05
6.29402e-05 0.00114068 -4.81347e-06
1.78249e-05 -4.81347e-06 0.00115148
0.000695916 7.16691e-05 1.18407e-06
7.16691e-05 0.000111534 -6.90435e-07
1.18407e-06 -6.90435e-07 -7.72155e-07
0.000589646 3.11852e-05 8.60594e-08
3.11852e-05 1.80134e-05 -2.32049e-06
8.60594e-08 -2.32049e-06 -4.69506e-05
0.00052833 4.25039e-05 -1.18884e-06
4.25039e-05 1.57357e-05 -1.20286e-06
-1.18884e-06 -1.20286e-06 -9.66782e-05
0.000538246 -1.32201e-05 6.51979e-07
-1.32201e-05 -3.57539e-05 -4.42193e-06
6.51979e-07 -4.42193e-06 -5.15998e-05
0.000411678 2.32311e-05 -1.69582e-06
2.32311e-05 -8.66911e-05 -1.36932e-06
-1.69582e-06 -1.36932e-06 -0.00014741
0.000740799 5.04048e-05 -5.70671e-07
5.04048e-05 0.000145813 -1.16929e-06
-5.70671e-07 -1.16929e-06 4.04492e-05
0.00221697 -3.79668e-05 -1.69383e-05
-3.79668e-05 0.000982867 -4.65217e-06
-1.69383e-05 -4.65217e-06 0.000998993
0.000537762 -1.06642e-05 -1.65947e-07
-1.06642e-05 -3.73263e-05 -8.58391e-08
-1.65947e-07 -8.58391e-08 -4.94578e-05
0.000209707 5.51575e-06 -1.04956e-06
5.51575e-06 -0.000206948 5.67636e-07
-1.04956e-06 5.67636e-07 -0.000263105
0.002135 -2.25023e-05 -4.40553e-06
-2.25023e-05 0.000931758 1.02203e-07
-4.40553e-06 1.02203e-07 0.000949554
0.000537512 -6.87466e-06 -9.53104e-07
-6.87466e-06 -3.81965e-05 3.42222e-06
-9.53104e-07 3.42222e-06 -4.75536e-05
0.00207275 -7.30756e-06 7.81211e-06
-7.30756e-06 0.000893554 4.70874e-06
7.81211e-06 4.70874e-06 0.000912265
0.00137947 -6.55292e-05 -1.73302e-05
-6.55292e-05 -0.000339505 2.21195e-05
-1.73302e-05 2.21195e-05 -0.000102829
0.000548848 -6.80541e-05 1.868e-05
-6.80541e-05 0.00057436 -1.40658e-06
1.868e-05 -1.40658e-06 0.000515841
0.000631476 -0.000174764 0.000122923
-0.000174764 0.000231908 -4.82355e-05
0.000122923 -4.82355e-05 -0.0018949
0.000490896 3.25388e-05 1.61542e-06
3.25388e-05 -3.99481e-05 2.4055e-07
1.61542e-06 2.4055e-07 -0.00015545
0.00107459 7.11477e-05 -2.7928e-07
7.11477e-05 0.00029989 2.12341e-06
-2.7928e-07 2.12341e-06 0.000168779
0.000778451 0.000110483 -8.32386e-07
0.000110483 0.00016067 -6.34161e-07
-8.32386e-07 -6.34161e-07 3.52741e-05
0.00054817 5.46951e-05 2.94635e-07
5.46951e-05 -1.35286e-06 4.19059e-07
2.94635e-07 4.19059e-07 -0.000115679
0.000654659 7.23339e-05 1.56009e-07
7.23339e-05 8.20465e-05 2.29184e-07
1.56009e-07 2.29184e-07 -4.69475e-05
0.000620341 6.4901e-05 1.95365e-06
6.4901e-05 5.19547e-05 -8.3757e-07
1.95365e-06 -8.3757e-07 -6.91304e-05
0.000647723 0.00015726 5.10212e-06
0.00015726 0.00010809 3.87315e-06
5.10212e-06 3.87315e-06 -4.01408e-05
0.00014252 0.000148005 7.03352e-05
0.000148005 -0.000232152 0.000186847
7.03352e-05 0.000186847 -0.00154005
0.00298105 -4.25786e-05 -1.5917e-05
-4.25786e-05 0.000164717 5.4306e-05
-1.5917e-05 5.4306e-05 -0.000453043
0.00340807 -0.000244624 5.18944e-05
-0.000244624 0.00235761 -7.55702e-05
5.18944e-05 -7.55702e-05 0.00135602
0.00495146 -0.000132176 -8.73821e-06
-0.000132176 -0.00480468 8.37081e-05
-8.73821e-06 8.37081e-05 -0.00154262
0.0031563 -0.00143332 -9.20213e-05
-0.00143332 0.000934748 6.78481e-05
-9.20213e-05 6.78481e-05 0.00026875
-0.00184996 -0.00179964 -5.18616e-05
-0.00179964 4.54982e-05 9.27591e-05
-5.18616e-05 9.27591e-05 -0.00429972
0.0102955 0.00233988 8.47481e-05
0.00233988 0.00526259 -8.09084e-05
8.47481e-05 -8.09084e-05 0.00281661
0.00311836 -0.0012744 -3.22222e-05
-0.0012744 0.000722129 7.98061e-06
-3.22222e-05 7.98061e-06 0.000430872
-0.000914198 -0.000541323 1.80136e-05
-0.000541323 0.00195202 3.4779e-05
1.80136e-05 3.4779e-05 -0.0030702
0.00506674 0.000250378 5.30511e-05
0.000250378 0.00260317 -1.26379e-05
5.30511e-05 -1.26379e-05 0.000772264
0.0108083 -0.00155467 -3.57214e-05
-0.00155467 0.00141175 -3.63781e-05
-3.57214e-05 -3.63781e-05 0.00270314
-0.000455171 -0.00017653 -0.000106907
-0.00017653 -0.000623102 8.2926e-05
-0.000106907 8.2926e-05 -0.000361064
0.0012484 0.00161277 -8.42897e-05
0.00161277 0.0025958 -8.26249e-05
-8.42897e-05 -8.26249e-05 -0.00251356
-0.00574021 -0.00262906 5.16435e-05
-0.00262906 -0.0029541 -0.000167579
5.16435e-05 -0.000167579 -0.00564004
0.00723577 -0.00166306 7.25971e-05
-0.00166306 0.000273338 -0.00033228
7.25971e-05 -0.00033228 0.000608423
0.00095845 2.89308e-05 7.25848e-06
2.89308e-05 0.000304535 2.05886e-06
7.25848e-06 2.05886e-06 0.000172116
0.000656697 9.08316e-05 -5.55248e-07
9.08316e-05 0.000103175 -1.08094e-06
-5.55248e-07 -1.08094e-06 -3.96347e-05
0.000798445 -1.36681e-05 -2.08013e-07
-1.36681e-05 0.000233641 -2.76511e-06
-2.08013e-07 -2.76511e-06 4.52546e-05
0.000822865 7.5055e-05 -2.14801e-06
7.5055e-05 0.000200193 -5.44821e-06
-2.14801e-06 -5.44821e-06 4.93249e-05
0.000333202 -0.000498256 -5.30394e-06
-0.000498256 -0.00038514 3.60081e-05
-5.30394e-06 3.60081e-05 -0.000500784
0.00101599 -0.000135101 -1.41452e-05
-0.000135101 0.000743399 -1.80054e-05
-1.41452e-05 -1.80054e-05 0.000490316
0.000788843 5.57275e-05 -3.67073e-06
5.57275e-05 0.000171801 -6.50237e-06
-3.67073e-06 -6.50237e-06 4.68768e-05
0.000683917 0.000174221 -9.86434e-07
0.000174221 0.000211277 3.99385e-06
-9.86434e-07 3.99385e-06 4.19738e-05
0.00218079 1.66225e-05 4.46302e-06
1.66225e-05 0.0012788 -1.66946e-05
4.46302e-06 -1.66946e-05 0.00101127
0.000927301 7.7966e-05 4.33798e-06
7.7966e-05 0.000279446 3.50347e-06
4.33798e-06 3.50347e-06 0.000165721
0.000529668 0.000124408 -2.13359e-06
0.000124408 0.000380793 -7.91287e-07
-2.13359e-06 -7.91287e-07 6.74504e-05
0.000888132 -0.000161178 2.4225e-06
-0.000161178 0.000821032 -2.73545e-06
2.4225e-06 -2.73545e-06 0.00014228
3.34588e-05 -5.20829e-06 2.42052e-05
-5.20829e-06 0.000230921 -1.83392e-06
2.42052e-05 -1.83392e-06 1.0684e-05
0.000701154 0.000138629 1.25988e-06
0.000138629 0.000401681 -3.46059e-06
1.25988e-06 -3.46059e-06 0.000194473
-5.44534e-05 -3.37722e-05 -3.59293e-05
-3.37722e-05 0.000934836 -4.35784e-05
-3.59293e-05 -4.35784e-05 -0.000391892
0.0029065 0.000182896 1.67927e-05
0.000182896 0.00172371 2.23492e-05
1.67927e-05 2.23492e-05 0.00142178
-8.1716e-05 2.56296e-05 -1.28493e-05
2.56296e-05 0.000815756 1.42942e-05
-1.28493e-05 1.42942e-05 0.00015452
0.00114589 -1.89301e-05 2.2907e-07
-1.89301e-05 -0.000101334 4.31425e-07
2.2907e-07 4.31425e-07 -0.000196849
-0.000500813 1.03941e-05 4.56215e-06
1.03941e-05 0.000228094 -2.46374e-05
4.56215e-06 -2.46374e-05 -0.00011423
0.000172332 0.00013559 -3.15109e-06
0.00013559 0.000299783 6.37267e-06
-3.15109e-06 6.37267e-06 8.58239e-05
-0.00129243 0.000402078 7.28041e-05
0.000402078 -0.000796561 6.21453e-05
7.28041e-05 6.21453e-05 -0.00116139
0.00111775 -1.44832e-05 2.46908e-05
-1.44832e-05 -0.000518413 -6.21955e-06
2.46908e-05 -6.21955e-06 -0.00015323
0.00253754 -0.00142827 0.00013425
-0.00142827 0.00363929 -0.000132012
0.00013425 -0.000132012 -0.00255638
0.011033 0.00226194 -9.65293e-05
0.00226194 0.00507318 7.58755e-05
-9.65293e-05 7.58755e-05 0.00293386
0.00351638 -0.000178045 -5.90338e-05
-0.000178045 0.00229426 8.07989e-05
-5.90338e-05 8.07989e-05 0.00132228
0.00704413 0.00229639 -2.44653e-05
0.00229639 0.0010706 -7.33966e-05
-2.44653e-05 -7.33966e-05 0.000114457
0.000181667 0.000123423 -4.39802e-05
0.000123423 0.000668729 1.15816e-05
-4.39802e-05 1.15816e-05 3.64597e-05
0.000677171 -1.7853e-05 -2.18289e-05
-1.7853e-05 0.00055091 1.70907e-06
-2.18289e-05 1.70907e-06 0.00054764
0.00365112 -0.000611539 0.000149743
-0.000611539 0.00133365 -1.2958e-05
0.000149743 -1.2958e-05 -0.00214211
-0.000466471 -0.000194535 1.66829e-05
-0.000194535 -0.000322838 2.64245e-05
1.66829e-05 2.64245e-05 -0.000523626
0.000771494 0.00325679 0.00021778
0.00325679 0.00200996 -0.000107013
0.00021778 -0.000107013 0.00224285
0.00777144 0.00146356 -9.01448e-05
0.00146356 0.000932313 0.00016873
-9.01448e-05 0.00016873 -7.07052e-06
-0.00305753 -0.000826717 7.98065e-05
-0.000826717 0.00118677 -8.77633e-05
7.98065e-05 -8.77633e-05 -0.00442209
0.000360816 -0.000239459 4.01236e-05
-0.000239459 0.000502271 -1.19203e-05
4.01236e-05 -1.19203e-05 -4.58274e-05
0.000410235 -0.000264331 0.000123058
-0.000264331 -0.000286656 -3.22558e-05
0.000123058 -3.22558e-05 -0.00209968
-0.0022529 1.11808e-05 -0.000394029
1.11808e-05 0.00316456 6.73398e-05
-0.000394029 6.73398e-05 0.000926431
0.00616206 0.0030746 -0.000303007
0.0030746 0.00104144 0.000364327
-0.000303007 0.000364327 0.000827359
0.00789065 -0.00134672 -4.41016e-05
-0.00134672 0.00356674 1.36539e-05
-4.41016e-05 1.36539e-05 4.88755e-05
0.00288482 -0.000742259 -5.74987e-05
-0.000742259 0.00135109 3.85288e-05
-5.74987e-05 3.85288e-05 0.000931028
-0.000441009 1.44617e-05 2.09011e-05
1.44617e-05 -9.18476e-05 9.2997e-06
2.09011e-05 9.2997e-06 -0.000297786
0.000344272 -0.000235213 7.87865e-08
-0.000235213 0.000357352 4.79906e-07
7.87865e-08 4.79906e-07 2.52175e-05
0.00102468 -0.000416018 1.54517e-05
-0.000416018 0.000424764 -2.73035e-06
1.54517e-05 -2.73035e-06 0.000283372
-0.00047056 -0.000186449 -5.22098e-06
-0.000186449 -0.000158373 7.23937e-06
-5.22098e-06 7.23937e-06 -0.000366855
-0.000712904 -0.000212676 1.50332e-07
-0.000212676 -0.000469385 -2.55396e-06
1.50332e-07 -2.55396e-06 -0.000682876
0.00294562 -0.00060015 3.71855e-05
-0.00060015 0.00118003 -3.77348e-06
3.71855e-05 -3.77348e-06 0.000915642
0.00479418 -0.000722297 -1.09165e-05
-0.000722297 0.00235323 4.12043e-06
-1.09165e-05 4.12043e-06 0.00206124
0.00248917 -0.000515437 7.76713e-06
-0.000515437 0.00104995 1.01806e-07
7.76713e-06 1.01806e-07 0.000638232
0.00143354 -0.00048896 9.14386e-06
-0.00048896 0.000318844 -8.0609e-06
9.14386e-06 -8.0609e-06 -0.000124803
0.00151442 -0.000376851 -9.21357e-06
-0.000376851 0.000368918 2.00475e-06
-9.21357e-06 2.00475e-06 6.69095e-05
0.00213329 -0.00052934 1.22556e-06
-0.00052934 0.000658466 4.91171e-07
1.22556e-06 4.91171e-07 0.000257796
0.00212207 -0.0005597 2.53481e-06
-0.0005597 0.000609172 -6.60777e-06
2.53481e-06 -6.60777e-06 0.000205352
0.0019809 -0.000511095 -1.54161e-06
-0.000511095 0.000400408 -3.54192e-06
-1.54161e-06 -3.54192e-06 0.000104758
0.00181974 -0.000513078 -7.16269e-07
-0.000513078 0.000382676 2.44248e-06
-7.16269e-07 2.44248e-06 6.87926e-05
0.00177454 -0.000518143 -1.39748e-06
-0.000518143 0.000377408 3.84966e-09
-1.39748e-06 3.84966e-09 3.35193e-05
0.00140893 -0.000354026 5.54256e-06
-0.000354026 0.000292632 3.6257e-07
5.54256e-06 3.6257e-07 4.27769e-05
0.00131077 -0.000358367 1.48464e-06
-0.000358367 0.000224183 2.08531e-07
1.48464e-06 2.08531e-07 -3.95457e-05
0.00133755 -0.000386446 9.78891e-07
-0.000386446 0.000215653 -5.72943e-07
9.78891e-07 -5.72943e-07 -8.56731e-05
0.00133626 -0.000284616 3.36191e-06
-0.000284616 0.000387086 2.03267e-06
3.36191e-06 2.03267e-06 0.000148778
0.00134509 -0.000306446 -1.86559e-06
-0.000306446 0.000334852 -1.0318e-06
-1.86559e-06 -1.0318e-06 9.88254e-05
0.000847828 -0.000270614 7.58589e-06
-0.000270614 2.77427e-06 -4.34095e-06
7.58589e-06 -4.34095e-06 -0.000224907
0.000391738 -0.000111429 2.35125e-06
-0.000111429 -4.94631e-05 7.12269e-07
2.35125e-06 7.12269e-07 -0.000243848
0.000471386 -0.000131228 -9.67825e-07
-0.000131228 -2.01781e-05 1.42672e-06
-9.67825e-07 1.42672e-06 -0.000222971
0.00147586 -0.000294793 3.55603e-06
-0.000294793 0.000551455 -5.75608e-06
3.55603e-06 -5.75608e-06 0.000311724
0.000471489 7.45997e-06 3.01421e-07
7.45997e-06 -4.28008e-05 4.48804e-06
3.01421e-07 4.48804e-06 -0.000135911
0.000695877 -4.78835e-05 -5.35832e-07
-4.78835e-05 0.000127928 -7.17103e-08
-5.35832e-07 -7.17103e-08 -2.45412e-05
0.00131654 -0.000182375 7.40897e-07
-0.000182375 0.000525513 -6.75982e-07
7.40897e-07 -6.75982e-07 0.000336267
0.00049556 4.48347e-05 -1.78409e-06
4.48347e-05 -3.61511e-05 8.01399e-06
-1.78409e-06 8.01399e-06 -6.65595e-05
0.000637779 3.00324e-06 -3.37307e-07
3.00324e-06 5.16299e-05 -2.77782e-07
-3.37307e-07 -2.77782e-07 -2.75606e-05
0.000986593 -7.49043e-05 -1.14608e-07
-7.49043e-05 0.000285001 -1.50003e-06
-1.14608e-07 -1.50003e-06 0.000161894
0.000661213 -9.85207e-06 1.19353e-06
-9.85207e-06 6.25299e-05 -3.16309e-06
1.19353e-06 -3.16309e-06 -7.3162e-06
0.000526871 4.62388e-05 3.54987e-07
4.62388e-05 -2.3556e-05 1.26892e-08
3.54987e-07 1.26892e-08 -5.09293e-05
0.00249944 0.000106767 -2.82479e-05
0.000106767 0.00117976 3.74547e-06
-2.82479e-05 3.74547e-06 0.00118282
0.00054572 4.33241e-05 -3.08793e-07
4.33241e-05 -2.01563e-05 -5.15239e-06
-3.08793e-07 -5.15239e-06 -4.43925e-05
0.00245932 9.22783e-05 3.05379e-06
9.22783e-05 0.00114806 3.0459e-07
3.05379e-06 3.0459e-07 0.00115437
0.00243801 7.78739e-05 2.1373e-05
7.78739e-05 0.0011289 -4.3316e-06
2.1373e-05 -4.3316e-06 0.00113785
0.000698216 7.01186e-05 1.93827e-07
7.01186e-05 0.000125784 -8.86858e-07
1.93827e-07 -8.86858e-07 -1.6504e-05
0.000767022 9.25494e-05 1.59955e-06
9.25494e-05 0.000164834 -1.1978e-06
1.59955e-06 -1.1978e-06 3.4953e-05
0.000621297 2.32241e-05 3.13985e-07
2.32241e-05 3.71404e-05 -2.7158e-06
3.13985e-07 -2.7158e-06 -3.43882e-05
0.00068 8.49187e-05 2.25492e-08
8.49187e-05 0.000100072 -1.02334e-07
2.25492e-08 -1.02334e-07 -1.1735e-05
0.000528386 -1.46789e-05 -3.76959e-07
-1.46789e-05 -3.86012e-05 -5.15571e-06
-3.76959e-07 -5.15571e-06 -5.85665e-05
0.00060026 3.2713e-05 9.27828e-08
3.2713e-05 2.50104e-05 -1.01589e-07
9.27828e-08 -1.01589e-07 -4.00106e-05
0.000608283 4.47668e-05 -2.51618e-06
4.47668e-05 5.24718e-05 -2.30124e-08
-2.51618e-06 -2.30124e-08 -5.08755e-05
0.00232516 -5.26787e-05 -2.22032e-05
-5.26787e-05 0.00105072 -4.6272e-06
-2.22032e-05 -4.6272e-06 0.00106468
0.000536765 -1.55188e-05 -4.1645e-07
-1.55188e-05 -3.61253e-05 -7.43196e-08
-4.1645e-07 -7.43196e-08 -5.19257e-05
0.000525083 3.64099e-05 -1.73149e-06
3.64099e-05 -1.77403e-05 6.3627e-07
-1.73149e-06 6.3627e-07 -7.73637e-05
0.00220496 -3.67142e-05 -4.26796e-06
-3.67142e-05 0.000975329 1.73825e-07
-4.26796e-06 1.73825e-07 0.000991712
0.000537139 -1.05925e-05 -1.01779e-06
-1.05925e-05 -3.79712e-05 3.63596e-06
-1.01779e-06 3.63596e-06 -4.98578e-05
0.0021102 -2.12367e-05 1.20033e-05
-2.12367e-05 0.000916412 4.6522e-06
1.20033e-05 4.6522e-06 0.000934447
-0.000271674 -5.2906e-05 -3.01471e-06
-5.2906e-05 -8.85724e-05 2.68679e-06
-3.01471e-06 2.68679e-06 5.44197e-05
0.00133147 -0.000101382 -1.7492e-05
-0.000101382 -0.000418703 2.78376e-05
-1.7492e-05 2.78376e-05 -0.000109743
0.000586934 -0.000100388 1.02812e-05
-0.000100388 0.000550997 -1.81043e-05
1.02812e-05 -1.81043e-05 0.000476792
0.000739351 7.13339e-05 -2.35389e-07
7.13339e-05 0.000134651 1.6437e-07
-2.35389e-07 1.6437e-07 1.39537e-06
0.000668178 5.75863e-05 1.6751e-06
5.75863e-05 5.94265e-05 -4.64212e-07
1.6751e-06 -4.64212e-07 -6.6568e-05
-0.000228932 2.92979e-05 -4.29286e-06
2.92979e-05 -0.000469283 -4.77916e-06
-4.29286e-06 -4.77916e-06 -0.000581169
0.000311131 1.92784e-05 1.57984e-06
1.92784e-05 -0.000133761 3.50653e-06
1.57984e-06 3.50653e-06 -0.000257617
0.00167523 0.000201983 -6.96196e-07
0.000201983 0.00070647 1.00137e-07
-6.96196e-07 1.00137e-07 0.000538139
0.000659332 3.42086e-05 -2.36518e-06
3.42086e-05 5.77426e-05 -1.20423e-07
-2.36518e-06 -1.20423e-07 -5.32097e-05
0.000650293 6.1654e-05 -3.01473e-06
6.1654e-05 7.0751e-05 -3.83654e-06
-3.01473e-06 -3.83654e-06 -5.09207e-05
0.000753051 6.90373e-05 -7.31503e-08
6.90373e-05 0.000133092 -2.19413e-07
-7.31503e-08 -2.19413e-07 8.96252e-06
0.00096963 0.000113821 9.8329e-08
0.000113821 0.000276894 -2.72251e-07
9.8329e-08 -2.72251e-07 0.000142515
0.000960004 8.88098e-05 3.49334e-06
8.88098e-05 0.000307782 -2.0101e-06
3.49334e-06 -2.0101e-06 0.000156265
0.00342574 0.000333145 0.000218277
0.000333145 0.00240177 0.000283005
0.000218277 0.000283005 -0.00122746
0.0006889 0.000161733 1.05235e-05
0.000161733 -3.38562e-05 7.29374e-05
1.05235e-05 7.29374e-05 -0.00154291
0.0027423 -4.86739e-05 -1.22563e-05
-4.86739e-05 0.000392734 -9.2813e-06
-1.22563e-05 -9.2813e-06 -1.61663e-05
0.0110157 -0.00135201 -0.000117395
-0.00135201 0.00151319 -0.000119322
-0.000117395 -0.000119322 0.00304274
-0.00889152 0.00113527 -4.96611e-06
0.00113527 -0.00313506 0.000296292
-4.96611e-06 0.000296292 -0.00603087
0.00483157 -0.00142003 -0.000117613
-0.00142003 0.00174754 2.80727e-05
-0.000117613 2.80727e-05 0.00148754
0.0110057 -0.00118746 -8.58711e-05
-0.00118746 0.00499863 -2.53904e-06
-8.58711e-05 -2.53904e-06 0.00121385
0.00192385 -0.000338553 -2.80349e-05
-0.000338553 0.000467416 7.36598e-05
-2.80349e-05 7.36598e-05 0.000330753
0.0112734 -0.000166159 -3.14725e-05
-0.000166159 0.00598752 -1.13716e-05
-3.14725e-05 -1.13716e-05 0.00112623
0.00292995 -0.00162472 6.45118e-05
-0.00162472 0.00116205 8.98344e-05
6.45118e-05 8.98344e-05 -0.00121679
0.00701251 -0.00206351 -0.000158756
-0.00206351 -0.000516118 -0.000399553
-0.000158756 -0.000399553 -0.000196047
0.00281353 0.000133287 -0.000117147
0.000133287 0.00110453 6.06286e-05
-0.000117147 6.06286e-05 0.000529257
0.010582 0.00137043 -7.18099e-05
0.00137043 0.00498735 1.64102e-05
-7.18099e-05 1.64102e-05 0.00111322
0.0121821 -0.00288512 -0.000113141
-0.00288512 0.00453325 -0.000353166
-0.000113141 -0.000353166 0.0036498
0.0104436 -0.00344764 8.74083e-05
-0.00344764 0.00285867 -1.20353e-05
8.74083e-05 -1.20353e-05 0.00343691
0.000215499 8.2324e-05 7.43748e-06
8.2324e-05 -4.96188e-05 -1.51271e-06
7.43748e-06 -1.51271e-06 -0.000202117
0.000811638 2.97139e-05 1.39751e-06
2.97139e-05 0.000238371 2.45241e-06
1.39751e-06 2.45241e-06 8.50127e-05
0.000675392 0.000102516 -3.70401e-06
0.000102516 0.000116015 -6.75869e-06
-3.70401e-06 -6.75869e-06 -2.95312e-05
0.00180347 -0.00024826 -2.9203e-05
-0.00024826 0.00109698 2.783e-05
-2.9203e-05 2.783e-05 0.000285798
0.000730366 -3.21453e-05 -4.43978e-05
-3.21453e-05 0.000649036 -2.20699e-05
-4.43978e-05 -2.20699e-05 0.000447901
0.000470554 7.56931e-06 -6.08183e-06
7.56931e-06 5.05169e-06 6.58707e-07
-6.08183e-06 6.58707e-07 -0.000105036
-0.000875304 8.37676e-05 -8.06846e-06
8.37676e-05 -0.000373696 -3.92366e-06
-8.06846e-06 -3.92366e-06 -0.000731076
0.000252928 0.000103226 4.5519e-07
0.000103226 0.000125462 -1.70481e-06
4.5519e-07 -1.70481e-06 -8.74509e-05
0.000674466 0.000167915 2.83817e-06
0.000167915 0.000521319 2.41124e-06
2.83817e-06 2.41124e-06 0.000176808
-0.000802079 -7.42392e-05 0.00013042
-7.42392e-05 0.000670644 -3.45228e-05
0.00013042 -3.45228e-05 -0.000680888
-0.00199559 5.69863e-05 -1.67843e-05
5.69863e-05 -0.0010293 1.23295e-05
-1.67843e-05 1.23295e-05 -0.00128501
0.00266815 0.000414928 -7.78721e-05
0.000414928 0.0017495 -5.21451e-05
-7.78721e-05 -5.21451e-05 0.0008269
0.00194745 8.1475e-05 0.000100538
8.1475e-05 0.00137994 2.5793e-05
0.000100538 2.5793e-05 -0.00106715
-0.000325583 2.43366e-05 8.23529e-06
2.43366e-05 0.000548974 1.6044e-05
8.23529e-06 1.6044e-05 1.64738e-06
0.00171712 -8.42198e-05 -4.64483e-07
-8.42198e-05 0.000163748 2.1893e-07
-4.64483e-07 2.1893e-07 0.000397292
-0.00165385 0.000335186 0.000111571
0.000335186 -0.000350636 7.16939e-06
0.000111571 7.16939e-06 -0.00109406
0.00261675 0.000183197 -3.77287e-05
0.000183197 0.00147433 2.70726e-05
-3.77287e-05 2.70726e-05 0.000596348
0.000607888 -6.73474e-05 -1.15315e-05
-6.73474e-05 0.000537084 1.21464e-05
-1.15315e-05 1.21464e-05 0.000477045
0.0159377 -0.0021172 0.000143285
-0.0021172 0.00711667 -4.60879e-05
0.000143285 -4.60879e-05 0.00265328
0.0128491 0.00221627 -6.69272e-05
0.00221627 0.0048785 -5.92366e-05
-6.69272e-05 -5.92366e-05 0.00339379
0.00430632 -0.000662209 -9.68348e-05
-0.000662209 0.00178546 0.000142861
-9.68348e-05 0.000142861 -0.001772
-0.00590179 0.00370433 0.000996912
0.00370433 -0.00209412 -0.000762329
0.000996912 -0.000762329 -0.00143033
0.000710476 -0.000237023 1.428e-05
-0.000237023 0.000779857 -4.45795e-06
1.428e-05 -4.45795e-06 0.000149976
0.000543726 -0.00019473 7.84051e-06
-0.00019473 -8.96365e-06 1.43846e-05
7.84051e-06 1.43846e-05 -0.00205637
-0.00283363 0.000158829 -0.000539924
0.000158829 0.00312607 0.000216243
-0.000539924 0.000216243 0.00086254
0.00110537 -0.000422831 -2.00685e-05
-0.000422831 0.000449592 3.5086e-05
-2.00685e-05 3.5086e-05 8.33041e-05
0.0139544 0.00291015 0.000144758
0.00291015 0.00408544 8.53428e-05
0.000144758 8.53428e-05 0.00394805
0.00792367 -0.00204284 0.000106363
-0.00204284 0.00322845 -6.03592e-05
0.000106363 -6.03592e-05 1.73352e-05
0.00233327 -0.000612199 1.16234e-06
-0.000612199 0.00111179 2.45794e-05
1.16234e-06 2.45794e-05 0.000890979
-0.00512098 -0.000654513 5.16495e-05
-0.000654513 0.002471 -3.25518e-05
5.16495e-05 -3.25518e-05 -0.000189682
0.0117816 0.00267081 -0.000620969
0.00267081 0.0051152 0.000285421
-0.000620969 0.000285421 0.00452195
0.00252743 -0.00133652 -0.000247546
-0.00133652 -0.000530896 0.00015502
-0.000247546 0.00015502 -0.00396123
0.00249381 -0.00114075 0.000116766
-0.00114075 0.000560007 -5.90985e-05
0.000116766 -5.90985e-05 0.000750211
-0.000229525 -0.000213478 -5.41912e-05
-0.000213478 2.98875e-05 1.64733e-05
-5.41912e-05 1.64733e-05 -0.000283603
0.000659652 -0.000363943 -6.69844e-06
-0.000363943 0.000300236 1.02479e-05
-6.69844e-06 1.02479e-05 8.6205e-05
0.00358183 -0.000641534 2.6764e-05
-0.000641534 0.00157813 -2.44216e-08
2.6764e-05 -2.44216e-08 0.00137602
-0.00274722 -6.74401e-05 -1.11182e-06
-6.74401e-05 -0.00150794 1.01448e-05
-1.11182e-06 1.01448e-05 -0.00172576
0.000823937 -0.000372937 5.25247e-06
-0.000372937 8.87001e-05 1.29842e-06
5.25247e-06 1.29842e-06 -0.000167141
0.00220231 -0.000607312 6.53809e-06
-0.000607312 0.000520291 -6.15781e-07
6.53809e-06 -6.15781e-07 0.00025193
0.00303777 -0.000570931 -1.7922e-05
-0.000570931 0.00127873 6.52795e-06
-1.7922e-05 6.52795e-06 0.000891954
0.00132067 -0.000463541 -2.3672e-06
-0.000463541 0.000234111 -3.92219e-06
-2.3672e-06 -3.92219e-06 -0.000186964
0.00172577 -0.00058959 5.61601e-06
-0.00058959 0.000235717 -8.12852e-06
5.61601e-06 -8.12852e-06 -9.9792e-05
0.00254957 -0.000579412 -3.71791e-06
-0.000579412 0.000863434 4.23318e-07
-3.71791e-06 4.23318e-07 0.000454788
0.00174218 -0.000527136 3.6386e-07
-0.000527136 0.000375932 -4.12266e-06
3.6386e-07 -4.12266e-06 -1.14423e-05
0.00219764 -0.000532436 1.59417e-06
-0.000532436 0.000463685 -7.29741e-06
1.59417e-06 -7.29741e-06 0.000177996
0.00167341 -0.000397881 -4.16878e-06
-0.000397881 9.54048e-05 -3.43856e-06
-4.16878e-06 -3.43856e-06 -0.000122177
0.00165829 -0.000494065 1.60813e-06
-0.000494065 0.000190316 -9.21348e-07
1.60813e-06 -9.21348e-07 -9.88108e-05
0.0018249 -0.000495948 2.07422e-06
-0.000495948 0.000313392 -2.59709e-06
2.07422e-06 -2.59709e-06 2.22048e-05
0.00176913 -0.000442359 8.3602e-07
-0.000442359 0.000413956 1.22495e-06
8.3602e-07 1.22495e-06 0.000129992
0.00183586 -0.000515159 -1.95092e-06
-0.000515159 0.000409091 1.22621e-07
-1.95092e-06 1.22621e-07 9.01439e-05
0.00185741 -0.000531917 9.08471e-07
-0.000531917 0.000422395 -3.39372e-06
9.08471e-07 -3.39372e-06 7.13609e-05
0.00145788 -0.000318986 2.8316e-06
-0.000318986 0.000362699 3.7398e-07
2.8316e-06 3.7398e-07 0.000124218
0.000996735 -0.000309918 6.90806e-07
-0.000309918 5.69653e-05 -4.24279e-07
6.90806e-07 -4.24279e-07 -0.000181184
0.00133257 -0.000354154 3.60756e-06
-0.000354154 0.000234282 -1.82078e-06
3.60756e-06 -1.82078e-06 -2.08263e-05
0.000760095 -0.000223059 -5.19891e-07
-0.000223059 0.00010672 9.34222e-07
-5.19891e-07 9.34222e-07 -0.000107704
0.000922842 -0.000240335 3.87294e-08
-0.000240335 0.000142746 9.24886e-08
3.87294e-08 9.24886e-08 -8.58922e-05
0.000378861 -0.000211098 -2.12107e-06
-0.000211098 -0.000247561 -6.8784e-07
-2.12107e-06 -6.8784e-07 -0.000467286
0.000168644 -4.96995e-06 -4.68305e-07
-4.96995e-06 -0.000217606 5.43444e-06
-4.68305e-07 5.43444e-06 -0.00034165
0.000779034 -0.000131692 1.472e-06
-0.000131692 0.000188097 2.98115e-07
1.472e-06 2.98115e-07 -1.43751e-05
0.00117541 -0.000191073 -2.32841e-06
-0.000191073 0.000419174 -6.59808e-08
-2.32841e-06 -6.59808e-08 0.000203485
0.0014967 8.08803e-05 -2.04417e-05
8.08803e-05 0.00058169 5.38266e-06
-2.04417e-05 5.38266e-06 0.000546094
0.000679076 -2.41375e-05 3.47039e-07
-2.41375e-05 7.68154e-05 -6.06643e-07
3.47039e-07 -6.06643e-07 -1.82368e-05
0.00124669 -8.49582e-05 -2.16508e-06
-8.49582e-05 0.00046585 -2.03139e-06
-2.16508e-06 -2.03139e-06 0.000302302
0.00074251 4.98015e-05 -3.12115e-05
4.98015e-05 0.000119759 4.04765e-06
-3.12115e-05 4.04765e-06 0.000116162
0.000992455 6.05658e-05 -9.78695e-06
6.05658e-05 0.000267063 -2.52574e-07
-9.78695e-06 -2.52574e-07 0.000236779
0.000642036 -2.90585e-06 7.7963e-07
-2.90585e-06 5.07276e-05 -4.06587e-06
7.7963e-07 -4.06587e-06 -2.7985e-05
0.000533942 4.86585e-05 1.138e-07
4.86585e-05 -1.8268e-05 -5.90874e-06
1.138e-07 -5.90874e-06 -4.62918e-05
0.00251946 0.000108444 4.82656e-06
0.000108444 0.00119259 4.41212e-07
4.82656e-06 4.41212e-07 0.00119536
0.00244817 9.40993e-05 2.33557e-05
9.40993e-05 0.00114218 -4.09862e-06
2.33557e-05 -4.09862e-06 0.00114814
0.000828382 8.11903e-05 1.27068e-06
8.11903e-05 0.000188744 2.32252e-06
1.27068e-06 2.32252e-06 5.58093e-05
0.000792389 8.54324e-05 1.365e-06
8.54324e-05 0.000182415 -2.18043e-06
1.365e-06 -2.18043e-06 4.55528e-05
0.000582984 5.50071e-05 -5.37168e-07
5.50071e-05 3.47791e-05 7.28213e-07
-5.37168e-07 7.28213e-07 -9.27365e-05
0.000630415 1.25486e-05 1.49589e-07
1.25486e-05 4.27046e-05 -3.19003e-06
1.49589e-07 -3.19003e-06 -3.53591e-05
0.000723108 7.22125e-05 5.56051e-07
7.22125e-05 0.000126612 1.61451e-08
5.56051e-07 1.61451e-08 7.61327e-06
0.00052753 -1.50398e-05 -1.03272e-06
-1.50398e-05 -3.454e-05 -5.77501e-06
-1.03272e-06 -5.77501e-06 -5.89473e-05
0.000591936 2.54084e-05 -3.34726e-08
2.54084e-05 2.07103e-05 -1.65821e-07
-3.34726e-08 -1.65821e-07 -5.1301e-05
0.000722235 6.90828e-05 -1.15827e-06
6.90828e-05 0.000142734 1.38202e-06
-1.15827e-06 1.38202e-06 1.77822e-05
0.0024803 -6.84362e-05 -2.90253e-05
-6.84362e-05 0.00114853 -4.49419e-06
-2.90253e-05 -4.49419e-06 0.00115971
0.000518752 -1.71904e-05 -6.08548e-07
-1.71904e-05 -4.42988e-05 -6.37663e-08
-6.08548e-07 -6.37663e-08 -6.41328e-05
0.000590723 3.59689e-05 2.62626e-07
3.59689e-05 2.01157e-05 2.47585e-06
2.62626e-07 2.47585e-06 -4.49312e-05
0.00233545 -5.21354e-05 -4.72772e-06
-5.21354e-05 0.00105675 2.60343e-07
-4.72772e-06 2.60343e-07 0.00107082
0.000519308 -1.69835e-05 -1.44669e-06
-1.69835e-05 -4.63275e-05 4.24988e-06
-1.44669e-06 4.24988e-06 -6.20167e-05
0.00220766 -3.53771e-05 1.70926e-05
-3.53771e-05 0.000976675 4.55724e-06
1.70926e-05 4.55724e-06 0.000993245
0.00543502 0.000172811 0.000146537
0.000172811 0.00233624 2.45662e-05
0.000146537 2.45662e-05 0.00103426
-0.000245117 -5.8797e-05 -6.34808e-07
-5.8797e-05 -0.000105458 -1.41051e-06
-6.34808e-07 -1.41051e-06 -1.15275e-05
0.00121898 -6.81081e-05 -2.13156e-05
-6.81081e-05 -0.00045269 3.42715e-06
-2.13156e-05 3.42715e-06 -8.70554e-05
0.000314429 0.000103605 -6.3389e-06
0.000103605 -0.000131285 -2.17022e-06
-6.3389e-06 -2.17022e-06 -0.000258116
0.000799746 6.9688e-05 -1.9703e-06
6.9688e-05 0.000166251 -5.43979e-07
-1.9703e-06 -5.43979e-07 3.93405e-05
0.000496526 4.79975e-05 2.79712e-07
4.79975e-05 -4.61502e-05 -1.00206e-06
2.79712e-07 -1.00206e-06 -0.000167005
0.000840779 4.84196e-05 3.13231e-07
4.84196e-05 0.000172409 -3.52015e-07
3.13231e-07 -3.52015e-07 4.7665e-05
0.000594649 8.27514e-05 -1.04779e-06
8.27514e-05 1.63781e-05 2.75226e-07
-1.04779e-06 2.75226e-07 -0.00010312
0.00135467 0.000167337 6.28697e-07
0.000167337 0.000510133 -1.49352e-06
6.28697e-07 -1.49352e-06 0.000359736
0.000894683 0.000128723 -1.12451e-06
0.000128723 0.000207468 -7.77302e-06
-1.12451e-06 -7.77302e-06 2.9469e-05
-6.5971e-05 3.11081e-05 1.30045e-06
3.11081e-05 -0.000289308 2.92305e-06
1.30045e-06 2.92305e-06 -0.000448811
0.000775041 0.000121483 -2.02571e-06
0.000121483 0.000161162 2.4893e-07
-2.02571e-06 2.4893e-07 2.64208e-05
0.000425199 3.098e-05 -3.62982e-06
3.098e-05 -7.61552e-05 -3.05639e-06
-3.62982e-06 -3.05639e-06 -0.000184375
0.000482307 6.05874e-05 -2.93854e-08
6.05874e-05 1.79886e-05 8.97491e-07
-2.93854e-08 8.97491e-07 -0.000126897
0.00141174 0.000183489 1.0938e-05
0.000183489 0.000635218 6.66192e-06
1.0938e-05 6.66192e-06 0.000459551
0.00115267 -0.001158 0.000140045
-0.001158 0.00309748 0.000216553
0.000140045 0.000216553 0.000286129
0.00396472 0.000437738 3.12236e-05
0.000437738 0.0022386 0.000106473
3.12236e-05 0.000106473 -0.00153014
0.0010603 0.000145271 -2.45121e-05
0.000145271 0.000221003 -4.95182e-05
-2.45121e-05 -4.95182e-05 -0.00147419
0.0120533 -0.00257127 -0.000338362
-0.00257127 0.0021716 -0.000227423
-0.000338362 -0.000227423 0.00245833
0.00602471 -0.000927567 0.000102252
-0.000927567 0.00187258 0.000297676
0.000102252 0.000297676 0.000107363
0.0013317 -0.000931246 -0.00011268
-0.000931246 0.0024768 8.9275e-05
-0.00011268 8.9275e-05 -0.00272254
0.000983328 -0.000403492 1.99906e-05
-0.000403492 0.000435538 4.64601e-05
1.99906e-05 4.64601e-05 -0.000118019
0.00200157 -0.000106144 1.95721e-05
-0.000106144 0.000814483 5.04841e-05
1.95721e-05 5.04841e-05 0.000470473
0.0027917 -0.00353175 0.000173433
-0.00353175 0.000434986 0.00018124
0.000173433 0.00018124 0.00112485
0.00416646 0.00106284 -2.78186e-05
0.00106284 0.00373333 -3.72338e-05
-2.78186e-05 -3.72338e-05 -0.0011421
0.00398233 -0.00174924 -5.47989e-05
-0.00174924 -6.45358e-05 6.42193e-05
-5.47989e-05 6.42193e-05 -0.00127881
0.000612104 0.000374309 -1.89949e-05
0.000374309 0.00029454 5.74741e-05
-1.89949e-05 5.74741e-05 0.000172147
0.0084732 0.00150495 -5.14709e-05
0.00150495 0.00378259 -2.61507e-05
-5.14709e-05 -2.61507e-05 0.000419471
0.0058912 -0.00295915 -0.000355127
-0.00295915 0.00074487 -0.000281201
-0.000355127 -0.000281201 0.000415446
0.000822313 0.000363413 7.2357e-06
0.000363413 0.000178575 -9.61345e-06
7.2357e-06 -9.61345e-06 1.67645e-05
0.000625703 9.79969e-05 2.96304e-06
9.79969e-05 0.000183471 2.68619e-08
2.96304e-06 2.68619e-08 3.64428e-05
0.000375848 4.63718e-05 -5.01197e-06
4.63718e-05 -1.41876e-05 -3.01769e-06
-5.01197e-06 -3.01769e-06 -0.000175015
-0.000642627 -0.000147057 -0.000132936
-0.000147057 0.000924542 -4.05231e-05
-0.000132936 -4.05231e-05 -0.000386391
-0.00139631 0.00015907 1.73631e-06
0.00015907 -0.000650511 -1.738e-05
1.73631e-06 -1.738e-05 -0.00100862
-4.58075e-05 8.71231e-05 -8.00147e-06
8.71231e-05 -4.67373e-05 1.78338e-06
-8.00147e-06 1.78338e-06 -0.000276531
0.000631378 0.000359566 1.38123e-05
0.000359566 0.000332534 3.0956e-06
1.38123e-05 3.0956e-06 4.88991e-05
0.000483118 0.000294977 1.20051e-05
0.000294977 0.000565985 -3.35275e-05
1.20051e-05 -3.35275e-05 -0.000234233
7.947e-05 0.000635892 3.67987e-05
0.000635892 -0.000374055 5.06715e-06
3.67987e-05 5.06715e-06 -0.000806322
-0.00244112 0.000474149 0.000185109
0.000474149 0.00384477 5.87367e-06
0.000185109 5.87367e-06 0.000287209
0.00224262 -1.36611e-05 -4.32476e-06
-1.36611e-05 0.00151656 3.18248e-05
-4.32476e-06 3.18248e-05 -0.000362646
-0.000590783 -1.9394e-05 -3.32718e-06
-1.9394e-05 0.000226553 2.09767e-05
-3.32718e-06 2.09767e-05 -0.000144495
-1.52998e-07 -0.000156558 -5.89812e-05
-0.000156558 0.000519665 6.59197e-06
-5.89812e-05 6.59197e-06 -0.000120335
-0.000775101 -0.000137864 -6.94263e-05
-0.000137864 -0.000984229 2.8314e-05
-6.94263e-05 2.8314e-05 -0.000695217
0.000810106 -0.000149425 -0.000107161
-0.000149425 0.000116441 4.61527e-05
-0.000107161 4.61527e-05 -0.00194664
-0.00256254 -0.00177394 0.000100966
-0.00177394 0.000265745 -0.000113242
0.000100966 -0.000113242 -0.00419073
0.000740881 0.00243856 0.000280373
0.00243856 -0.00285828 -0.000237014
0.000280373 -0.000237014 -0.00287416
0.00361886 0.00112802 -0.000268904
0.00112802 0.00428252 0.000182894
-0.000268904 0.000182894 0.00248516
0.00134827 -0.000326027 -3.41253e-06
-0.000326027 0.00068032 -3.29566e-06
-3.41253e-06 -3.29566e-06 0.000513708
0.00138856 0.000235586 4.50688e-05
0.000235586 0.0042963 3.50004e-06
4.50688e-05 3.50004e-06 0.00239795
-0.00273756 0.0016895 2.22778e-05
0.0016895 -0.00047415 2.33674e-05
2.22778e-05 2.33674e-05 -0.00238784
0.00331465 -0.00133708 5.9692e-05
-0.00133708 0.00116717 -1.7984e-05
5.9692e-05 -1.7984e-05 0.00076598
0.0129962 -0.00130494 2.05724e-05
-0.00130494 0.00379635 -1.27203e-05
2.05724e-05 -1.27203e-05 0.00189428
0.00292754 -0.000844148 -1.56817e-05
-0.000844148 0.00097139 2.3037e-05
-1.56817e-05 2.3037e-05 0.000922283
-0.00882203 0.000627888 -0.00026822
0.000627888 -0.00382817 1.49081e-05
-0.00026822 1.49081e-05 -0.00507931
0.0136205 -0.000809054 -0.000133121
-0.000809054 0.0031275 4.03717e-05
-0.000133121 4.03717e-05 0.00155321
0.00311221 -0.00150428 2.92134e-05
-0.00150428 -0.00027235 -3.20855e-05
2.92134e-05 -3.20855e-05 -0.00058952
-8.66064e-05 -0.000254854 -1.45753e-05
-0.000254854 -2.83324e-05 1.564e-05
-1.45753e-05 1.564e-05 -0.000311865
0.00150335 -0.000496875 -3.35665e-06
-0.000496875 0.000350426 6.51788e-07
-3.35665e-06 6.51788e-07 0.00027209
0.00363896 -0.000626789 1.51234e-05
-0.000626789 0.00126332 -3.7413e-06
1.51234e-05 -3.7413e-06 0.00110375
-0.00093713 -0.000186668 -7.83339e-06
-0.000186668 -0.000803421 5.03232e-06
-7.83339e-06 5.03232e-06 -0.0010611
0.00139575 -0.000525049 -6.63467e-06
-0.000525049 0.000132597 -2.79365e-06
-6.63467e-06 -2.79365e-06 -0.000151254
0.00251102 -0.000675541 4.43418e-06
-0.000675541 0.0005183 -2.67424e-06
4.43418e-06 -2.67424e-06 0.000260122
0.00121392 -0.000441345 -1.75807e-05
-0.000441345 0.000156281 4.53865e-07
-1.75807e-05 4.53865e-07 -0.000245135
0.00157362 -0.000562989 -1.25087e-07
-0.000562989 0.000164618 2.86067e-07
-1.25087e-07 2.86067e-07 -0.00017362
0.0015239 -0.000487454 2.62287e-06
-0.000487454 -6.24632e-05 -6.14885e-06
2.62287e-06 -6.14885e-06 -0.000279823
0.00124895 -0.000484872 -5.78744e-06
-0.000484872 8.05276e-05 -1.3013e-08
-5.78744e-06 -1.3013e-08 -0.000291134
0.00167963 -0.000480777 -4.48328e-07
-0.000480777 0.000180443 7.43444e-07
-4.48328e-07 7.43444e-07 -9.56503e-05
0.00178831 -0.000392962 -1.4474e-06
-0.000392962 0.000101469 -5.38947e-06
-1.4474e-06 -5.38947e-06 -7.3578e-05
0.00167314 -0.00031312 -4.7123e-06
-0.00031312 5.46583e-05 -2.74323e-06
-4.7123e-06 -2.74323e-06 -9.50585e-05
0.00154488 -0.000389046 -4.06861e-06
-0.000389046 3.991e-05 -2.27393e-06
-4.06861e-06 -2.27393e-06 -0.000183023
0.00165616 -0.000388138 1.22846e-06
-0.000388138 9.36901e-05 1.82982e-06
1.22846e-06 1.82982e-06 -0.000118479
0.00145586 -0.000422954 -2.45523e-06
-0.000422954 0.000120243 -1.53039e-06
-2.45523e-06 -1.53039e-06 -0.000147176
0.00176668 -0.000496774 1.81365e-06
-0.000496774 0.000264123 -4.70451e-07
1.81365e-06 -4.70451e-07 -2.22018e-05
0.00173967 -0.000486532 1.77785e-06
-0.000486532 0.00026643 3.87172e-07
1.77785e-06 3.87172e-07 -2.09477e-05
0.00145888 -0.000354045 -1.97286e-06
-0.000354045 0.00028168 1.50381e-06
-1.97286e-06 1.50381e-06 2.98908e-05
0.00153488 -0.000422174 1.03051e-06
-0.000422174 0.000278684 -4.80414e-07
1.03051e-06 -4.80414e-07 -1.56796e-06
0.00180437 -0.000511888 -2.98542e-06
-0.000511888 0.000407757 -1.34905e-06
-2.98542e-06 -1.34905e-06 8.42007e-05
0.00102343 -0.000242925 -2.31817e-06
-0.000242925 0.000153308 2.45464e-06
-2.31817e-06 2.45464e-06 -5.75959e-05
0.00118422 -0.0002936 1.27746e-06
-0.0002936 0.000191973 -5.21154e-08
1.27746e-06 -5.21154e-08 -4.18726e-05
0.00069153 -0.000275329 -2.35724e-07
-0.000275329 -0.000114553 -3.09627e-06
-2.35724e-07 -3.09627e-06 -0.000343112
0.000517888 -0.000120042 -2.06206e-06
-0.000120042 -1.84961e-05 4.5264e-06
-2.06206e-06 4.5264e-06 -0.000181997
0.00101988 -0.000225202 2.4683e-08
-0.000225202 0.000254204 3.86086e-08
2.4683e-08 3.86086e-08 3.99982e-05
0.000291929 -0.000177647 -3.17669e-06
-0.000177647 -0.000231929 -8.22924e-08
-3.17669e-06 -8.22924e-08 -0.000447419
0.000353401 2.36835e-05 -2.06128e-06
2.36835e-05 -0.000107808 9.13595e-06
-2.06128e-06 9.13595e-06 -0.000157505
0.000686902 -7.88726e-05 -3.06562e-07
-7.88726e-05 9.42007e-05 -1.27533e-07
-3.06562e-07 -1.27533e-07 -4.09036e-05
0.00128572 -0.000152735 9.36922e-07
-0.000152735 0.000494569 -2.1562e-06
9.36922e-07 -2.1562e-06 0.000284528
0.00282219 0.000158798 -5.18807e-06
0.000158798 0.00139525 2.39994e-06
-5.18807e-06 2.39994e-06 0.00138329
0.000508363 3.80039e-05 -2.35718e-07
3.80039e-05 -2.19411e-05 -8.96637e-08
-2.35718e-07 -8.96637e-08 -6.08479e-05
0.000845654 -5.00373e-05 2.69662e-06
-5.00373e-05 0.000175879 -5.16379e-06
2.69662e-06 -5.16379e-06 7.63858e-05
0.00264311 0.000123097 4.66836e-06
0.000123097 0.00127477 3.7006e-07
4.66836e-06 3.7006e-07 0.00127415
0.000560329 4.25439e-05 7.65815e-07
4.25439e-05 4.41112e-06 -6.68465e-06
7.65815e-07 -6.68465e-06 -2.76427e-05
0.00257449 0.000110394 3.09278e-05
0.000110394 0.00122653 -3.49655e-06
3.09278e-05 -3.49655e-06 0.00122895
0.000921638 0.000143276 2.31951e-06
0.000143276 0.000231437 3.09157e-06
2.31951e-06 3.09157e-06 8.28074e-05
0.000764565 8.57488e-05 2.46836e-07
8.57488e-05 0.000153945 3.40838e-07
2.46836e-07 3.40838e-07 1.6887e-05
0.00086011 7.56896e-05 7.99146e-07
7.56896e-05 0.000230305 -2.75381e-06
7.99146e-07 -2.75381e-06 8.01637e-05
0.000651386 1.36292e-05 -4.31019e-07
1.36292e-05 6.24778e-05 -4.23184e-06
-4.31019e-07 -4.23184e-06 -2.39667e-05
0.000703713 5.27881e-05 2.25234e-07
5.27881e-05 0.000118917 2.57806e-07
2.25234e-07 2.57806e-07 -1.00913e-05
0.000541302 7.34505e-05 3.67427e-07
7.34505e-05 1.73449e-05 1.28181e-06
3.67427e-07 1.28181e-06 -0.000117064
0.00053728 -1.30464e-05 -1.87465e-06
-1.30464e-05 -2.52148e-05 -6.50502e-06
-1.87465e-06 -6.50502e-06 -5.39107e-05
0.000614617 1.94071e-05 -2.49401e-08
1.94071e-05 3.71916e-05 -1.15166e-07
-2.49401e-08 -1.15166e-07 -4.22174e-05
0.00066454 6.78843e-05 -5.09906e-07
6.78843e-05 8.77451e-05 1.26604e-06
-5.09906e-07 1.26604e-06 -2.58743e-05
0.00262086 -8.35608e-05 -3.72793e-05
-8.35608e-05 0.00123886 -4.20772e-06
-3.72793e-05 -4.20772e-06 0.00124714
0.000500226 -1.87025e-05 7.47682e-07
-1.87025e-05 -5.11357e-05 -1.12625e-07
7.47682e-07 -1.12625e-07 -7.53553e-05
0.00059789 2.88558e-05 -6.08776e-08
2.88558e-05 2.508e-05 2.78593e-06
-6.08776e-08 2.78593e-06 -4.72942e-05
0.00245483 -6.76043e-05 -5.14551e-06
-6.76043e-05 0.00113268 3.32557e-07
-5.14551e-06 3.32557e-07 0.00114408
0.000509937 -1.98288e-05 -1.16484e-06
-1.98288e-05 -4.93988e-05 4.98086e-06
-1.16484e-06 4.98086e-06 -6.91586e-05
0.00230661 -5.0816e-05 2.10965e-05
-5.0816e-05 0.00103901 4.48449e-06
2.10965e-05 4.48449e-06 0.00105341
-0.00706297 0.000440895 -2.72141e-05
0.000440895 0.00185879 5.49957e-05
-2.72141e-05 5.49957e-05 -0.00173638
0.00517843 7.84207e-05 -7.0945e-06
7.84207e-05 0.00248243 -5.06522e-08
-7.0945e-06 -5.06522e-08 0.00122392
-0.000183406 -6.68479e-05 -8.47877e-06
-6.68479e-05 -0.000126954 -5.23482e-06
-8.47877e-06 -5.23482e-06 -9.22502e-05
0.000257464 7.19772e-05 -1.67984e-06
7.19772e-05 -0.000169776 1.76644e-06
-1.67984e-06 1.76644e-06 -0.000291787
0.0027481 0.000404861 2.13905e-06
0.000404861 0.00132756 4.99015e-06
2.13905e-06 4.99015e-06 0.00111138
0.00074969 8.38668e-05 -3.73082e-06
8.38668e-05 0.000129909 -1.20029e-07
-3.73082e-06 -1.20029e-07 -1.76629e-05
0.000992376 5.24964e-05 -2.02458e-06
5.24964e-05 0.000257724 -3.83671e-06
-2.02458e-06 -3.83671e-06 0.000134594
0.00138716 0.000148874 2.59602e-06
0.000148874 0.00048304 -4.47402e-07
2.59602e-06 -4.47402e-07 0.000356091
0.000208183 5.62898e-05 -3.95966e-06
5.62898e-05 -0.000188322 2.16401e-06
-3.95966e-06 2.16401e-06 -0.000308519
0.000476584 7.26512e-05 -1.1773e-06
7.26512e-05 3.11861e-05 1.75168e-06
-1.1773e-06 1.75168e-06 -0.000137049
0.000629237 9.81507e-05 -2.4118e-06
9.81507e-05 5.89066e-05 -2.97654e-06
-2.4118e-06 -2.97654e-06 -0.00011132
0.00105429 0.000189998 3.98869e-06
0.000189998 0.000357732 -6.14464e-06
3.98869e-06 -6.14464e-06 0.000135119
0.000620149 0.000281713 2.04456e-06
0.000281713 -8.28809e-06 -2.08837e-07
2.04456e-06 -2.08837e-07 -0.000125023
0.00105565 8.55429e-05 -3.76954e-06
8.55429e-05 0.000364073 7.47235e-07
-3.76954e-06 7.47235e-07 0.000208986
0.00107148 0.000157012 1.26519e-06
0.000157012 0.000438556 3.11155e-06
1.26519e-06 3.11155e-06 0.000264056
-0.0041704 -0.0011741 -0.000583082
-0.0011741 -0.000432681 -6.4813e-05
-0.000583082 -6.4813e-05 -0.00223487
-0.00335102 -0.000866328 0.000235977
-0.000866328 0.00230817 0.000114333
0.000235977 0.000114333 -0.000837805
0.00456253 0.000509882 -0.000214846
0.000509882 0.00224367 -8.05486e-05
-0.000214846 -8.05486e-05 -0.00169774
-0.00620671 -0.00364702 0.000859738
-0.00364702 -0.00201519 0.00067768
0.000859738 0.00067768 -0.00151215
0.0162556 -0.00195498 -3.32415e-05
-0.00195498 0.00503819 0.000185767
-3.32415e-05 0.000185767 0.00432978
-0.00174999 0.00122608 -3.99592e-06
0.00122608 0.000707332 -0.000104121
-3.99592e-06 -0.000104121 -0.00382363
0.00175147 3.96186e-05 -0.000156791
3.96186e-05 0.00104099 1.31689e-05
-0.000156791 1.31689e-05 7.56634e-05
0.00189437 0.000485382 1.43384e-05
0.000485382 0.000830321 2.95924e-05
1.43384e-05 2.95924e-05 0.000616139
0.0116384 -0.002225 -0.00024854
-0.002225 0.00527639 5.18194e-05
-0.00024854 5.18194e-05 0.00455519
-0.000466113 0.00144739 -2.8747e-05
0.00144739 0.000591351 -3.82463e-05
-2.8747e-05 -3.82463e-05 -0.00313726
0.00212026 0.00103269 -2.49566e-05
0.00103269 0.000436097 -6.12667e-05
-2.49566e-05 -6.12667e-05 0.000622494
0.00407848 0.00214036 -0.000220931
0.00214036 -0.000229437 -0.000127807
-0.000220931 -0.000127807 -0.00273883
0.00242012 0.000743171 1.91158e-05
0.000743171 0.000722993 -1.73247e-05
1.91158e-05 -1.73247e-05 0.000458738
0.000862063 0.000346541 -4.73934e-06
0.000346541 0.000206925 4.31101e-07
-4.73934e-06 4.31101e-07 5.3622e-05
0.00100254 0.000111789 -8.13295e-06
0.000111789 0.000397555 1.10527e-06
-8.13295e-06 1.10527e-06 0.000258398
-0.00131337 0.00021259 -4.21835e-05
0.00021259 -0.000462137 -5.28969e-05
-4.21835e-05 -5.28969e-05 -0.00116402
0.0022253 0.000572876 -2.78214e-05
0.000572876 0.00113111 -1.67725e-05
-2.78214e-05 -1.67725e-05 0.000835681
0.00139593 0.000763266 1.43677e-05
0.000763266 0.000238679 -4.77308e-06
1.43677e-05 -4.77308e-06 -0.00018841
0.00243617 0.00111929 0.000111063
0.00111929 8.55005e-05 3.21049e-05
0.000111063 3.21049e-05 -9.70267e-05
-0.00518544 -0.0001464 -0.000332248
-0.0001464 -0.00426593 9.79174e-06
-0.000332248 9.79174e-06 -0.0029832
-0.00449874 0.000252222 0.000175013
0.000252222 0.0034077 4.1483e-06
0.000175013 4.1483e-06 -0.000216774
0.00253815 -6.82797e-05 -8.41708e-05
-6.82797e-05 0.00168072 3.05842e-05
-8.41708e-05 3.05842e-05 0.000300802
0.00181528 -0.000396441 -5.20174e-05
-0.000396441 0.00067529 -4.16384e-05
-5.20174e-05 -4.16384e-05 0.000515295
0.00102746 -0.00113476 2.43877e-07
-0.00113476 -0.000196842 1.77062e-05
2.43877e-07 1.77062e-05 -0.000404988
0.00118647 0.000205755 -1.47083e-05
0.000205755 0.00412778 2.77666e-05
-1.47083e-05 2.77666e-05 0.00236554
0.00294349 -0.0013603 0.000230803
-0.0013603 -0.000206725 -0.000141018
0.000230803 -0.000141018 -0.002749
0.0123955 0.00163603 0.000243916
0.00163603 0.00564909 -2.27303e-05
0.000243916 -2.27303e-05 0.00436376
0.00284063 -0.00101833 -2.65662e-05
-0.00101833 0.000798475 8.02253e-06
-2.65662e-05 8.02253e-06 0.000522579
9.96163e-05 0.000695221 0.000122689
0.000695221 -0.000307602 -3.05863e-05
0.000122689 -3.05863e-05 -0.00109846
0.00588437 -0.000741936 -7.98872e-05
-0.000741936 -0.000646103 7.01073e-05
-7.98872e-05 7.01073e-05 -0.00285795
0.00538636 -0.00165614 -3.54706e-05
-0.00165614 0.000846794 1.99628e-05
-3.54706e-05 1.99628e-05 0.000457212
0.00203099 -0.00073817 6.03248e-05
-0.00073817 0.000291156 -1.23514e-05
6.03248e-05 -1.23514e-05 3.54317e-05
0.0114547 -0.000516646 -6.25e-06
-0.000516646 0.00267913 -2.05349e-05
-6.25e-06 -2.05349e-05 0.00105764
0.00318374 -0.000897246 8.96312e-05
-0.000897246 -0.00120984 -5.46282e-05
8.96312e-05 -5.46282e-05 -0.00082051
-0.000764527 -0.000327379 -2.40612e-05
-0.000327379 -0.000952975 1.72892e-05
-2.40612e-05 1.72892e-05 -0.000924027
0.000259125 -0.000374106 -1.48627e-05
-0.000374106 -0.000580525 -3.30984e-07
-1.48627e-05 -3.30984e-07 -0.000647085
0.00380914 -0.000674685 3.76495e-05
-0.000674685 0.00104607 -1.83006e-05
3.76495e-05 -1.83006e-05 0.000965848
0.000260038 -0.000408082 -1.71208e-05
-0.000408082 -0.000432339 -7.38012e-06
-1.71208e-05 -7.38012e-06 -0.000717911
0.00176831 -0.000600342 2.98747e-07
-0.000600342 0.000141132 -1.03725e-06
2.98747e-07 -1.03725e-06 -0.000100152
0.00239372 -0.000561915 3.15876e-07
-0.000561915 0.000258652 -2.00723e-06
3.15876e-07 -2.00723e-06 0.000107562
0.00169571 -0.000562566 -3.8211e-06
-0.000562566 0.000233825 5.69965e-06
-3.8211e-06 5.69965e-06 -0.000108864
0.00185292 -0.000513972 -1.66054e-06
-0.000513972 0.000113027 1.10279e-06
-1.66054e-06 1.10279e-06 -0.000109986
0.00188284 -0.000395834 1.38874e-06
-0.000395834 4.43311e-05 -6.40244e-07
1.38874e-06 -6.40244e-07 -8.50204e-05
0.0012274 -0.000434018 2.89442e-06
-0.000434018 -6.68038e-05 5.14519e-06
2.89442e-06 5.14519e-06 -0.000333922
0.00176121 -0.000384025 -4.8133e-07
-0.000384025 9.26945e-05 1.21823e-06
-4.8133e-07 1.21823e-06 -8.04556e-05
0.00179154 -0.000328947 -2.89386e-06
-0.000328947 5.99848e-05 -5.50508e-07
-2.89386e-06 -5.50508e-07 -5.982e-05
0.00202104 -0.000315115 -3.29346e-06
-0.000315115 0.000263718 -3.08864e-07
-3.29346e-06 -3.08864e-07 0.000141412
0.00175382 -0.000316153 -2.55041e-06
-0.000316153 9.55413e-05 3.31208e-06
-2.55041e-06 3.31208e-06 -4.96846e-05
0.00179873 -0.000333672 -1.79917e-06
-0.000333672 0.000160768 -5.47163e-06
-1.79917e-06 -5.47163e-06 -4.88933e-06
0.00171729 -0.000393789 -4.57638e-06
-0.000393789 0.000177494 -2.08488e-06
-4.57638e-06 -2.08488e-06 -4.88727e-05
0.0017134 -0.000401794 1.33209e-06
-0.000401794 0.000140196 4.87423e-07
1.33209e-06 4.87423e-07 -8.38726e-05
0.00164198 -0.0003788 4.63004e-06
-0.0003788 9.23611e-05 6.38922e-06
4.63004e-06 6.38922e-06 -0.000114434
0.00156603 -0.000385055 -6.48197e-06
-0.000385055 0.000254308 6.02606e-07
-6.48197e-06 6.02606e-07 7.74626e-07
0.00148119 -0.000427723 -7.27366e-07
-0.000427723 0.000127908 3.18755e-07
-7.27366e-07 3.18755e-07 -0.000140875
0.00185654 -0.00049873 2.89209e-06
-0.00049873 0.000326487 3.70153e-07
2.89209e-06 3.70153e-07 4.29203e-05
0.00119325 -0.000267199 -5.80495e-06
-0.000267199 0.000182292 2.62417e-06
-5.80495e-06 2.62417e-06 -3.2515e-05
0.00135877 -0.000346103 5.39557e-07
-0.000346103 0.000218826 4.58196e-07
5.39557e-07 4.58196e-07 -3.19752e-05
0.00130854 -0.000403272 1.68313e-06
-0.000403272 0.000145463 -1.04562e-06
1.68313e-06 -1.04562e-06 -0.000130747
0.00082147 -0.000178177 -6.00129e-06
-0.000178177 0.00011461 5.03225e-06
-6.00129e-06 5.03225e-06 -6.3625e-05
0.001091 -0.000249138 9.73874e-07
-0.000249138 0.000195901 2.15728e-07
9.73874e-07 2.15728e-07 -1.68081e-05
0.00112048 -0.000289176 8.6806e-07
-0.000289176 0.000146415 -1.18212e-06
8.6806e-07 -1.18212e-06 -8.69254e-05
0.000271537 -3.952e-05 -8.64615e-06
-3.952e-05 -0.000175844 1.24568e-05
-8.64615e-06 1.24568e-05 -0.00023781
0.000737291 -0.000126424 7.71099e-07
-0.000126424 0.000122186 7.52055e-07
7.71099e-07 7.52055e-07 -5.05942e-05
0.00129711 -0.00024701 3.56392e-07
-0.00024701 0.000415646 -1.33247e-06
3.56392e-07 -1.33247e-06 0.000196892
0.00319911 0.000161809 -5.62672e-05
0.000161809 0.00162647 2.64488e-06
-5.62672e-05 2.64488e-06 0.00161509
0.000518518 7.98802e-06 -8.81889e-08
7.98802e-06 -1.49088e-05 -8.15507e-07
-8.81889e-08 -8.15507e-07 -6.41114e-05
0.00128774 -0.000113859 1.69757e-06
-0.000113859 0.000459197 -6.05632e-06
1.69757e-06 -6.05632e-06 0.000312799
0.00187963 0.000107382 2.81035e-05
0.000107382 0.000818973 6.92734e-07
2.81035e-05 6.92734e-07 0.000809906
0.00061031 3.11857e-05 3.21479e-06
3.11857e-05 3.70341e-05 -8.00583e-06
3.21479e-06 -8.00583e-06 -1.29741e-06
0.00273657 0.000122986 4.41568e-05
0.000122986 0.00133108 -2.97726e-06
4.41568e-05 -2.97726e-06 0.00133058
0.000919925 0.000158962 5.33169e-06
0.000158962 0.000194716 9.71734e-09
5.33169e-06 9.71734e-09 4.69004e-05
0.000514172 8.48699e-05 -9.35943e-08
8.48699e-05 -1.70796e-05 -3.43564e-07
-9.35943e-08 -3.43564e-07 -0.000149561
0.000651502 7.7045e-05 9.58715e-08
7.7045e-05 8.06522e-05 -1.19927e-06
9.58715e-08 -1.19927e-06 -5.91782e-05
0.000860437 0.000101882 -9.96635e-08
0.000101882 0.000213701 -1.47443e-07
-9.96635e-08 -1.47443e-07 7.15768e-05
0.000720125 5.26984e-05 7.74501e-08
5.26984e-05 0.000124812 1.81809e-07
7.74501e-08 1.81809e-07 -7.85595e-06
0.000697461 2.2038e-05 -7.72045e-07
2.2038e-05 9.25002e-05 -5.07572e-06
-7.72045e-07 -5.07572e-06 -3.5106e-06
0.000557859 -1.34169e-05 -2.70739e-06
-1.34169e-05 -6.16384e-06 -7.57153e-06
-2.70739e-06 -7.57153e-06 -4.02192e-05
0.000603384 1.24278e-05 2.91753e-07
1.24278e-05 3.53577e-05 -8.57286e-08
2.91753e-07 -8.57286e-08 -5.18562e-05
0.00061786 2.88703e-05 -1.11757e-06
2.88703e-05 4.44214e-05 2.07169e-06
-1.11757e-06 2.07169e-06 -6.74651e-05
0.00272855 -9.71562e-05 -4.73144e-05
-9.71562e-05 0.0013105 -3.93939e-06
-4.73144e-05 -3.93939e-06 0.00131602
0.000503376 -1.3588e-05 1.41555e-07
-1.3588e-05 -4.39739e-05 -1.20258e-07
1.41555e-07 -1.20258e-07 -7.27759e-05
0.000573018 2.17364e-05 1.26309e-07
2.17364e-05 1.67419e-05 3.22551e-06
1.26309e-07 3.22551e-06 -6.43365e-05
0.00259383 -8.34197e-05 -5.5212e-06
-8.34197e-05 0.0012221 3.88275e-07
-5.5212e-06 3.88275e-07 0.00123039
0.000491629 -2.36371e-05 -1.34011e-09
-2.36371e-05 -5.57127e-05 5.65452e-06
-1.34011e-09 5.65452e-06 -8.01018e-05
0.00245946 -6.702e-05 2.64204e-05
-6.702e-05 0.00113506 4.44543e-06
2.64204e-05 4.44543e-06 0.00114655
1.4356e-05 0.000307482 -0.00032953
0.000307482 0.00218302 9.64375e-06
-0.00032953 9.64375e-06 0.000815167
-0.00364233 6.28279e-05 2.68164e-05
6.28279e-05 0.00250218 1.24281e-05
2.68164e-05 1.24281e-05 -0.00114547
0.00489373 -8.79849e-06 -9.89635e-05
-8.79849e-06 0.00254491 -1.80258e-05
-9.89635e-05 -1.80258e-05 0.00134396
0.000388138 4.75073e-05 1.94489e-06
4.75073e-05 -9.45288e-05 -2.96802e-06
1.94489e-06 -2.96802e-06 -0.00021224
0.000716926 6.27357e-05 3.29834e-06
6.27357e-05 0.000106685 1.51638e-06
3.29834e-06 1.51638e-06 -5.03353e-05
0.00197617 0.000321837 -1.87914e-06
0.000321837 0.000875507 1.66861e-06
-1.87914e-06 1.66861e-06 0.000680712
0.00144589 0.000334205 4.78368e-06
0.000334205 0.000445281 -2.61381e-06
4.78368e-06 -2.61381e-06 0.000195167
0.00098462 0.000226543 -4.6333e-06
0.000226543 0.000329759 2.00446e-07
-4.6333e-06 2.00446e-07 0.000125103
0.000813937 0.000120747 -6.44854e-07
0.000120747 0.000234402 2.4805e-06
-6.44854e-07 2.4805e-06 5.81581e-05
0.00083389 0.00012302 5.77442e-06
0.00012302 0.000194526 3.84517e-06
5.77442e-06 3.84517e-06 2.58207e-05
0.000612383 0.000191547 -5.3421e-06
0.000191547 0.000115695 -3.4505e-06
-5.3421e-06 -3.4505e-06 -0.000103841
-0.00038552 0.000186776 2.85051e-06
0.000186776 -0.000575091 -8.90763e-07
2.85051e-06 -8.90763e-07 -0.000776258
0.00188357 0.000423291 5.16541e-06
0.000423291 0.000628524 -1.59719e-06
5.16541e-06 -1.59719e-06 0.000486525
0.00191088 0.00060995 1.08553e-05
0.00060995 0.000357017 -4.72271e-06
1.08553e-05 -4.72271e-06 0.000142964
0.000858093 0.000314088 -5.9681e-06
0.000314088 0.00014174 -8.75808e-07
-5.9681e-06 -8.75808e-07 5.58943e-06
0.00079773 0.000116948 -4.16694e-06
0.000116948 0.000218804 -1.59164e-06
-4.16694e-06 -1.59164e-06 6.09227e-05
0.0122728 0.00117771 -9.51006e-05
0.00117771 0.00266918 4.504e-05
-9.51006e-05 4.504e-05 0.00118452
-0.000123823 -0.000937836 -0.000266468
-0.000937836 0.00250156 -9.36629e-05
-0.000266468 -9.36629e-05 0.000635772
-0.00123584 -0.0014118 0.000193591
-0.0014118 0.00244105 3.12431e-05
0.000193591 3.12431e-05 -0.000751756
0.000211913 -0.00126859 7.24525e-05
-0.00126859 0.000460701 0.00021187
7.24525e-05 0.00021187 -0.000298312
0.0114592 0.00180306 -1.33295e-05
0.00180306 0.00483974 -6.05395e-07
-1.33295e-05 -6.05395e-07 0.0013596
-0.00101177 0.00025575 -1.70669e-05
0.00025575 -0.000477938 -3.14725e-05
-1.70669e-05 -3.14725e-05 -0.000678124
0.00167573 0.000920489 -2.62845e-05
0.000920489 0.000363644 -1.17009e-05
-2.62845e-05 -1.17009e-05 0.000503675
0.0122051 0.00160512 2.33599e-05
0.00160512 0.00368515 2.52656e-05
2.33599e-05 2.52656e-05 0.00159643
0.00618922 0.00190616 -4.08219e-05
0.00190616 0.000906757 -6.64587e-05
-4.08219e-05 -6.64587e-05 0.000560865
0.00152938 0.000732762 7.89358e-06
0.000732762 0.000107799 -5.16079e-06
7.89358e-06 -5.16079e-06 -7.43177e-05
0.00117224 0.000570992 5.76367e-06
0.000570992 0.000187261 -3.1702e-07
5.76367e-06 -3.1702e-07 -5.67589e-05
0.00100632 0.000324009 -1.91988e-05
0.000324009 0.000311743 1.28884e-05
-1.91988e-05 1.28884e-05 0.000169115
0.00262779 0.000926522 -5.26367e-05
0.000926522 0.000765064 -1.72346e-05
-5.26367e-05 -1.72346e-05 0.00035015
0.00189329 0.00106179 7.49685e-06
0.00106179 -0.000323507 1.86184e-05
7.49685e-06 1.86184e-05 -0.000503334
0.00126401 -0.000391623 -5.54207e-05
-0.000391623 -0.00344337 3.0806e-05
-5.54207e-05 3.0806e-05 -0.00370048
0.00181341 -0.000701251 4.29224e-07
-0.000701251 0.0013159 -2.42444e-05
4.29224e-07 -2.42444e-05 0.00132784
-0.00687965 -1.04388e-05 0.0001943
-1.04388e-05 0.00305525 -8.80314e-06
0.0001943 -8.80314e-06 -0.000678467
0.00143856 -0.00101194 -2.26425e-05
-0.00101194 -2.33635e-05 3.996e-06
-2.26425e-05 3.996e-06 -0.000423119
0.00320604 -0.00150053 4.59711e-05
-0.00150053 0.000334996 4.093e-07
4.59711e-05 4.093e-07 -0.000357691
0.00130965 -0.00030182 0.000378215
-0.00030182 0.00247888 -5.03249e-05
0.000378215 -5.03249e-05 0.00131043
0.0128595 -0.000909019 -0.00016934
-0.000909019 0.00296422 7.57924e-05
-0.00016934 7.57924e-05 0.00140263
0.00117929 -0.000702991 -3.28615e-05
-0.000702991 -0.000193501 -1.94583e-06
-3.28615e-05 -1.94583e-06 -0.000394141
0.00908491 4.3398e-05 -9.45238e-05
4.3398e-05 0.000584064 3.5407e-05
-9.45238e-05 3.5407e-05 -0.00051721
0.00519438 -0.000996912 8.69711e-05
-0.000996912 -0.000115688 8.17249e-06
8.69711e-05 8.17249e-06 -0.000157138
0.00392979 -0.00070095 6.41848e-05
-0.00070095 0.00110885 -1.67033e-05
6.41848e-05 -1.67033e-05 0.000754313
0.00291404 -0.000367045 -7.57178e-05
-0.000367045 -0.000538073 7.12474e-06
-7.57178e-05 7.12474e-06 -0.000340399
-0.00259584 -0.000167698 -1.59117e-05
-0.000167698 -0.00216517 5.75124e-06
-1.59117e-05 5.75124e-06 -0.00214492
0.00159178 -0.000528968 -1.94938e-06
-0.000528968 -0.000147304 -2.42645e-07
-1.94938e-06 -2.42645e-07 -0.000184619
0.00266097 -0.000478676 2.1316e-05
-0.000478676 0.000277875 -9.64957e-06
2.1316e-05 -9.64957e-06 0.000309721
0.000959812 -0.000524583 -3.46244e-06
-0.000524583 -0.000266722 5.22294e-06
-3.46244e-06 5.22294e-06 -0.000493097
0.00182575 -0.000509681 -2.08736e-06
-0.000509681 -2.12853e-05 8.0363e-07
-2.08736e-06 8.0363e-07 -0.000167309
0.00210136 -0.000409658 3.13364e-06
-0.000409658 1.84099e-05 5.0481e-07
3.13364e-06 5.0481e-07 -3.26774e-05
0.00204522 -0.000525534 -6.00716e-06
-0.000525534 0.000221292 7.60692e-06
-6.00716e-06 7.60692e-06 -5.2455e-06
0.00192116 -0.000396908 3.23525e-07
-0.000396908 6.65318e-05 1.69571e-06
3.23525e-07 1.69571e-06 -6.0251e-05
0.0019507 -0.000363913 -1.99251e-07
-0.000363913 9.20184e-05 1.91699e-06
-1.99251e-07 1.91699e-06 2.68461e-06
0.00171413 -0.000374902 3.33413e-06
-0.000374902 7.11639e-05 5.87371e-06
3.33413e-06 5.87371e-06 -0.000100122
0.00179531 -0.000332455 -2.01486e-07
-0.000332455 6.04304e-05 1.57337e-06
-2.01486e-07 1.57337e-06 -6.06072e-05
0.00194935 -0.000340964 -1.31994e-06
-0.000340964 0.000158095 8.03543e-07
-1.31994e-06 8.03543e-07 4.6759e-05
0.00188469 -0.000310433 -4.11148e-06
-0.000310433 0.000175427 3.47842e-06
-4.11148e-06 3.47842e-06 5.62856e-05
0.00192936 -0.000318624 8.27672e-07
-0.000318624 0.000232174 -3.00391e-06
8.27672e-07 -3.00391e-06 9.81188e-05
0.0018394 -0.000320136 3.35958e-06
-0.000320136 0.000139697 8.14207e-06
3.35958e-06 8.14207e-06 -1.27857e-06
0.00180482 -0.000334327 3.70371e-07
-0.000334327 0.000162781 -8.95094e-07
3.70371e-07 -8.95094e-07 -3.25843e-06
0.00172059 -0.000337862 -1.80283e-06
-0.000337862 0.000138624 -3.50453e-06
-1.80283e-06 -3.50453e-06 -4.58858e-05
0.0016697 -0.000361437 -4.8052e-06
-0.000361437 0.000222888 -1.65027e-06
-4.8052e-06 -1.65027e-06 -3.33228e-06
0.00176816 -0.000398859 1.26576e-07
-0.000398859 0.000208868 -1.82338e-07
1.26576e-07 -1.82338e-07 -1.91487e-05
0.00187804 -0.000414028 5.49799e-06
-0.000414028 0.000239136 3.00219e-06
5.49799e-06 3.00219e-06 1.40174e-05
0.00122053 -0.000274441 -7.51175e-06
-0.000274441 0.000131934 3.19427e-06
-7.51175e-06 3.19427e-06 -8.22671e-05
0.00145319 -0.000371684 -1.22649e-06
-0.000371684 0.000193656 2.50931e-07
-1.22649e-06 2.50931e-07 -5.81181e-05
0.00150604 -0.000431561 2.80468e-06
-0.000431561 0.000135927 1.15203e-06
2.80468e-06 1.15203e-06 -0.000133983
0.000781493 -0.000179366 -8.46684e-06
-0.000179366 1.55753e-05 6.21387e-06
-8.46684e-06 6.21387e-06 -0.000158719
0.00113799 -0.000264818 4.16746e-07
-0.000264818 0.000146324 -5.96394e-08
4.16746e-07 -5.96394e-08 -6.90962e-05
0.00119093 -0.000330149 3.69972e-06
-0.000330149 0.000118547 -9.57533e-07
3.69972e-06 -9.57533e-07 -0.000129604
0.000409073 -0.000114755 -1.88621e-05
-0.000114755 -0.000125463 1.40159e-05
-1.88621e-05 1.40159e-05 -0.000200987
0.000782613 -0.000185316 -3.00447e-07
-0.000185316 9.17029e-05 4.56711e-07
-3.00447e-07 4.56711e-07 -8.68875e-05
0.00103243 -0.000238406 3.53906e-06
-0.000238406 0.00016166 -1.42007e-06
3.53906e-06 -1.42007e-06 -4.8602e-05
0.00403314 0.000184937 -8.84832e-05
0.000184937 0.00213449 3.85949e-06
-8.84832e-05 3.85949e-06 0.00211723
0.000543864 -5.99003e-05 1.25004e-06
-5.99003e-05 -1.62476e-05 -4.01386e-07
1.25004e-06 -4.01386e-07 -8.1111e-05
0.000989347 -0.000174996 4.67988e-06
-0.000174996 0.000274426 -4.74411e-06
4.67988e-06 -4.74411e-06 9.46535e-05
0.0034675 0.000150626 1.08773e-05
0.000150626 0.00178458 2.73186e-07
1.08773e-05 2.73186e-07 0.00177686
0.000729128 -1.04418e-05 8.46461e-06
-1.04418e-05 0.000106044 -1.02698e-05
8.46461e-06 -1.02698e-05 5.61084e-05
0.00305203 0.000127696 7.10424e-05
0.000127696 0.00152581 -2.38625e-06
7.10424e-05 -2.38625e-06 0.00152478
0.000558032 0.000215659 4.77395e-06
0.000215659 -9.9432e-05 -4.40445e-06
4.77395e-06 -4.40445e-06 -0.000312396
0.000861686 0.000178985 1.58797e-06
0.000178985 0.000169119 -3.22012e-07
1.58797e-06 -3.22012e-07 1.29607e-05
0.000234027 7.32999e-05 1.99786e-06
7.32999e-05 -0.000182579 -9.43568e-07
1.99786e-06 -9.43568e-07 -0.000327206
5.16998e-05 3.61572e-05 -1.32924e-06
3.61572e-05 -0.000290315 -2.09756e-06
-1.32924e-06 -2.09756e-06 -0.000412955
0.000471548 3.84457e-05 -1.60645e-07
3.84457e-05 -3.24466e-05 9.54893e-07
-1.60645e-07 9.54893e-07 -0.000167493
0.000711612 3.75985e-05 -1.39006e-06
3.75985e-05 9.69562e-05 -5.02148e-06
-1.39006e-06 -5.02148e-06 -1.03122e-05
0.000545841 2.71535e-05 -6.0345e-07
2.71535e-05 9.35019e-06 2.51147e-06
-6.0345e-07 2.51147e-06 -0.00011341
0.000598 1.396e-05 3.02815e-07
1.396e-05 3.55506e-05 -2.96266e-07
3.02815e-07 -2.96266e-07 -6.05124e-05
0.000582991 -1.50034e-05 -3.50366e-06
-1.50034e-05 1.41425e-05 -8.76639e-06
-3.50366e-06 -8.76639e-06 -2.56979e-05
0.00291581 -0.00011234 -5.89059e-05
-0.00011234 0.00143239 -3.58137e-06
-5.89059e-05 -3.58137e-06 0.00143442
0.000493981 -1.59995e-05 4.26435e-07
-1.59995e-05 -4.36998e-05 -9.37169e-08
4.26435e-07 -9.37169e-08 -7.76313e-05
0.000558746 1.39349e-05 5.82604e-07
1.39349e-05 9.76907e-06 4.2342e-06
5.82604e-07 4.2342e-06 -7.77933e-05
0.00274841 -9.93257e-05 -6.08148e-06
-9.93257e-05 0.00132243 4.77578e-07
-6.08148e-06 4.77578e-07 0.0013273
0.000451088 -2.87298e-05 -4.112e-07
-2.87298e-05 -7.30153e-05 6.40144e-06
-4.112e-07 6.40144e-06 -0.000102546
0.00257441 -8.29233e-05 3.26541e-05
-8.29233e-05 0.00120963 4.29563e-06
3.26541e-05 4.29563e-06 0.00121806
0.0122702 0.000549784 0.000261811
0.000549784 0.00253749 7.5072e-05
0.000261811 7.5072e-05 0.00167913
-0.00311389 -0.00127317 -0.000196801
-0.00127317 -0.00270854 -3.19331e-05
-0.000196801 -3.19331e-05 -0.00326668
-0.00657035 0.000632297 -8.71668e-05
0.000632297 0.00148659 -5.77739e-05
-8.71668e-05 -5.77739e-05 -0.00273661
0.000448344 2.96584e-05 1.21454e-05
2.96584e-05 -5.92641e-05 1.36382e-06
1.21454e-05 1.36382e-06 -0.000225165
0.00110356 0.000231393 -7.26999e-06
0.000231393 0.000354184 1.70142e-06
-7.26999e-06 1.70142e-06 0.000184202
0.00137414 0.000261165 -1.99527e-06
0.000261165 0.000537997 -1.71012e-06
-1.99527e-06 -1.71012e-06 0.000327703
0.00153994 0.00033947 -3.93396e-06
0.00033947 0.000515333 1.01891e-06
-3.93396e-06 1.01891e-06 0.000266913
0.000740054 0.00030773 1.32036e-05
0.00030773 -0.00011431 4.03661e-06
1.32036e-05 4.03661e-06 -0.000378663
-2.94437e-05 0.000203212 5.26588e-06
0.000203212 -0.000374224 -1.73851e-06
5.26588e-06 -1.73851e-06 -0.000584732
0.000152568 0.000163778 -5.27693e-06
0.000163778 -0.000134847 -2.66474e-06
-5.27693e-06 -2.66474e-06 -0.000351244
0.000275533 0.000262197 2.19676e-06
0.000262197 -0.000221942 1.62041e-06
2.19676e-06 1.62041e-06 -0.000447037
0.00139403 0.000393606 -7.40551e-07
0.000393606 0.000362599 1.29569e-06
-7.40551e-07 1.29569e-06 0.000209812
0.000507096 0.000366281 7.11913e-06
0.000366281 -0.000247474 2.57084e-06
7.11913e-06 2.57084e-06 -0.000453684
0.00275688 0.000647325 9.53033e-07
0.000647325 0.000787386 -1.26879e-06
9.53033e-07 -1.26879e-06 0.000598067
0.00194073 0.000640139 2.76819e-06
0.000640139 0.000299852 6.00602e-06
2.76819e-06 6.00602e-06 9.46487e-05
0.00124126 0.000546587 3.86735e-06
0.000546587 2.13428e-06 -4.17493e-06
3.86735e-06 -4.17493e-06 -0.000186107
0.000475697 0.000294266 -4.00284e-06
0.000294266 -5.67984e-05 -1.38966e-06
-4.00284e-06 -1.38966e-06 -0.000202499
0.0059093 0.00087733 -4.8862e-06
0.00087733 0.00014752 1.007e-05
-4.8862e-06 1.007e-05 0.000617342
0.0105658 0.00110344 0.000138018
0.00110344 0.00175705 6.7134e-05
0.000138018 6.7134e-05 4.28963e-05
0.00705918 -0.00195387 0.000155617
-0.00195387 0.00371917 -5.09901e-05
0.000155617 -5.09901e-05 0.00253776
0.00378835 0.00201146 0.000380313
0.00201146 -0.000270616 0.000203238
0.000380313 0.000203238 -0.00405013
0.000554021 0.000674298 -6.12393e-05
0.000674298 1.87811e-05 -7.53054e-06
-6.12393e-05 -7.53054e-06 0.000279327
0.00340272 0.00142483 -9.63406e-05
0.00142483 -0.000168844 -2.99757e-05
-9.63406e-05 -2.99757e-05 -0.000232925
0.00460669 0.0012062 5.08573e-05
0.0012062 0.000905218 1.78271e-05
5.08573e-05 1.78271e-05 0.000800179
0.00334511 0.000920877 1.20447e-05
0.000920877 0.00092465 3.79801e-06
1.20447e-05 3.79801e-06 0.000725553
0.000691108 0.000494776 -1.44716e-05
0.000494776 -1.43739e-05 1.52353e-05
-1.44716e-05 1.52353e-05 -0.000239725
0.00487521 0.00133288 -0.000144551
0.00133288 0.00108408 -1.75725e-05
-0.000144551 -1.75725e-05 0.00084312
0.0030458 -0.000265981 -4.06745e-05
-0.000265981 0.000375902 6.9234e-06
-4.06745e-05 6.9234e-06 0.000326927
0.0102669 -0.000337992 -1.57069e-05
-0.000337992 0.00229608 5.43076e-06
-1.57069e-05 5.43076e-06 0.00176162
-0.0103628 -0.00102187 0.000390726
-0.00102187 -0.00561368 -4.2854e-06
0.000390726 -4.2854e-06 -0.0053276
0.000253004 -0.000644186 -4.96895e-05
-0.000644186 -0.000738501 1.17532e-05
-4.96895e-05 1.17532e-05 -0.000885995
0.00755063 -0.00131717 8.90235e-05
-0.00131717 0.000856293 4.64786e-05
8.90235e-05 4.64786e-05 0.000968139
0.00172582 -0.00032451 -5.89765e-05
-0.00032451 -0.00233955 6.02024e-05
-5.89765e-05 6.02024e-05 -0.00410273
0.00167361 -0.000506608 1.39935e-05
-0.000506608 -0.000176894 2.05731e-06
1.39935e-05 2.05731e-06 -0.000311193
0.00343754 -0.000245884 -1.25878e-05
-0.000245884 -0.000282098 3.91616e-06
-1.25878e-05 3.91616e-06 -0.00017934
0.00451064 -0.000497538 2.99862e-05
-0.000497538 0.00101622 -1.48575e-05
2.99862e-05 -1.48575e-05 0.00114073
0.00379861 -0.000139419 7.32958e-05
-0.000139419 0.000860914 2.58934e-06
7.32958e-05 2.58934e-06 0.000812052
-0.000812176 -0.000378992 -7.848e-06
-0.000378992 -0.00144673 7.24169e-06
-7.848e-06 7.24169e-06 -0.00142674
0.00182235 -0.000431721 -7.43339e-07
-0.000431721 -0.000177186 4.12454e-07
-7.43339e-07 4.12454e-07 -0.000121942
0.00190885 -0.000310786 1.63596e-05
-0.000310786 -0.000218291 -3.54579e-06
1.63596e-05 -3.54579e-06 -7.48466e-05
0.00152511 -0.000480094 -1.17617e-06
-0.000480094 -0.000170728 3.76463e-06
-1.17617e-06 3.76463e-06 -0.000314122
0.00204931 -0.000409269 1.68636e-06
-0.000409269 -7.23852e-06 6.95393e-07
1.68636e-06 6.95393e-07 -5.92604e-05
0.00199207 -0.00034255 1.16412e-06
-0.00034255 3.34488e-05 8.36903e-07
1.16412e-06 8.36903e-07 1.17506e-05
0.00190536 -0.000394543 1.67801e-06
-0.000394543 5.69672e-05 3.82994e-06
1.67801e-06 3.82994e-06 -6.69849e-05
0.00192125 -0.000357235 5.59929e-07
-0.000357235 8.47218e-05 3.55306e-07
5.59929e-07 3.55306e-07 -3.17696e-06
0.00196192 -0.000322938 -2.88351e-06
-0.000322938 0.000109079 1.48165e-06
-2.88351e-06 1.48165e-06 2.76558e-05
0.00181384 -0.000336134 4.42459e-06
-0.000336134 6.95611e-05 3.29531e-06
4.42459e-06 3.29531e-06 -5.25628e-05
0.00186423 -0.000336304 1.152e-07
-0.000336304 0.000119157 2.62093e-07
1.152e-07 2.62093e-07 7.89274e-06
0.00175298 -0.000309687 2.21187e-06
-0.000309687 8.96035e-05 -1.22974e-06
2.21187e-06 -1.22974e-06 -2.68762e-05
0.00175014 -0.000305811 -1.42748e-06
-0.000305811 8.8528e-05 5.99095e-06
-1.42748e-06 5.99095e-06 -2.74895e-05
0.00192747 -0.000314809 -2.22437e-06
-0.000314809 0.000226414 2.89737e-07
-2.22437e-06 2.89737e-07 9.61158e-05
0.0018796 -0.000315419 4.57939e-07
-0.000315419 0.000219555 -2.052e-06
4.57939e-07 -2.052e-06 6.22781e-05
0.00180823 -0.000334127 3.20887e-06
-0.000334127 0.00016313 3.78085e-06
3.20887e-06 3.78085e-06 -3.06216e-06
0.00177271 -0.000342289 3.65209e-07
-0.000342289 0.00017092 -5.29553e-07
3.65209e-07 -5.29553e-07 -1.4983e-05
0.00177254 -0.000323585 -1.67497e-06
-0.000323585 0.000234977 -1.91755e-06
-1.67497e-06 -1.91755e-06 3.90353e-05
0.0012796 -0.000272981 -8.944e-06
-0.000272981 0.000100579 1.81243e-06
-8.944e-06 1.81243e-06 -0.000105856
0.00167055 -0.000362922 -9.88291e-07
-0.000362922 0.000226646 -4.26807e-07
-9.88291e-07 -4.26807e-07 -1.65587e-06
0.00181504 -0.000403724 4.06895e-06
-0.000403724 0.000238464 1.35261e-06
4.06895e-06 1.35261e-06 8.80717e-06
0.00084204 -0.000186945 -1.1e-05
-0.000186945 -6.86759e-06 6.46178e-06
-1.1e-05 6.46178e-06 -0.000177428
0.00119826 -0.000274902 2.78702e-07
-0.000274902 0.000113155 3.51603e-07
2.78702e-07 3.51603e-07 -0.000101486
0.0013221 -0.000357436 2.57644e-06
-0.000357436 0.000120198 1.33354e-07
2.57644e-06 1.33354e-07 -0.000129748
0.000436791 -0.000137767 -1.98471e-05
-0.000137767 -0.000131406 1.52142e-05
-1.98471e-05 1.52142e-05 -0.000217987
0.000833913 -0.000185489 3.67792e-07
-0.000185489 4.99304e-05 2.21537e-07
3.67792e-07 2.21537e-07 -0.000125819
0.0010589 -0.000260251 6.56896e-06
-0.000260251 9.60121e-05 -2.65638e-06
6.56896e-06 -2.65638e-06 -0.000119607
0.00492026 0.00019254 -0.000134813
0.00019254 0.0026691 7.73521e-06
-0.000134813 7.73521e-06 0.00264843
0.000535731 -0.000119165 -1.17557e-06
-0.000119165 -4.9554e-05 -3.07624e-07
-1.17557e-06 -3.07624e-07 -0.000129595
0.000742323 -0.000193968 7.27822e-06
-0.000193968 6.77866e-05 -5.17954e-06
7.27822e-06 -5.17954e-06 -0.000110951
0.00431001 0.000151669 1.22889e-05
0.000151669 0.00229351 7.50878e-07
1.22889e-05 7.50878e-07 0.00228391
0.000741666 -7.17673e-05 1.52826e-05
-7.17673e-05 9.89001e-05 -1.23114e-05
1.52826e-05 -1.23114e-05 3.24899e-05
0.00368307 0.00011102 0.000120392
0.00011102 0.00190628 -5.94204e-06
0.000120392 -5.94204e-06 0.00190797
0.000841667 0.000272979 -3.5247e-06
0.000272979 -2.77215e-05 -3.42165e-06
-3.5247e-06 -3.42165e-06 -0.000269086
0.00144224 0.00029904 1.30115e-06
0.00029904 0.000436784 7.88136e-07
1.30115e-06 7.88136e-07 0.000209042
0.000676695 0.000181073 7.80624e-07
0.000181073 2.31066e-05 -6.19721e-06
7.80624e-07 -6.19721e-06 -0.000170037
0.000685061 0.000184965 -3.63906e-06
0.000184965 7.74084e-05 -7.46488e-08
-3.63906e-06 -7.46488e-08 -8.60179e-05
0.000266859 8.19361e-05 8.27779e-07
8.19361e-05 -0.000166052 -7.95269e-07
8.27779e-07 -7.95269e-07 -0.000315342
0.000828976 0.000124459 -2.50139e-06
0.000124459 0.000175364 -5.47719e-06
-2.50139e-06 -5.47719e-06 3.60176e-05
0.000305883 1.58077e-05 -3.74616e-07
1.58077e-05 -0.000138324 1.23382e-06
-3.74616e-07 1.23382e-06 -0.000267241
0.000637208 3.4395e-05 -1.38312e-07
3.4395e-05 5.49157e-05 -2.22439e-07
-1.38312e-07 -2.22439e-07 -5.28809e-05
0.000596061 -7.58374e-06 -4.92005e-06
-7.58374e-06 2.50954e-05 -9.91012e-06
-4.92005e-06 -9.91012e-06 -2.09933e-05
0.000523511 9.21646e-06 5.708e-07
9.21646e-06 -7.94753e-06 5.12894e-06
5.708e-07 5.12894e-06 -0.00010335
0.000499351 -1.2065e-05 3.12578e-07
-1.2065e-05 -3.49608e-05 -1.43463e-07
3.12578e-07 -1.43463e-07 -7.42428e-05
0.00310469 -0.00012462 -7.27038e-05
-0.00012462 0.00155546 -3.27231e-06
-7.27038e-05 -3.27231e-06 0.00155446
0.00287591 -0.000114341 -5.18899e-06
-0.000114341 0.00140794 4.98129e-07
-5.18899e-06 4.98129e-07 0.00140924
0.000454917 -4.60473e-06 3.46908e-06
-4.60473e-06 -6.76522e-05 7.51316e-06
3.46908e-06 7.51316e-06 -0.00010065
0.00269874 -9.87745e-05 4.00871e-05
-9.87745e-05 0.00129207 4.02713e-06
4.00871e-05 4.02713e-06 0.00129692
0.00381641 7.31888e-05 5.1422e-05
7.31888e-05 -0.000409927 1.62126e-05
5.1422e-05 1.62126e-05 6.34424e-05
0.00350166 -0.00064815 8.52801e-05
-0.00064815 -0.00264465 4.0329e-05
8.52801e-05 4.0329e-05 -0.00375745
0.00855928 -0.00133877 -0.00011591
-0.00133877 0.00315968 -6.55967e-05
-0.00011591 -6.55967e-05 0.00332176
0.00112389 0.000381672 7.39723e-06
0.000381672 -2.09054e-05 5.11663e-06
7.39723e-06 5.11663e-06 -0.000285015
0.00198425 0.000320638 -1.56098e-06
0.000320638 0.000882883 2.60387e-06
-1.56098e-06 2.60387e-06 0.000661955
0.00169504 0.00035192 -6.39643e-06
0.00035192 0.000622786 6.87206e-06
-6.39643e-06 6.87206e-06 0.000374073
0.00081576 0.000294771 2.10211e-06
0.000294771 0.000112909 2.46169e-06
2.10211e-06 2.46169e-06 -0.000117678
0.00121104 0.000353455 -1.6906e-06
0.000353455 0.000181429 -6.59659e-07
-1.6906e-06 -6.59659e-07 -9.51822e-05
0.00117976 0.000429003 1.14834e-05
0.000429003 0.000117688 8.02712e-06
1.14834e-05 8.02712e-06 -0.000134148
0.00112792 0.000355244 -1.2311e-05
0.000355244 0.000250423 -4.90281e-06
-1.2311e-05 -4.90281e-06 -2.99032e-06
0.000781745 0.000357731 4.12415e-06
0.000357731 2.9993e-05 2.07116e-06
4.12415e-06 2.07116e-06 -0.000130024
0.00123095 0.000442033 1.89428e-06
0.000442033 0.0001505 -1.28463e-06
1.89428e-06 -1.28463e-06 -6.84873e-05
0.00202243 0.000580808 2.74112e-06
0.000580808 0.000372926 5.6155e-06
2.74112e-06 5.6155e-06 0.000205107
0.00169479 0.000584898 7.41347e-06
0.000584898 0.00012609 3.86185e-07
7.41347e-06 3.86185e-07 -9.16986e-05
0.00173358 0.000547781 1.10154e-05
0.000547781 0.000164847 5.32181e-06
1.10154e-05 5.32181e-06 1.31571e-05
0.00119125 0.000574596 -3.49148e-06
0.000574596 -9.99773e-05 -2.62318e-06
-3.49148e-06 -2.62318e-06 -0.000292217
0.00058702 0.000478638 -5.30913e-06
0.000478638 -0.000336876 -2.31609e-06
-5.30913e-06 -2.31609e-06 -0.000497682
0.00162658 0.000481946 3.60962e-05
0.000481946 -0.000342743 3.55086e-05
3.60962e-05 3.55086e-05 -0.000251221
0.00546715 0.000959615 -6.33999e-05
0.000959615 -0.000381923 -1.75353e-05
-6.33999e-05 -1.75353e-05 0.000102059
0.00273496 0.000705 0.000338505
0.000705 -0.00250769 5.14945e-05
0.000338505 5.14945e-05 -0.0043895
0.000208157 0.00103397 -4.63038e-05
0.00103397 -0.00145413 -2.58042e-05
-4.63038e-05 -2.58042e-05 -0.00139338
0.00318216 0.000970202 -2.86445e-05
0.000970202 0.00048083 -4.61396e-06
-2.86445e-05 -4.61396e-06 0.000382266
0.00289942 0.000876808 -8.18079e-05
0.000876808 0.000679732 -2.51645e-05
-8.18079e-05 -2.51645e-05 0.000477508
0.00246459 -0.000217543 -2.66331e-05
-0.000217543 -5.51182e-05 -1.06814e-05
-2.66331e-05 -1.06814e-05 1.72325e-05
0.000632112 -0.000112837 2.68308e-05
-0.000112837 -0.0002779 7.63997e-06
2.68308e-05 7.63997e-06 -0.000283167
0.00136679 0.000800205 0.000114728
0.000800205 -0.00368618 -1.89625e-05
0.000114728 -1.89625e-05 -0.00400016
-0.00044077 -0.000330911 -2.44591e-05
-0.000330911 -0.00135186 3.58207e-05
-2.44591e-05 3.58207e-05 -0.00127239
0.00446395 -0.000224478 -6.38923e-05
-0.000224478 0.000271279 4.08828e-05
-6.38923e-05 4.08828e-05 4.54217e-05
0.00231808 -0.000363868 -1.98703e-05
-0.000363868 -0.000121045 7.28795e-06
-1.98703e-05 7.28795e-06 4.47472e-05
0.00341284 -0.000187888 8.94106e-07
-0.000187888 0.000589532 -4.00175e-06
8.94106e-07 -4.00175e-06 0.000548388
0.00168535 -0.000206652 3.68406e-05
-0.000206652 -0.000407872 -3.17182e-06
3.68406e-05 -3.17182e-06 -0.000207223
0.00332228 -5.62278e-05 2.90844e-05
-5.62278e-05 0.000989046 5.76094e-07
2.90844e-05 5.76094e-07 0.000949933
0.00108293 -0.000386416 -2.003e-05
-0.000386416 -0.000566845 8.7765e-06
-2.003e-05 8.7765e-06 -0.000495099
0.00186758 -0.000321438 7.89801e-09
-0.000321438 -0.000259735 2.12833e-06
7.89801e-09 2.12833e-06 -0.000127785
0.00207437 -0.000304081 2.77389e-06
-0.000304081 -8.46467e-05 -1.06282e-06
2.77389e-06 -1.06282e-06 1.19957e-05
0.00197034 -0.000404391 -1.3806e-06
-0.000404391 -4.30035e-05 2.23923e-06
-1.3806e-06 2.23923e-06 -9.5387e-05
0.00199078 -0.000345582 3.62081e-07
-0.000345582 3.39074e-05 -4.31964e-08
3.62081e-07 -4.31964e-08 9.30289e-06
0.00200185 -0.000297768 -1.72396e-06
-0.000297768 6.34482e-05 4.10844e-07
-1.72396e-06 4.10844e-07 2.02593e-05
0.00190044 -0.000351177 2.11249e-08
-0.000351177 8.28333e-05 1.2506e-07
2.11249e-08 1.2506e-07 -3.82035e-06
0.00190709 -0.000326592 -6.39765e-07
-0.000326592 8.31621e-05 4.90336e-08
-6.39765e-07 4.90336e-08 -1.3671e-06
0.00186468 -0.000288021 -6.79564e-07
-0.000288021 0.000111681 7.21421e-07
-6.79564e-07 7.21421e-07 1.12276e-05
0.00174794 -0.00033 8.41976e-08
-0.00033 6.21806e-05 5.07129e-07
8.41976e-08 5.07129e-07 -4.89835e-05
0.0017726 -0.000311191 8.94669e-07
-0.000311191 9.74434e-05 -7.30585e-07
8.94669e-07 -7.30585e-07 -1.94993e-05
0.00179729 -0.000297372 1.6863e-06
-0.000297372 0.000132261 -2.05074e-06
1.6863e-06 -2.05074e-06 -3.28409e-06
0.0019263 -0.000310881 -4.0557e-06
-0.000310881 0.000221631 4.72873e-06
-4.0557e-06 4.72873e-06 9.51079e-05
0.00193352 -0.00031613 -1.58018e-06
-0.00031613 0.000247929 4.44151e-07
-1.58018e-06 4.44151e-07 9.44051e-05
0.00179117 -0.000296318 -1.10971e-06
-0.000296318 0.000214794 -1.5147e-06
-1.10971e-06 -1.5147e-06 3.88493e-05
0.0018269 -0.000347208 2.50261e-06
-0.000347208 0.000204295 2.18739e-06
2.50261e-06 2.18739e-06 1.68833e-05
0.001766 -0.000325413 8.19044e-07
-0.000325413 0.000231799 -5.85308e-07
8.19044e-07 -5.85308e-07 3.50142e-05
0.00139036 -0.00025293 -7.01569e-06
-0.00025293 0.000120324 1.46872e-06
-7.01569e-06 1.46872e-06 -7.13438e-05
0.000889314 -0.000181093 -1.26629e-05
-0.000181093 -1.61105e-05 6.27769e-06
-1.26629e-05 6.27769e-06 -0.000179729
0.00126366 -0.000271073 -1.28982e-06
-0.000271073 9.38673e-05 1.61315e-07
-1.28982e-06 1.61315e-07 -0.000112978
0.00167492 -0.0003649 2.9028e-06
-0.0003649 0.000232426 2.40623e-07
2.9028e-06 2.40623e-07 1.92526e-06
0.000511578 -0.000189005 -2.21991e-05
-0.000189005 -9.03914e-05 1.58786e-05
-2.21991e-05 1.58786e-05 -0.000194121
0.000865285 -0.000190115 4.72063e-07
-0.000190115 7.35846e-06 2.00341e-07
4.72063e-07 2.00341e-07 -0.000164072
0.00121282 -0.000278292 7.01035e-06
-0.000278292 0.000116782 -1.96062e-06
7.01035e-06 -1.96062e-06 -9.8738e-05
0.0054741 0.000160082 -0.000169948
0.000160082 0.00298687 9.94364e-06
-0.000169948 9.94364e-06 0.00297215
0.000541671 -0.000178789 -1.32255e-06
-0.000178789 -6.44407e-05 2.07732e-07
-1.32255e-06 2.07732e-07 -0.000159384
0.00082436 -0.000190421 9.84704e-06
-0.000190421 4.73526e-05 -6.13849e-06
9.84704e-06 -6.13849e-06 -0.000129952
0.00511069 0.000151111 6.3186e-06
0.000151111 0.00277137 7.93316e-07
6.3186e-06 7.93316e-07 0.00275887
0.000692877 -0.00013837 1.99514e-05
-0.00013837 4.3744e-05 -1.4893e-05
1.99514e-05 -1.4893e-05 -4.14752e-05
0.00459528 0.00011565 0.000157723
0.00011565 0.00245568 -1.053e-05
0.000157723 -1.053e-05 0.00245233
0.00118609 0.000326951 -2.70841e-06
0.000326951 8.92251e-05 9.66158e-07
-2.70841e-06 9.66158e-07 -0.000160505
0.00127464 0.000314756 -2.40468e-06
0.000314756 0.000231877 -7.62946e-07
-2.40468e-06 -7.62946e-07 -1.70691e-05
0.00131325 0.000270821 -5.46301e-06
0.000270821 0.000300604 -2.07208e-06
-5.46301e-06 -2.07208e-06 7.88923e-05
0.00245089 0.000393979 -2.20648e-06
0.000393979 0.0010481 3.2599e-06
-2.20648e-06 3.2599e-06 0.00080354
0.000916525 0.000201805 -1.71449e-06
0.000201805 0.00016784 -2.38856e-06
-1.71449e-06 -2.38856e-06 -2.96574e-05
0.000949787 0.000183597 -4.51874e-06
0.000183597 0.000237854 -6.21467e-06
-4.51874e-06 -6.21467e-06 6.71591e-05
0.00041436 9.53164e-05 -1.31433e-06
9.53164e-05 -8.26067e-05 -2.01164e-07
-1.31433e-06 -2.01164e-07 -0.000236785
0.0006469 6.89462e-05 -5.19692e-07
6.89462e-05 5.65172e-05 -3.33703e-07
-5.19692e-07 -3.33703e-07 -7.05252e-05
0.000639319 1.46695e-05 -8.03815e-06
1.46695e-05 4.73559e-05 -1.12408e-05
-8.03815e-06 -1.12408e-05 -7.01287e-06
0.000499313 1.20082e-05 7.12491e-07
1.20082e-05 -2.59008e-05 5.69453e-06
7.12491e-07 5.69453e-06 -0.000132224
0.000499499 -1.12976e-05 3.5194e-07
-1.12976e-05 -3.06992e-05 -1.79849e-07
3.5194e-07 -1.79849e-07 -7.65301e-05
0.00339508 -0.000133616 -9.19295e-05
-0.000133616 0.00173902 -3.30641e-06
-9.19295e-05 -3.30641e-06 0.00173558
0.000419943 -9.65826e-06 3.76559e-06
-9.65826e-06 -8.16577e-05 8.53033e-06
3.76559e-06 8.53033e-06 -0.000120411
0.00306987 -0.000130336 -4.46846e-06
-0.000130336 0.00153481 4.69962e-07
-4.46846e-06 4.69962e-07 0.00153207
0.002874 -0.000115482 4.95752e-05
-0.000115482 0.00140639 3.73502e-06
4.95752e-05 3.73502e-06 0.00140728
0.000439838 6.95012e-05 1.45593e-05
6.95012e-05 -0.00112261 1.22586e-05
1.45593e-05 1.22586e-05 -0.000927976
0.00499749 4.00095e-05 5.62239e-05
4.00095e-05 0.00018624 1.60033e-06
5.62239e-05 1.60033e-06 0.000565066
0.0116344 0.000720255 -7.02244e-05
0.000720255 0.00298905 -1.8266e-05
-7.02244e-05 -1.8266e-05 0.00208678
0.00169275 0.000491329 4.2358e-06
0.000491329 0.000271519 2.92267e-06
4.2358e-06 2.92267e-06 1.12347e-05
0.00183848 0.000484943 2.83094e-06
0.000484943 0.000265909 2.13694e-06
2.83094e-06 2.13694e-06 2.15842e-05
0.00120292 0.000395193 9.46203e-07
0.000395193 3.61201e-05 -2.42042e-06
9.46203e-07 -2.42042e-06 -0.000228865
0.0014218 0.000362662 -3.82529e-06
0.000362662 0.000456685 3.43437e-06
-3.82529e-06 3.43437e-06 0.000211333
0.0017133 0.000400759 -2.578e-06
0.000400759 0.000496241 -1.75362e-06
-2.578e-06 -1.75362e-06 0.000207303
0.00153187 0.000463939 7.39002e-06
0.000463939 0.00030056 1.39603e-06
7.39002e-06 1.39603e-06 4.61403e-05
0.00167121 0.000543793 -9.62256e-08
0.000543793 8.87158e-05 -1.75824e-06
-9.62256e-08 -1.75824e-06 -0.000140398
0.00194416 0.000516604 -1.01506e-05
0.000516604 0.000536559 2.13872e-07
-1.01506e-05 2.13872e-07 0.00030549
0.00137276 0.000522752 6.32516e-06
0.000522752 3.28948e-06 1.456e-05
6.32516e-06 1.456e-05 -0.000145487
0.00225756 0.000631954 -2.66606e-06
0.000631954 0.000437232 1.25913e-06
-2.66606e-06 1.25913e-06 0.000214574
0.00205451 0.000552605 -8.23064e-06
0.000552605 0.000202097 -7.31719e-07
-8.23064e-06 -7.31719e-07 2.15113e-05
0.000737396 0.000283339 1.7983e-05
0.000283339 -0.000496969 9.0167e-06
1.7983e-05 9.0167e-06 -0.000521611
0.00095137 0.000484684 1.0947e-05
0.000484684 -0.000233677 7.67906e-08
1.0947e-05 7.67906e-08 -0.000379106
0.00121556 0.000568991 -1.74999e-05
0.000568991 -9.33291e-05 -9.49813e-06
-1.74999e-05 -9.49813e-06 -0.000282209
0.00221968 0.000507073 4.2742e-06
0.000507073 -3.49321e-05 8.01751e-06
4.2742e-06 8.01751e-06 -2.49222e-06
0.00537486 0.00063646 1.58963e-05
0.00063646 -0.000345466 -2.28355e-05
1.58963e-05 -2.28355e-05 -0.000252857
0.00318984 0.000840146 -8.16363e-07
0.000840146 0.000773987 -3.35796e-05
-8.16363e-07 -3.35796e-05 0.000699907
0.00151421 -4.92731e-05 2.59696e-05
-4.92731e-05 -6.51102e-05 -1.31886e-06
2.59696e-05 -1.31886e-06 -4.42654e-05
0.00221766 -0.000146747 -3.17107e-05
-0.000146747 -0.000126196 6.02013e-07
-3.17107e-05 6.02013e-07 -7.48779e-05
0.00169237 0.000231843 2.10594e-05
0.000231843 -0.000563787 -1.01165e-05
2.10594e-05 -1.01165e-05 -0.000637643
0.000141311 -0.000250046 -3.5549e-05
-0.000250046 -0.00126065 2.88145e-05
-3.5549e-05 2.88145e-05 -0.00107597
0.00347659 -0.000264285 -9.97737e-05
-0.000264285 0.000533123 -1.71672e-06
-9.97737e-05 -1.71672e-06 0.000544777
0.00199778 -0.000236033 5.09564e-06
-0.000236033 -0.000165375 -3.13003e-06
5.09564e-06 -3.13003e-06 1.34556e-05
0.00240332 -6.37746e-05 -8.51487e-06
-6.37746e-05 0.000404345 4.35375e-07
-8.51487e-06 4.35375e-07 0.000372501
0.00213717 -0.000199726 5.82786e-06
-0.000199726 2.7191e-06 7.66653e-07
5.82786e-06 7.66653e-07 3.87039e-05
0.00206017 -2.09107e-05 7.17404e-06
-2.09107e-05 5.72773e-06 1.28873e-06
7.17404e-06 1.28873e-06 -2.37093e-06
0.00185446 -0.000337752 -9.84966e-06
-0.000337752 -0.000296581 3.27039e-06
-9.84966e-06 3.27039e-06 -0.000173155
0.0020998 -0.000305138 -1.97879e-06
-0.000305138 -5.71115e-05 1.83473e-07
-1.97879e-06 1.83473e-07 2.06931e-05
0.0020561 -0.000227669 -1.0007e-06
-0.000227669 -3.35802e-06 -5.52793e-07
-1.0007e-06 -5.52793e-07 -1.71542e-06
0.00199704 -0.000349473 -2.37413e-06
-0.000349473 3.7624e-05 -4.12075e-07
-2.37413e-06 -4.12075e-07 9.45573e-06
0.00198688 -0.000293706 1.28816e-08
-0.000293706 6.58066e-05 4.54965e-08
1.28816e-08 4.54965e-08 1.74149e-05
0.00198226 -0.000259373 -1.78875e-06
-0.000259373 9.96341e-05 6.84975e-07
-1.78875e-06 6.84975e-07 2.49309e-05
0.0018698 -0.000331078 -4.17123e-07
-0.000331078 6.75836e-05 -1.59053e-06
-4.17123e-07 -1.59053e-06 -2.00202e-05
0.00181245 -0.00028508 5.79018e-07
-0.00028508 7.75807e-05 -2.30019e-07
5.79018e-07 -2.30019e-07 -2.32231e-05
0.00179379 -0.000264542 7.97431e-07
-0.000264542 8.9092e-05 -7.19658e-07
7.97431e-07 -7.19658e-07 -2.57146e-05
0.00179193 -0.000312749 -3.04466e-07
-0.000312749 0.000105049 -2.19028e-07
-3.04466e-07 -2.19028e-07 -1.23589e-05
0.00181989 -0.000297928 1.65355e-08
-0.000297928 0.000146696 -4.21313e-07
1.65355e-08 -4.21313e-07 1.10391e-05
0.00172882 -0.000271305 -1.47313e-07
-0.000271305 0.000142594 -1.29796e-06
-1.47313e-07 -1.29796e-06 -1.75072e-05
0.00198513 -0.000316793 -1.99216e-06
-0.000316793 0.000274522 3.76192e-06
-1.99216e-06 3.76192e-06 0.000124763
0.00179783 -0.000297134 -6.12363e-07
-0.000297134 0.000219665 -1.25276e-07
-6.12363e-07 -1.25276e-07 4.47591e-05
0.00139593 -0.000229625 -6.08194e-06
-0.000229625 9.49721e-05 1.30461e-06
-6.08194e-06 1.30461e-06 -8.53027e-05
0.00176195 -0.000327303 3.66854e-06
-0.000327303 0.000230044 8.5849e-07
3.66854e-06 8.5849e-07 3.24178e-05
0.00139878 -0.000254535 -2.80401e-07
-0.000254535 0.000125941 -2.76884e-08
-2.80401e-07 -2.76884e-08 -6.54788e-05
0.000941426 -0.00016853 -1.3736e-05
-0.00016853 -1.08934e-05 6.11661e-06
-1.3736e-05 6.11661e-06 -0.00016714
0.000436134 -0.000173905 -2.03047e-05
-0.000173905 -0.00014546 1.48185e-05
-2.03047e-05 1.48185e-05 -0.000248714
0.000921324 -0.000183629 1.53435e-07
-0.000183629 1.09155e-06 8.21878e-08
1.53435e-07 8.21878e-08 -0.000163086
0.00123873 -0.000268431 5.71417e-06
-0.000268431 8.1671e-05 -1.42433e-06
5.71417e-06 -1.42433e-06 -0.000125497
0.0057961 8.74855e-05 -0.000200859
8.74855e-05 0.00315667 1.1302e-05
-0.000200859 1.1302e-05 0.00315408
0.000522899 -0.000185239 -1.59145e-06
-0.000185239 -9.0852e-05 8.9324e-07
-1.59145e-06 8.9324e-07 -0.000190944
0.000885357 -0.000192943 1.16395e-05
-0.000192943 2.06241e-05 -6.04533e-06
1.16395e-05 -6.04533e-06 -0.000151627
0.00559621 0.000135373 -8.06367e-07
0.000135373 0.0030578 -2.42687e-07
-8.06367e-07 -2.42687e-07 0.00304475
0.000625706 -0.000181635 2.30296e-05
-0.000181635 -1.72413e-05 -1.58437e-05
2.30296e-05 -1.58437e-05 -0.0001139
0.00528333 0.00013792 0.000174967
0.00013792 0.00287527 -1.38497e-05
0.000174967 -1.38497e-05 0.00286226
0.00146964 0.000390856 -1.85201e-06
0.000390856 0.000166781 2.26046e-06
-1.85201e-06 2.26046e-06 -7.73427e-05
0.00127237 0.000338881 -1.31149e-07
0.000338881 0.000138064 5.5971e-07
-1.31149e-07 5.5971e-07 -0.000112892
0.0011176 0.000263668 -7.05224e-06
0.000263668 8.66661e-05 -1.84955e-06
-7.05224e-06 -1.84955e-06 -0.000129691
0.0015837 0.000344429 -5.32572e-07
0.000344429 0.000417378 2.08249e-06
-5.32572e-07 2.08249e-06 0.000163215
0.00107198 0.000246339 -2.08732e-06
0.000246339 0.000158756 1.04111e-06
-2.08732e-06 1.04111e-06 -5.80398e-05
0.000918907 0.000200879 -7.73608e-06
0.000200879 0.000158134 -4.93116e-06
-7.73608e-06 -4.93116e-06 -2.27685e-05
0.00101606 0.000210604 -1.53644e-06
0.000210604 0.000228969 1.01233e-06
-1.53644e-06 1.01233e-06 2.90113e-05
0.000756378 0.000150372 -3.90783e-08
0.000150372 0.000128198 -3.42328e-08
-3.90783e-08 -3.42328e-08 -3.83878e-05
0.000723192 7.85988e-05 -1.4944e-05
7.85988e-05 8.72503e-05 -1.38175e-05
-1.4944e-05 -1.38175e-05 1.5262e-05
0.00056762 2.88487e-05 1.04116e-06
2.88487e-05 7.48174e-06 5.22834e-06
1.04116e-06 5.22834e-06 -0.000113207
0.000486769 5.74689e-06 -4.05004e-07
5.74689e-06 -4.03489e-05 -3.96416e-07
-4.05004e-07 -3.96416e-07 -9.40652e-05
0.00384183 -0.000135294 -0.000119962
-0.000135294 0.0020141 -4.92384e-06
-0.000119962 -4.92384e-06 0.00200894
0.000408624 -1.13835e-05 4.17017e-06
-1.13835e-05 -8.39496e-05 9.55881e-06
4.17017e-06 9.55881e-06 -0.000129178
0.00328857 -0.00014414 -4.48645e-06
-0.00014414 0.0016764 4.56981e-07
-4.48645e-06 4.56981e-07 0.00166989
0.00301428 -0.00013168 5.86711e-05
-0.00013168 0.00150106 3.39977e-06
5.86711e-05 3.39977e-06 0.00149768
0.000604916 8.09182e-05 2.16383e-05
8.09182e-05 -0.000607587 8.03621e-06
2.16383e-05 8.03621e-06 -0.000520313
0.00214911 5.93984e-05 -9.39658e-06
5.93984e-05 -0.000422306 -2.0641e-06
-9.39658e-06 -2.0641e-06 -0.000204707
0.00412802 7.96142e-05 0.000154578
7.96142e-05 -0.000723072 4.14441e-05
0.000154578 4.14441e-05 8.06605e-05
0.00237226 0.000551566 -2.30801e-06
0.000551566 0.000495992 -1.43984e-07
-2.30801e-06 -1.43984e-07 0.000261168
0.0016091 0.000502751 -2.85603e-06
0.000502751 0.00020754 -3.66953e-06
-2.85603e-06 -3.66953e-06 -5.02595e-05
0.00198384 0.000419767 -5.72954e-07
0.000419767 0.000211014 3.21312e-06
-5.72954e-07 3.21312e-06 1.62366e-05
0.00182166 0.000477411 8.58914e-07
0.000477411 0.000253469 2.72449e-07
8.58914e-07 2.72449e-07 1.11791e-05
0.00127728 0.000408619 1.12118e-06
0.000408619 8.76899e-05 -7.53329e-06
1.12118e-06 -7.53329e-06 -0.000178134
0.00181989 0.000437814 -1.35796e-07
0.000437814 4.55812e-05 8.16942e-07
-1.35796e-07 8.16942e-07 -0.000127759
0.00195334 0.000506763 -5.34706e-06
0.000506763 0.000526276 -2.25411e-06
-5.34706e-06 -2.25411e-06 0.000267345
0.00195554 0.000557983 1.44014e-07
0.000557983 0.000267326 -1.0445e-07
1.44014e-07 -1.0445e-07 3.54365e-05
0.00182847 0.000324684 -5.90553e-06
0.000324684 -5.43409e-05 -6.6504e-07
-5.90553e-06 -6.6504e-07 -0.000140989
0.00274086 0.00067334 -3.09706e-07
0.00067334 0.000701849 2.33767e-06
-3.09706e-07 2.33767e-06 0.000475509
0.00198209 0.000551476 -1.81301e-06
0.000551476 0.000152824 1.27744e-08
-1.81301e-06 1.27744e-08 -3.09274e-05
0.000887978 0.000295317 5.41797e-06
0.000295317 -0.000376999 3.33204e-06
5.41797e-06 3.33204e-06 -0.000410358
-0.000518553 0.000373074 -9.18658e-06
0.000373074 -0.00098928 -2.14989e-06
-9.18658e-06 -2.14989e-06 -0.00112234
0.00235161 0.000528647 -6.60378e-05
0.000528647 1.92265e-05 -2.92414e-05
-6.60378e-05 -2.92414e-05 -2.24293e-07
0.00192085 4.83562e-05 1.18418e-07
4.83562e-05 -9.69459e-05 -4.05924e-07
1.18418e-07 -4.05924e-07 -7.39373e-05
0.00224387 -4.45947e-05 1.73877e-06
-4.45947e-05 0.000396996 1.00463e-06
1.73877e-06 1.00463e-06 0.000415976
0.00175805 -9.85088e-05 -5.88637e-05
-9.85088e-05 -0.000260078 7.9968e-07
-5.88637e-05 7.9968e-07 -0.000320705
0.002315 -0.000265033 -4.14515e-05
-0.000265033 7.79504e-05 3.7141e-06
-4.14515e-05 3.7141e-06 0.000228467
0.00149771 -8.2411e-05 -1.08961e-05
-8.2411e-05 -0.000168882 6.00774e-07
-1.08961e-05 6.00774e-07 -0.000192234
0.00206109 -0.000194206 -5.03363e-09
-0.000194206 -4.56251e-05 -8.86484e-07
-5.03363e-09 -8.86484e-07 3.83651e-06
0.00212033 -2.20653e-05 -1.33916e-06
-2.20653e-05 1.86774e-05 1.47503e-06
-1.33916e-06 1.47503e-06 1.70106e-05
0.00213539 -7.0952e-05 -1.24624e-06
-7.0952e-05 2.16717e-05 -2.54523e-07
-1.24624e-06 -2.54523e-07 3.3973e-05
0.00211174 -0.000303494 -4.62314e-06
-0.000303494 -3.34015e-05 7.07257e-07
-4.62314e-06 7.07257e-07 2.62687e-05
0.00203364 -0.000219167 4.22656e-07
-0.000219167 -4.57796e-06 -2.00652e-07
4.22656e-07 -2.00652e-07 -4.66863e-06
0.00200781 -0.000178217 -1.84188e-06
-0.000178217 3.45846e-05 -3.56632e-08
-1.84188e-06 -3.56632e-08 6.36769e-06
0.00197149 -0.000289919 1.07003e-06
-0.000289919 6.72046e-05 -9.0637e-07
1.07003e-06 -9.0637e-07 1.42132e-05
0.00190223 -0.000253784 2.54701e-07
-0.000253784 5.96533e-05 1.08594e-07
2.54701e-07 1.08594e-07 -1.71581e-05
0.00182822 -0.000209528 -2.26041e-07
-0.000209528 7.02321e-05 -3.57129e-07
-2.26041e-07 -3.57129e-07 -2.28245e-05
0.00176555 -0.000282483 1.33319e-06
-0.000282483 4.57036e-05 -1.00679e-06
1.33319e-06 -1.00679e-06 -5.54467e-05
0.0018396 -0.000265909 1.3466e-07
-0.000265909 0.000116152 -1.33888e-07
1.3466e-07 -1.33888e-07 1.15694e-06
0.0017859 -0.000239827 5.5041e-07
-0.000239827 0.000134457 -1.09365e-06
5.5041e-07 -1.09365e-06 -6.97677e-06
0.00183776 -0.000298275 -9.4042e-07
-0.000298275 0.000158351 1.03628e-06
-9.4042e-07 1.03628e-06 2.25903e-05
0.0017619 -0.00027245 -3.09247e-07
-0.00027245 0.000163255 -9.04782e-08
-3.09247e-07 -9.04782e-08 3.3631e-06
0.00144291 -0.000209183 -4.37764e-06
-0.000209183 9.40395e-05 9.53145e-07
-4.37764e-06 9.53145e-07 -7.61277e-05
0.00180405 -0.000297849 5.69505e-07
-0.000297849 0.000224118 1.40786e-06
5.69505e-07 1.40786e-06 5.0284e-05
0.00141919 -0.000230815 -2.70163e-07
-0.000230815 0.000107994 6.88938e-08
-2.70163e-07 6.88938e-08 -7.19558e-05
0.00095461 -0.000151001 -1.40293e-05
-0.000151001 -2.02394e-05 5.60804e-06
-1.40293e-05 5.60804e-06 -0.000170588
0.00140564 -0.000256087 6.12944e-06
-0.000256087 0.000130593 -1.12954e-06
6.12944e-06 -1.12954e-06 -6.05794e-05
0.000957301 -0.000168524 1.91938e-07
-0.000168524 -3.53266e-06 7.95623e-08
1.91938e-07 7.95623e-08 -0.000159542
0.00249571 -0.000130566 -3.46088e-05
-0.000130566 0.00108216 9.35245e-06
-3.46088e-05 9.35245e-06 0.000998924
0.00180557 -6.00254e-05 -0.000198101
-6.00254e-05 0.000736413 2.31061e-05
-0.000198101 2.31061e-05 0.000718717
0.00154807 -0.000163483 -7.33967e-06
-0.000163483 0.000518859 -4.02204e-07
-7.33967e-06 -4.02204e-07 0.000422919
0.000950828 -0.000185895 1.27049e-05
-0.000185895 1.70689e-05 -5.95724e-06
1.27049e-05 -5.95724e-06 -0.000147655
0.00587271 7.06784e-05 -6.63845e-06
7.06784e-05 0.0032093 -2.05114e-07
-6.63845e-06 -2.05114e-07 0.00320345
0.000568672 -0.000210164 2.43149e-05
-0.000210164 -6.49725e-05 -1.54029e-05
2.43149e-05 -1.54029e-05 -0.00016729
0.00571916 0.000115367 0.000194748
0.000115367 0.00313636 -1.73582e-05
0.000194748 -1.73582e-05 0.00312107
0.00197198 0.000327323 1.71689e-07
0.000327323 0.000174338 1.99784e-07
1.71689e-07 1.99784e-07 1.42066e-05
0.00177689 0.000395158 1.58723e-06
0.000395158 0.000222059 3.23771e-06
1.58723e-06 3.23771e-06 5.23153e-06
0.0017176 0.000415227 3.89501e-08
0.000415227 0.00030357 1.72931e-07
3.89501e-08 1.72931e-07 5.69013e-05
0.00117495 0.000280628 -6.99679e-06
0.000280628 6.42933e-05 -1.34084e-06
-6.99679e-06 -1.34084e-06 -0.000148481
0.00139432 0.000354799 4.60052e-06
0.000354799 0.000208285 1.19692e-06
4.60052e-06 1.19692e-06 -4.48275e-05
0.00113154 0.000260559 -7.12149e-08
0.000260559 9.85078e-05 2.75256e-08
-7.12149e-08 2.75256e-08 -0.000116455
0.00079627 0.000185142 -1.03253e-05
0.000185142 5.31167e-07 -5.51041e-06
-1.03253e-05 -5.51041e-06 -0.000171395
0.000838872 0.000223175 2.72133e-06
0.000223175 2.03895e-05 4.88715e-06
2.72133e-06 4.88715e-06 -0.00019161
0.000770435 0.000186532 1.18773e-08
0.000186532 6.94106e-05 9.24687e-07
1.18773e-08 9.24687e-07 -0.000110773
0.000716188 0.000166911 -2.24021e-05
0.000166911 6.29552e-05 -1.53366e-05
-2.24021e-05 -1.53366e-05 -2.92351e-05
0.000575499 0.000117615 1.38425e-06
0.000117615 1.75619e-05 4.72754e-06
1.38425e-06 4.72754e-06 -0.00014125
0.000573937 6.64126e-05 -1.94834e-06
6.64126e-05 2.12835e-07 -6.45651e-07
-1.94834e-06 -6.45651e-07 -6.72701e-05
0.00461562 -0.00013087 -0.000159649
-0.00013087 0.00248362 -9.69089e-06
-0.000159649 -9.69089e-06 0.0024743
0.000366293 -2.73722e-06 5.12608e-06
-2.73722e-06 -0.00010808 1.08249e-05
5.12608e-06 1.08249e-05 -0.000161766
0.00366795 -0.000158265 -6.01352e-06
-0.000158265 0.00191432 4.67384e-07
-6.01352e-06 4.67384e-07 0.00190349
0.00322565 -0.000149185 6.93834e-05
-0.000149185 0.001639 2.95426e-06
6.93834e-05 2.95426e-06 0.00163091
0.00200891 0.000169014 -5.51003e-07
0.000169014 -4.67554e-05 -3.30023e-07
-5.51003e-07 -3.30023e-07 -4.07458e-05
0.00193337 5.84255e-05 1.94755e-05
5.84255e-05 8.71063e-05 -1.61271e-06
1.94755e-05 -1.61271e-06 0.000161896
0.00445333 7.96027e-05 -0.00010385
7.96027e-05 0.00055661 -1.55689e-05
-0.00010385 -1.55689e-05 0.000825366
0.00183349 0.000376772 -3.44969e-06
0.000376772 6.73727e-05 1.05077e-06
-3.44969e-06 1.05077e-06 -9.52452e-05
0.00197014 0.000513689 -2.82495e-06
0.000513689 0.000279268 -8.63697e-08
-2.82495e-06 -8.63697e-08 4.87573e-05
0.00153968 0.000514984 -1.00161e-05
0.000514984 0.000153642 -7.89791e-06
-1.00161e-05 -7.89791e-06 -0.00010139
0.00207087 0.000413113 2.88169e-06
0.000413113 0.000276787 1.13033e-06
2.88169e-06 1.13033e-06 8.4316e-05
0.001789 0.000469175 -1.70013e-06
0.000469175 0.000232617 -2.88229e-06
-1.70013e-06 -2.88229e-06 -7.6748e-06
0.00222315 0.000318764 -2.15981e-07
0.000318764 0.00017578 5.75961e-08
-2.15981e-07 5.75961e-08 7.76525e-05
0.00172848 0.00043303 -1.52403e-07
0.00043303 1.49638e-05 7.90084e-07
-1.52403e-07 7.90084e-07 -0.000159069
0.00228327 0.000576337 -5.25877e-06
0.000576337 0.00046959 -5.41762e-07
-5.25877e-06 -5.41762e-07 0.000234003
0.00186936 0.000328007 -9.80762e-07
0.000328007 -2.5954e-05 -5.1574e-07
-9.80762e-07 -5.1574e-07 -0.00011349
0.00206905 0.000561253 1.60728e-05
0.000561253 0.000180885 3.49348e-06
1.60728e-05 3.49348e-06 -6.6185e-06
0.00111331 0.000296165 -3.11074e-05
0.000296165 -0.000228526 -6.99528e-06
-3.11074e-05 -6.99528e-06 -0.000268535
0.00208656 5.6328e-05 -1.04282e-06
5.6328e-05 4.22178e-06 4.25271e-07
-1.04282e-06 4.25271e-07 1.63476e-05
0.0020298 5.82581e-05 -1.84164e-06
5.82581e-05 -2.08423e-05 1.88198e-07
-1.84164e-06 1.88198e-07 -1.7784e-06
0.00293304 -3.58501e-05 -3.9513e-05
-3.58501e-05 0.000840563 3.14503e-06
-3.9513e-05 3.14503e-06 0.000853846
0.00197999 -0.000187123 -1.07208e-05
-0.000187123 -0.000100799 -2.68866e-07
-1.07208e-05 -2.68866e-07 -3.85378e-05
0.00214241 -2.06455e-05 -4.29764e-06
-2.06455e-05 3.92543e-06 -2.71192e-06
-4.29764e-06 -2.71192e-06 8.11609e-06
0.00209673 -7.51389e-05 -3.2898e-07
-7.51389e-05 -1.79932e-05 7.69379e-08
-3.2898e-07 7.69379e-08 -4.04397e-07
0.00191679 -5.84012e-05 -2.32482e-06
-5.84012e-05 4.89295e-06 3.53639e-07
-2.32482e-06 3.53639e-07 -7.16048e-06
0.0020117 -0.000209581 1.22873e-06
-0.000209581 -3.66807e-06 1.40048e-07
1.22873e-06 1.40048e-07 -5.71196e-06
0.00195661 -0.000179714 2.80734e-08
-0.000179714 1.37723e-05 -8.88263e-09
2.80734e-08 -8.88263e-09 -1.78598e-05
0.00189466 -0.000143453 1.51278e-06
-0.000143453 8.00629e-05 -1.18295e-06
1.51278e-06 -1.18295e-06 8.77369e-06
0.00181828 -0.000247835 2.04627e-06
-0.000247835 1.82087e-05 -5.32397e-07
2.04627e-06 -5.32397e-07 -6.08973e-05
0.0018656 -0.000211747 -9.2033e-08
-0.000211747 8.52252e-05 -2.37566e-08
-9.2033e-08 -2.37566e-08 -8.14146e-06
0.00182688 -0.000197125 5.75791e-07
-0.000197125 0.000116639 -9.76245e-07
5.75791e-07 -9.76245e-07 -6.91737e-06
0.00188971 -0.000267339 2.35677e-07
-0.000267339 0.000146087 3.69223e-07
2.35677e-07 3.69223e-07 3.09266e-05
0.00180864 -0.00024069 -2.52354e-07
-0.00024069 0.000147694 4.91191e-08
-2.52354e-07 4.91191e-08 6.32951e-06
0.00149418 -0.000183551 -3.23729e-06
-0.000183551 9.49678e-05 5.51343e-07
-3.23729e-06 5.51343e-07 -6.45648e-05
0.00179507 -0.00027363 -2.77779e-07
-0.00027363 0.000184036 1.04801e-06
-2.77779e-07 1.04801e-06 2.43453e-05
0.00146442 -0.000210212 -2.19907e-07
-0.000210212 0.000104977 8.81086e-08
-2.19907e-07 8.81086e-08 -6.4841e-05
0.000969282 -0.000134475 -1.36236e-05
-0.000134475 -2.45078e-05 4.82417e-06
-1.36236e-05 4.82417e-06 -0.000171172
0.00144129 -0.000231953 5.1882e-06
-0.000231953 0.000120371 -1.08794e-06
5.1882e-06 -1.08794e-06 -5.92504e-05
0.000978685 -0.000150772 9.07513e-08
-0.000150772 -8.43298e-06 1.18726e-07
9.07513e-08 1.18726e-07 -0.000158262
0.00253236 -0.000134691 -4.24815e-05
-0.000134691 0.00109198 8.62141e-06
-4.24815e-05 8.62141e-06 0.00101609
0.000968921 -0.0001686 1.37307e-05
-0.0001686 1.40506e-06 -5.90049e-06
1.37307e-05 -5.90049e-06 -0.000154416
0.00264816 -0.000173774 3.99115e-05
-0.000173774 0.00117067 -5.40964e-06
3.99115e-05 -5.40964e-06 0.00109375
0.00185003 -9.92146e-05 -0.000200777
-9.92146e-05 0.000769824 2.7497e-05
-0.000200777 2.7497e-05 0.000750174
0.00376471 -4.29259e-05 -0.000196956
-4.29259e-05 0.00193527 1.47326e-05
-0.000196956 1.47326e-05 0.00192447
0.00272287 -0.000228127 0.000126007
-0.000228127 0.00122373 -1.828e-05
0.000126007 -1.828e-05 0.00114815
0.00593123 5.66515e-05 0.000210428
5.66515e-05 0.00325397 -2.03625e-05
0.000210428 -2.03625e-05 0.00324367
0.00211284 0.000321435 -2.49123e-06
0.000321435 0.000245324 -1.03525e-06
-2.49123e-06 -1.03525e-06 0.000103734
0.00164677 0.000310623 2.65491e-06
0.000310623 8.79247e-05 1.02238e-06
2.65491e-06 1.02238e-06 -9.31835e-05
0.00197355 0.000323527 4.03476e-07
0.000323527 0.000175635 -1.40193e-06
4.03476e-07 -1.40193e-06 2.10874e-05
0.0013703 0.000287523 -5.91835e-06
0.000287523 0.000112843 -6.13462e-07
-5.91835e-06 -6.13462e-07 -9.01326e-05
0.00184278 0.000398186 5.53074e-07
0.000398186 0.000251026 4.11964e-07
5.53074e-07 4.11964e-07 3.35386e-05
0.00196279 0.000439743 1.751e-06
0.000439743 0.000438186 -1.70414e-06
1.751e-06 -1.70414e-06 0.000188922
0.00123175 0.00028333 -2.68656e-07
0.00028333 0.000101376 2.42491e-07
-2.68656e-07 2.42491e-07 -0.000111843
0.000908048 0.000191675 -1.22558e-05
0.000191675 9.88062e-06 -6.16192e-06
-1.22558e-05 -6.16192e-06 -0.00015778
0.00116926 0.000259335 7.97692e-06
0.000259335 0.000125175 2.09298e-06
7.97692e-06 2.09298e-06 -8.87569e-05
0.000828788 0.000184432 -3.1441e-07
0.000184432 1.38938e-05 2.27141e-08
-3.1441e-07 2.27141e-08 -0.0001569
0.00056659 0.000206482 -2.4329e-05
0.000206482 -4.88719e-05 -1.60272e-05
-2.4329e-05 -1.60272e-05 -0.000151199
0.000634912 0.000175542 4.61374e-06
0.000175542 -8.5671e-06 5.53474e-06
4.61374e-06 5.53474e-06 -0.00018934
0.000519013 0.000136354 4.41313e-07
0.000136354 -5.45168e-05 2.89071e-07
4.41313e-07 2.89071e-07 -0.000141057
0.00547734 -0.000137374 -0.000184621
-0.000137374 0.00301615 -1.6984e-05
-0.000184621 -1.6984e-05 0.00299323
0.000261225 3.56908e-05 8.84954e-06
3.56908e-05 -0.000179301 1.28079e-05
8.84954e-06 1.28079e-05 -0.000244574
0.0043518 -0.000177857 -1.11316e-05
-0.000177857 0.00233681 8.23905e-07
-1.11316e-05 8.23905e-07 0.00231834
0.00351777 -0.000167783 8.19743e-05
-0.000167783 0.00182563 2.85514e-06
8.19743e-05 2.85514e-06 0.00181216
0.00207 0.000187619 -1.30948e-06
0.000187619 1.5209e-05 2.28528e-07
-1.30948e-06 2.28528e-07 -1.34035e-05
0.00194979 0.000170718 9.74408e-07
0.000170718 -7.70052e-05 -1.3841e-07
9.74408e-07 -1.3841e-07 -7.18364e-05
0.00305536 4.28227e-05 -7.50593e-05
4.28227e-05 0.000679038 -8.82323e-06
-7.50593e-05 -8.82323e-06 0.000747457
0.00202124 0.000278795 3.61313e-07
0.000278795 0.000116637 3.112e-07
3.61313e-07 3.112e-07 5.57668e-06
0.00186818 0.000375532 -1.42202e-07
0.000375532 0.000108528 3.61719e-07
-1.42202e-07 3.61719e-07 -5.42873e-05
0.00158005 0.000476161 -2.0158e-08
0.000476161 6.82985e-05 -1.84464e-06
-2.0158e-08 -1.84464e-06 -0.000157864
0.00215948 0.00040614 -2.39823e-07
0.00040614 0.000344044 -2.20898e-06
-2.39823e-07 -2.20898e-06 0.000154014
0.00210442 0.000307834 -7.12077e-07
0.000307834 0.000112118 -2.68717e-08
-7.12077e-07 -2.68717e-08 1.48494e-05
0.00164815 0.000429041 -3.95357e-06
0.000429041 -9.36806e-06 5.04285e-07
-3.95357e-06 5.04285e-07 -0.000184242
0.00183869 0.000327513 8.44976e-06
0.000327513 -2.15209e-05 8.61306e-07
8.44976e-06 8.61306e-07 -0.000110184
0.00195807 5.24172e-05 -5.81832e-07
5.24172e-05 1.1302e-05 5.16633e-07
-5.81832e-07 5.16633e-07 2.90628e-06
0.00205194 5.56519e-05 2.70513e-08
5.56519e-05 -4.07788e-06 -1.24633e-07
2.70513e-08 -1.24633e-07 4.21594e-06
0.00211495 6.95392e-05 -8.50142e-06
6.95392e-05 4.32463e-05 -5.3329e-07
-8.50142e-06 -5.3329e-07 5.87188e-05
0.00183194 -1.05145e-05 -4.76145e-06
-1.05145e-05 4.04885e-06 4.68019e-07
-4.76145e-06 4.68019e-07 -2.20729e-05
0.00205757 -8.3836e-05 1.38272e-06
-8.3836e-05 -5.71899e-05 -5.80035e-07
1.38272e-06 -5.80035e-07 -3.45318e-05
0.00194023 -6.15027e-05 -6.36431e-07
-6.15027e-05 1.64373e-05 2.42145e-07
-6.36431e-07 2.42145e-07 4.33527e-06
0.00186079 -8.41871e-05 -3.06837e-06
-8.41871e-05 5.1363e-05 1.75332e-07
-3.06837e-06 1.75332e-07 -4.03427e-06
0.00190735 -0.000181211 2.46847e-06
-0.000181211 -6.62852e-06 -2.76442e-07
2.46847e-06 -2.76442e-07 -4.15918e-05
0.00186863 -0.000142742 2.02655e-06
-0.000142742 5.75204e-05 -7.61379e-07
2.02655e-06 -7.61379e-07 -1.33824e-05
0.00183886 -0.000139652 2.98418e-06
-0.000139652 0.000104667 -1.0361e-06
2.98418e-06 -1.0361e-06 -4.39499e-06
0.00190986 -0.000213667 8.44148e-07
-0.000213667 0.000104154 2.51682e-07
8.44148e-07 2.51682e-07 1.05642e-05
0.0018386 -0.000195778 -1.60098e-07
-0.000195778 0.000126849 -2.77766e-07
-1.60098e-07 -2.77766e-07 3.63686e-06
0.00153116 -0.000149164 -2.3967e-06
-0.000149164 9.048e-05 2.20791e-07
-2.3967e-06 2.20791e-07 -5.74575e-05
0.00183044 -0.000241375 -5.03724e-07
-0.000241375 0.000160707 1.05759e-06
-5.03724e-07 1.05759e-06 1.94448e-05
0.00149973 -0.000183187 -2.17771e-07
-0.000183187 9.66912e-05 9.34057e-08
-2.17771e-07 9.34057e-08 -6.23569e-05
0.000981391 -0.000115574 -1.30327e-05
-0.000115574 -2.94834e-05 3.84961e-06
-1.30327e-05 3.84961e-06 -0.000172388
0.00148465 -0.00021108 3.80531e-06
-0.00021108 0.000115276 -7.78031e-07
3.80531e-06 -7.78031e-07 -5.41636e-05
0.000993962 -0.000133436 2.11756e-10
-0.000133436 -1.23788e-05 2.15614e-07
2.11756e-10 2.15614e-07 -0.000158276
0.00254857 -0.000139286 -5.02483e-05
-0.000139286 0.00109663 8.40322e-06
-5.02483e-05 8.40322e-06 0.00102323
0.00100382 -0.000150662 1.39183e-05
-0.000150662 3.75853e-06 -5.41614e-06
1.39183e-05 -5.41614e-06 -0.00014552
0.00262991 -0.000162819 3.64348e-05
-0.000162819 0.0011496 -4.42946e-06
3.64348e-05 -4.42946e-06 0.00107853
0.00189906 -8.5977e-05 -0.000196691
-8.5977e-05 0.000793511 2.44359e-05
-0.000196691 2.44359e-05 0.000775305
0.00278169 -0.000187701 0.000124085
-0.000187701 0.00124688 -1.99311e-05
0.000124085 -1.99311e-05 0.00117618
0.00159933 -3.78135e-05 -8.71288e-05
-3.78135e-05 0.000623811 1.07819e-05
-8.71288e-05 1.07819e-05 0.000594129
0.00561024 0.00013018 4.55522e-05
0.00013018 0.00304818 -2.22073e-06
4.55522e-05 -2.22073e-06 0.00302411
0.00191713 0.000267115 4.08266e-07
0.000267115 0.00011506 1.08713e-07
4.08266e-07 1.08713e-07 -1.38534e-05
0.00191359 0.000296113 -2.38039e-07
0.000296113 0.000203694 -8.41804e-07
-2.38039e-07 -8.41804e-07 4.35678e-05
0.00201253 0.000318185 -3.64162e-06
0.000318185 0.00018067 2.65699e-08
-3.64162e-06 2.65699e-08 3.67438e-05
0.00167751 0.000271186 -3.0769e-06
0.000271186 0.000244148 -5.45957e-07
-3.0769e-06 -5.45957e-07 5.99496e-05
0.00167547 0.000317189 9.94278e-08
0.000317189 9.40729e-05 -1.64271e-06
9.94278e-08 -1.64271e-06 -8.47716e-05
0.00198049 0.000320177 -2.93628e-06
0.000320177 0.000180118 -3.6668e-06
-2.93628e-06 -3.6668e-06 3.10989e-05
0.000968295 0.000188352 -1.36761e-05
0.000188352 1.11704e-06 -5.81382e-06
-1.36761e-05 -5.81382e-06 -0.000160988
0.00134784 0.000286479 2.79947e-07
0.000286479 9.83747e-05 2.67653e-07
2.79947e-07 2.67653e-07 -0.000104995
0.00190775 0.000401016 2.85371e-06
0.000401016 0.000278723 -2.06097e-06
2.85371e-06 -2.06097e-06 6.06048e-05
0.00129455 0.000286255 7.99382e-06
0.000286255 0.000142856 2.35521e-06
7.99382e-06 2.35521e-06 -7.0799e-05
0.000878777 0.000188393 -6.30358e-07
0.000188393 -5.77399e-06 -3.58016e-08
-6.30358e-07 -3.58016e-08 -0.000172389
0.00051316 0.000219872 -2.51476e-05
0.000219872 -8.69504e-05 -1.56783e-05
-2.51476e-05 -1.56783e-05 -0.000193138
0.000754193 0.000178223 9.9943e-06
0.000178223 -3.62049e-05 5.73786e-06
9.9943e-06 5.73786e-06 -0.000205157
0.000499848 0.000196667 2.18288e-06
0.000196667 -8.45254e-05 5.57916e-07
2.18288e-06 5.57916e-07 -0.000186054
0.00591903 -8.30439e-05 -0.000201744
-8.30439e-05 0.00327569 -2.21501e-05
-0.000201744 -2.21501e-05 0.00325247
0.000431502 0.000124414 1.90352e-05
0.000124414 -0.000110917 1.50301e-05
1.90352e-05 1.50301e-05 -0.000190115
0.00520035 -0.000161954 -7.01578e-06
-0.000161954 0.00284178 2.24833e-07
-7.01578e-06 2.24833e-07 0.00282289
0.00404903 -0.000194829 9.88308e-05
-0.000194829 0.00215866 3.98965e-06
9.88308e-05 3.98965e-06 0.00213651
0.00197759 0.000150732 -1.69337e-06
0.000150732 6.18681e-05 8.32568e-07
-1.69337e-06 8.32568e-07 5.46279e-06
0.00207627 0.00019094 4.60211e-07
0.00019094 1.1239e-05 3.97321e-07
4.60211e-07 3.97321e-07 -1.42077e-05
0.00194413 0.000174357 1.06087e-06
0.000174357 -8.65589e-05 4.24919e-07
1.06087e-06 4.24919e-07 -8.19228e-05
0.00201406 0.000273282 4.27088e-07
0.000273282 0.000118129 4.35683e-08
4.27088e-07 4.35683e-08 1.03818e-05
0.00188537 0.000372937 -9.28203e-07
0.000372937 0.000140507 -5.74751e-07
-9.28203e-07 -5.74751e-07 -2.23283e-05
0.00199059 0.000296623 3.79493e-07
0.000296623 5.03114e-05 -3.24345e-07
3.79493e-07 -3.24345e-07 -4.58462e-05
0.00193085 5.87296e-05 -2.79657e-06
5.87296e-05 5.09897e-05 1.32446e-07
-2.79657e-06 1.32446e-07 2.2078e-05
0.0019634 4.94356e-05 3.44832e-07
4.94356e-05 1.9355e-05 -1.20265e-07
3.44832e-07 -1.20265e-07 8.20399e-06
0.0020276 5.53291e-05 1.19198e-06
5.53291e-05 -7.46513e-06 -1.48917e-07
1.19198e-06 -1.48917e-07 -2.73228e-06
0.0018602 -1.37369e-05 -1.592e-06
-1.37369e-05 1.79288e-05 5.28933e-08
-1.592e-06 5.28933e-08 -7.95987e-06
0.00183764 -3.52124e-05 -3.88951e-06
-3.52124e-05 4.75917e-05 4.85476e-08
-3.88951e-06 4.85476e-08 -9.75774e-06
0.001965 -6.45596e-05 1.94898e-06
-6.45596e-05 2.8721e-05 -8.61297e-08
1.94898e-06 -8.61297e-08 1.6605e-05
0.00184913 -8.23164e-05 -2.07096e-06
-8.23164e-05 4.80709e-05 6.27453e-07
-2.07096e-06 6.27453e-07 -1.08672e-05
0.0018472 -8.43766e-05 -3.6758e-07
-8.43766e-05 0.000107593 -4.71889e-07
-3.6758e-07 -4.71889e-07 1.41133e-05
0.00183167 -0.000142076 3.42221e-06
-0.000142076 2.94966e-05 -4.40793e-07
3.42221e-06 -4.40793e-07 -4.11026e-05
0.00183391 -0.000140737 2.73544e-06
-0.000140737 0.000104285 -6.87412e-07
2.73544e-06 -6.87412e-07 -4.83183e-06
0.00154781 -0.000106766 -8.93451e-07
-0.000106766 7.82333e-05 -3.30974e-07
-8.93451e-07 -3.30974e-07 -5.87003e-05
0.00183567 -0.000195699 -9.75676e-07
-0.000195699 0.000127473 4.11093e-07
-9.75676e-07 4.11093e-07 4.31492e-06
0.00152903 -0.000149134 -1.26112e-07
-0.000149134 8.6213e-05 3.37155e-08
-1.26112e-07 3.37155e-08 -6.148e-05
0.00098632 -9.19236e-05 -1.2543e-05
-9.19236e-05 -3.81212e-05 2.94351e-06
-1.2543e-05 2.94351e-06 -0.000176064
0.00150919 -0.000183086 2.61759e-06
-0.000183086 9.99063e-05 -3.74108e-07
2.61759e-06 -3.74108e-07 -5.86811e-05
0.00100386 -0.000113973 -1.51948e-07
-0.000113973 -1.81414e-05 2.13508e-07
-1.51948e-07 2.13508e-07 -0.000160285
0.00252062 -0.000149186 -5.36549e-05
-0.000149186 0.00107677 7.51164e-06
-5.36549e-05 7.51164e-06 0.00100359
0.00101875 -0.000132477 1.35209e-05
-0.000132477 -3.9236e-07 -4.47141e-06
1.35209e-05 -4.47141e-06 -0.000145504
0.0026159 -0.000144606 3.50484e-05
-0.000144606 0.00113322 -3.3524e-06
3.50484e-05 -3.3524e-06 0.0010653
0.00193118 -7.29926e-05 -0.000196501
-7.29926e-05 0.000806138 2.08546e-05
-0.000196501 2.08546e-05 0.000788682
0.00272684 -0.000160397 0.000122199
-0.000160397 0.00120214 -1.71595e-05
0.000122199 -1.71595e-05 0.00113803
0.0016051 -4.78349e-05 -7.90984e-05
-4.78349e-05 0.000621027 9.08604e-06
-7.90984e-05 9.08604e-06 0.000594156
0.0013916 -3.28077e-05 4.04657e-05
-3.28077e-05 0.00050451 -6.18554e-06
4.04657e-05 -6.18554e-06 0.000465629
0.00195518 0.000162966 -1.53544e-06
0.000162966 0.000115384 1.37453e-06
-1.53544e-06 1.37453e-06 2.25476e-05
0.00188627 0.000248838 -1.22682e-06
0.000248838 0.000155296 1.74531e-07
-1.22682e-06 1.74531e-07 1.11547e-05
0.00192099 0.000268205 -6.37222e-07
0.000268205 0.000107379 -8.44119e-08
-6.37222e-07 -8.44119e-08 -1.85707e-05
0.00179492 0.000251556 -2.28932e-06
0.000251556 0.000266303 -3.53126e-07
-2.28932e-06 -3.53126e-07 9.84329e-05
0.0018537 0.000291375 3.5465e-08
0.000291375 0.000174702 -1.07674e-07
3.5465e-08 -1.07674e-07 1.33106e-05
0.00190867 0.000315001 8.93353e-07
0.000315001 0.000114175 3.66296e-07
8.93353e-07 3.66296e-07 -3.216e-05
0.00100831 0.000172978 -1.42811e-05
0.000172978 -2.51977e-06 -5.32827e-06
-1.42811e-05 -5.32827e-06 -0.000156706
0.00156027 0.000269435 3.07175e-06
0.000269435 0.00016777 5.16642e-07
3.07175e-06 5.16642e-07 -1.62514e-05
0.0017115 0.00032423 1.04334e-07
0.00032423 0.000105094 -2.41593e-06
1.04334e-07 -2.41593e-06 -7.15191e-05
0.000461559 0.000180755 -2.26306e-05
0.000180755 -0.00012983 -1.35953e-05
-2.26306e-05 -1.35953e-05 -0.000231315
0.000939989 0.000185275 -5.76113e-07
0.000185275 -1.22262e-05 1.30634e-07
-5.76113e-07 1.30634e-07 -0.000173729
0.00132773 0.000285878 7.39859e-06
0.000285878 8.46914e-05 1.45137e-06
7.39859e-06 1.45137e-06 -0.000119196
0.00087549 0.000187061 1.23497e-05
0.000187061 -5.95066e-06 6.52237e-06
1.23497e-05 6.52237e-06 -0.00017184
0.000500596 0.00020161 1.35155e-06
0.00020161 -9.08892e-05 6.84081e-07
1.35155e-06 6.84081e-07 -0.0001985
0.0060867 1.32362e-05 -0.000216503
1.32362e-05 0.00335534 -2.50547e-05
-0.000216503 -2.50547e-05 0.00334072
0.000477169 0.000181679 2.19905e-05
0.000181679 -9.62305e-05 1.56085e-05
2.19905e-05 1.56085e-05 -0.000196073
0.00578708 -0.000106289 5.29348e-06
-0.000106289 0.003184 -9.36645e-07
5.29348e-06 -9.36645e-07 0.0031681
0.00490831 -0.000215001 0.000127681
-0.000215001 0.00268171 7.05972e-06
0.000127681 7.05972e-06 0.00265183
0.00190169 0.000105091 -4.56538e-06
0.000105091 5.89454e-05 4.82341e-07
-4.56538e-06 4.82341e-07 8.28692e-06
0.00193174 0.000151025 1.2812e-06
0.000151025 3.52765e-05 7.02445e-07
1.2812e-06 7.02445e-07 -1.90842e-05
0.00207065 0.000194383 4.7005e-08
0.000194383 1.39571e-06 -2.52811e-07
4.7005e-08 -2.52811e-07 -2.11532e-05
0.00202357 0.00026808 2.88395e-06
0.00026808 0.000129784 1.36863e-07
2.88395e-06 1.36863e-07 2.5395e-05
0.00172574 6.53342e-06 -1.56398e-06
6.53342e-06 -7.05275e-06 2.45962e-07
-1.56398e-06 2.45962e-07 -6.81953e-05
0.00190393 5.03696e-05 2.14306e-07
5.03696e-05 3.14177e-05 9.86882e-08
2.14306e-07 9.86882e-08 2.93554e-06
0.00196946 4.65262e-05 1.4322e-06
4.65262e-05 2.86574e-05 -2.23792e-07
1.4322e-06 -2.23792e-07 1.4419e-05
0.00188675 -1.49873e-05 2.12615e-06
-1.49873e-05 3.06215e-05 -7.71178e-07
2.12615e-06 -7.71178e-07 5.02396e-06
0.00185348 -2.8937e-05 -2.15632e-06
-2.8937e-05 5.878e-05 1.94869e-07
-2.15632e-06 1.94869e-07 3.3025e-06
0.00183078 -3.33211e-05 2.06804e-06
-3.33211e-05 0.000100998 -9.6861e-07
2.06804e-06 -9.6861e-07 1.00138e-05
0.00183045 -8.05542e-05 -2.71054e-07
-8.05542e-05 3.9238e-05 9.60986e-07
-2.71054e-07 9.60986e-07 -2.31278e-05
0.00182841 -8.45532e-05 -4.0005e-07
-8.45532e-05 9.99301e-05 3.02419e-07
-4.0005e-07 3.02419e-07 1.10497e-06
0.0015974 -6.31027e-05 -2.13458e-06
-6.31027e-05 9.3472e-05 -3.05065e-07
-2.13458e-06 -3.05065e-07 -3.03084e-05
0.00184849 -0.00014087 2.11487e-06
-0.00014087 0.000115244 -2.5012e-07
2.11487e-06 -2.5012e-07 6.33418e-06
0.0015544 -0.000104953 8.49769e-07
-0.000104953 7.96801e-05 -2.74408e-07
8.49769e-07 -2.74408e-07 -5.68047e-05
0.000986116 -6.47211e-05 -1.23126e-05
-6.47211e-05 -4.63119e-05 2.05419e-06
-1.23126e-05 2.05419e-06 -0.000178961
0.00153528 -0.000147079 2.14011e-06
-0.000147079 8.80173e-05 -1.98831e-07
2.14011e-06 -1.98831e-07 -5.90794e-05
0.000997535 -9.12634e-05 -7.10063e-08
-9.12634e-05 -3.2072e-05 2.07511e-07
-7.10063e-08 2.07511e-07 -0.000169635
0.000551091 -8.38077e-05 -1.98664e-05
-8.38077e-05 -0.000127641 5.12886e-06
-1.98664e-05 5.12886e-06 -0.00020736
0.00102529 -0.000112292 1.28748e-05
-0.000112292 -7.19124e-06 -3.47523e-06
1.28748e-05 -3.47523e-06 -0.000148542
0.001582 -9.63012e-05 5.01794e-05
-9.63012e-05 0.000500382 -3.43822e-06
5.01794e-05 -3.43822e-06 0.000429264
0.00579778 -0.00012905 -0.000255795
-0.00012905 0.00314238 1.67421e-05
-0.000255795 1.67421e-05 0.00315139
0.00270119 -0.000130617 0.00012103
-0.000130617 0.00117583 -1.38023e-05
0.00012103 -1.38023e-05 0.00111576
0.0016189 -5.54201e-05 -7.13869e-05
-5.54201e-05 0.000626391 6.13527e-06
-7.13869e-05 6.13527e-06 0.000599391
0.00131139 -6.99794e-05 5.18135e-05
-6.99794e-05 0.00045817 -7.37259e-06
5.18135e-05 -7.37259e-06 0.000418364
0.00193228 0.00011675 -2.09668e-06
0.00011675 0.000117396 1.50349e-06
-2.09668e-06 1.50349e-06 4.06095e-05
0.00190775 0.000177217 5.49972e-08
0.000177217 0.00015202 1.37811e-06
5.49972e-08 1.37811e-06 3.18402e-05
0.00196643 0.000159943 5.0595e-07
0.000159943 0.000128707 1.671e-07
5.0595e-07 1.671e-07 3.52997e-05
0.00162739 0.000202524 -2.57267e-06
0.000202524 0.000128535 -9.68269e-08
-2.57267e-06 -9.68269e-08 -2.53587e-05
0.00184478 0.000244853 4.39156e-07
0.000244853 0.00013162 1.62339e-08
4.39156e-07 1.62339e-08 -1.19895e-05
0.00192168 0.000269625 6.7982e-07
0.000269625 9.71197e-05 2.31285e-07
6.7982e-07 2.31285e-07 -2.59636e-05
0.000819977 0.000142861 -1.57385e-05
0.000142861 -0.000138814 -4.57616e-06
-1.57385e-05 -4.57616e-06 -0.000286259
0.00180313 0.000251974 2.58693e-06
0.000251974 0.000270844 6.51438e-07
2.58693e-06 6.51438e-07 0.000103129
0.00178612 0.000286056 4.86775e-08
0.000286056 0.000141224 -3.68468e-07
4.86775e-08 -3.68468e-07 -2.13867e-05
0.00045224 0.000131483 -1.95612e-05
0.000131483 -0.000156169 -1.04345e-05
-1.95612e-05 -1.04345e-05 -0.000248303
0.00085364 0.000165278 3.86334e-07
0.000165278 -9.51526e-05 3.14627e-07
3.86334e-07 3.14627e-07 -0.00024959
0.00143087 0.000266865 8.7315e-06
0.000266865 8.38259e-05 1.2508e-06
8.7315e-06 1.2508e-06 -9.9872e-05
0.00607807 9.7888e-05 -0.000228814
9.7888e-05 0.00332735 -2.46852e-05
-0.000228814 -2.46852e-05 0.0033228
0.000466018 0.000169336 9.10934e-07
0.000169336 -0.000127213 6.8956e-07
9.10934e-07 6.8956e-07 -0.000229542
0.000905031 0.000181876 1.37933e-05
0.000181876 -2.91809e-05 6.33186e-06
1.37933e-05 6.33186e-06 -0.000190063
0.000435825 0.000185107 2.10093e-05
0.000185107 -0.000125854 1.54584e-05
2.10093e-05 1.54584e-05 -0.000234542
0.00597053 2.97772e-06 9.55863e-06
2.97772e-06 0.00327622 -2.4507e-07
9.55863e-06 -2.4507e-07 0.00326875
0.00562262 -0.00014089 0.000179608
-0.00014089 0.00307995 9.36673e-06
0.000179608 9.36673e-06 0.00306602
0.00182528 6.47881e-05 -4.44618e-06
6.47881e-05 5.31265e-05 -5.06153e-07
-4.44618e-06 -5.06153e-07 -1.03654e-05
0.00188587 0.000103854 4.93953e-07
0.000103854 4.504e-05 6.09072e-07
4.93953e-07 6.09072e-07 -6.23975e-06
0.00188245 0.000151316 2.4435e-06
0.000151316 6.69021e-06 4.36717e-07
2.4435e-06 4.36717e-07 -4.55149e-05
0.00174038 4.96823e-06 2.31186e-06
4.96823e-06 5.34306e-05 -6.78865e-07
2.31186e-06 -6.78865e-07 -4.03483e-05
0.00177813 1.04645e-05 2.62815e-07
1.04645e-05 2.67259e-05 2.32142e-07
2.62815e-07 2.32142e-07 -3.11594e-05
0.00187911 4.07209e-05 2.5825e-06
4.07209e-05 1.34144e-05 -2.62041e-07
2.5825e-06 -2.62041e-07 -1.46088e-05
0.00184904 -2.36447e-05 -5.52127e-07
-2.36447e-05 5.74758e-05 7.07289e-07
-5.52127e-07 7.07289e-07 3.6462e-06
0.00179879 -3.07948e-05 9.24637e-07
-3.07948e-05 8.11071e-05 -1.17345e-07
9.24637e-07 -1.17345e-07 -9.53856e-06
0.00177666 -2.46616e-05 1.2609e-07
-2.46616e-05 0.000210125 -6.00991e-07
1.2609e-07 -6.00991e-07 9.2198e-05
0.00181259 -8.45245e-05 -2.25897e-06
-8.45245e-05 9.51428e-05 1.05804e-06
-2.25897e-06 1.05804e-06 -9.03665e-06
0.00165571 -6.39201e-05 1.02645e-07
-6.39201e-05 0.000131245 5.6834e-08
1.02645e-07 5.6834e-08 5.02657e-06
0.000831749 -3.33059e-05 -1.36292e-05
-3.33059e-05 -0.000145714 1.2309e-06
-1.36292e-05 1.2309e-06 -0.000273633
0.00154814 -0.000105084 2.65429e-06
-0.000105084 7.32486e-05 -3.01567e-07
2.65429e-06 -3.01567e-07 -6.31335e-05
0.000996177 -6.1689e-05 -6.65206e-08
-6.1689e-05 -4.13822e-05 1.36041e-07
-6.65206e-08 1.36041e-07 -0.000173502
0.00055817 -2.12812e-05 -1.8587e-05
-2.12812e-05 -0.000127019 3.19142e-06
-1.8587e-05 3.19142e-06 -0.000204355
0.00102526 -9.00967e-05 1.24627e-05
-9.00967e-05 -1.71558e-05 -2.53008e-06
1.24627e-05 -2.53008e-06 -0.000154174
0.000555972 -6.74146e-05 -1.99716e-07
-6.74146e-05 -0.000122765 3.95206e-07
-1.99716e-07 3.95206e-07 -0.000203818
0.00579622 -2.36552e-05 -0.000246992
-2.36552e-05 0.00313735 1.01527e-05
-0.000246992 1.01527e-05 0.00314915
0.000590856 -6.9792e-05 1.57535e-05
-6.9792e-05 -0.000100414 -7.02019e-06
1.57535e-05 -7.02019e-06 -0.00018424
0.0036531 -8.4697e-05 0.000112909
-8.4697e-05 0.00185318 -4.67002e-06
0.000112909 -4.67002e-06 0.00183731
0.00127319 -7.65706e-05 5.80671e-05
-7.65706e-05 0.000436344 -7.75491e-06
5.80671e-05 -7.75491e-06 0.000394895
0.00185574 9.95373e-05 -2.93646e-06
9.95373e-05 9.11384e-05 1.9067e-08
-2.93646e-06 1.9067e-08 1.46764e-05
0.00181642 0.000114013 2.13097e-06
0.000114013 0.000104454 2.35711e-06
2.13097e-06 2.35711e-06 -2.45489e-06
0.00191858 0.000111859 1.65112e-07
0.000111859 0.000109052 -1.95092e-07
1.65112e-07 -1.95092e-07 3.37309e-05
0.00156659 0.000146101 -1.42017e-06
0.000146101 7.94541e-05 5.84297e-08
-1.42017e-06 5.84297e-08 -6.37109e-05
0.00189702 0.00017658 5.45699e-07
0.00017658 0.000141195 1.95584e-07
5.45699e-07 1.95584e-07 1.97769e-05
0.0019814 0.000156714 1.27393e-06
0.000156714 0.000144132 -1.24278e-06
1.27393e-06 -1.24278e-06 5.02032e-05
0.00085496 0.000118182 -1.46987e-05
0.000118182 -0.000133002 -3.43734e-06
-1.46987e-05 -3.43734e-06 -0.000273488
0.00169321 0.000202814 3.08505e-07
0.000202814 0.000172425 3.51265e-07
3.08505e-07 3.51265e-07 1.7353e-05
0.00180555 0.000240874 7.34773e-07
0.000240874 0.000109549 -3.60666e-07
7.34773e-07 -3.60666e-07 -3.3503e-05
0.00046738 9.33123e-05 -1.80446e-05
9.33123e-05 -0.000165864 -7.56865e-06
-1.80446e-05 -7.56865e-06 -0.000250577
0.000784855 0.00014113 -2.5314e-06
0.00014113 -0.00015884 -2.62445e-07
-2.5314e-06 -2.62445e-07 -0.000306268
0.00181608 0.000252851 7.57451e-06
0.000252851 0.000278191 1.79966e-06
7.57451e-06 1.79966e-06 0.000110553
0.00600018 0.000170722 -0.000246891
0.000170722 0.0032694 -2.37745e-05
-0.000246891 -2.37745e-05 0.00327046
0.000468365 0.00012707 2.53855e-07
0.00012707 -0.000147621 4.01178e-07
2.53855e-07 4.01178e-07 -0.000240182
0.000707219 0.000158421 1.39942e-05
0.000158421 -0.000183115 5.26739e-06
1.39942e-05 5.26739e-06 -0.00033791
0.00599543 0.000112213 1.30192e-05
0.000112213 0.00328076 1.81096e-06
1.30192e-05 1.81096e-06 0.00327629
0.00045725 0.000157272 1.96373e-05
0.000157272 -0.00013244 1.34414e-05
1.96373e-05 1.34414e-05 -0.000235454
0.00588262 -2.95093e-05 0.000213071
-2.95093e-05 0.00321245 1.43213e-05
0.000213071 1.43213e-05 0.00321191
0.00185782 4.58858e-05 4.05736e-07
4.58858e-05 0.000113367 -5.30734e-07
4.05736e-07 -5.30734e-07 2.13033e-05
0.00183245 6.34109e-05 -1.7651e-06
6.34109e-05 6.61044e-05 2.17126e-07
-1.7651e-06 2.17126e-07 8.81018e-07
0.00186788 0.000102396 4.12022e-06
0.000102396 2.93731e-05 3.6324e-07
4.12022e-06 3.6324e-07 -2.24207e-05
0.00176954 -2.07162e-06 1.1312e-06
-2.07162e-06 0.000212603 -4.43632e-07
1.1312e-06 -4.43632e-07 9.68268e-05
0.00170728 4.86795e-06 -1.35398e-07
4.86795e-06 3.01379e-05 -1.98794e-08
-1.35398e-07 -1.98794e-08 -6.13725e-05
0.00181269 1.58808e-05 3.59514e-06
1.58808e-05 4.89282e-05 3.92488e-07
3.59514e-06 3.92488e-07 -5.80631e-06
0.0017871 -2.88124e-05 -3.65251e-07
-2.88124e-05 7.40663e-05 7.87804e-07
-3.65251e-07 7.87804e-07 -1.61883e-05
0.00176854 -2.44724e-05 2.82271e-06
-2.44724e-05 0.000204418 -3.00903e-07
2.82271e-06 -3.00903e-07 8.64309e-05
0.000840502 -1.14334e-05 -1.31522e-05
-1.14334e-05 -0.000137111 5.48735e-07
-1.31522e-05 5.48735e-07 -0.00026184
0.00171863 -6.4981e-05 2.25392e-06
-6.4981e-05 0.000171636 1.26346e-07
2.25392e-06 1.26346e-07 4.29703e-05
0.000916915 -3.31749e-05 -1.95478e-06
-3.31749e-05 -9.37054e-05 1.44941e-07
-1.95478e-06 1.44941e-07 -0.00022159
0.000558852 -6.86505e-06 -1.88234e-05
-6.86505e-06 -0.000128784 2.03766e-06
-1.88234e-05 2.03766e-06 -0.000204227
0.00100996 -5.98287e-05 1.19476e-05
-5.98287e-05 -3.37591e-05 -1.76702e-06
1.19476e-05 -1.76702e-06 -0.000165465
0.000536501 -3.26055e-05 8.84849e-07
-3.26055e-05 -0.000141176 -9.18094e-08
8.84849e-07 -9.18094e-08 -0.000217314
0.00571991 -0.000121334 -0.000254699
-0.000121334 0.00310143 1.09074e-05
-0.000254699 1.09074e-05 0.00310949
0.000528909 -5.06231e-05 1.79355e-05
-5.06231e-05 -0.00013899 -3.94172e-06
1.79355e-05 -3.94172e-06 -0.000219799
0.00576975 -6.00257e-05 7.67182e-06
-6.00257e-05 0.00312265 -5.89671e-08
7.67182e-06 -5.89671e-08 0.00313459
0.00161968 -2.3932e-05 0.000202218
-2.3932e-05 0.00061814 -1.16589e-05
0.000202218 -1.16589e-05 0.000605972
0.00172068 7.96433e-05 2.0194e-06
7.96433e-05 4.24795e-05 4.71938e-07
2.0194e-06 4.71938e-07 -6.01726e-05
0.00180986 0.000102092 -3.40243e-06
0.000102092 6.05667e-05 -9.87882e-07
-3.40243e-06 -9.87882e-07 -1.32095e-05
0.00156118 9.3818e-05 -4.72192e-07
9.3818e-05 7.59912e-05 2.67245e-07
-4.72192e-07 2.67245e-07 -5.61323e-05
0.00182799 0.00011346 7.22858e-07
0.00011346 0.000108975 1.83236e-07
7.22858e-07 1.83236e-07 1.94119e-06
0.00190671 0.000107141 1.48157e-06
0.000107141 0.000101663 -2.70539e-06
1.48157e-06 -2.70539e-06 2.777e-05
0.00105357 9.01824e-05 -1.25682e-05
9.01824e-05 -1.3965e-05 -2.39827e-06
-1.25682e-05 -2.39827e-06 -0.000146646
0.0015659 0.000145586 1.38313e-07
0.000145586 8.14397e-05 3.83571e-08
1.38313e-07 3.83571e-08 -6.18606e-05
0.00188345 0.000175828 6.76095e-07
0.000175828 0.000128917 -8.60184e-07
6.76095e-07 -8.60184e-07 6.26281e-06
0.000498202 6.67006e-05 -1.76345e-05
6.67006e-05 -0.000159398 -5.43316e-06
-1.76345e-05 -5.43316e-06 -0.000239984
0.000915681 0.000120613 -2.67492e-06
0.000120613 -9.43949e-05 -1.86271e-07
-2.67492e-06 -1.86271e-07 -0.000234917
0.00176363 0.000203063 3.73123e-06
0.000203063 0.000219399 1.0123e-06
3.73123e-06 1.0123e-06 6.31771e-05
0.00592653 0.000208411 -0.000265022
0.000208411 0.00322897 -2.27457e-05
-0.000265022 -2.27457e-05 0.00322901
0.000497399 9.36036e-05 -1.80341e-08
9.36036e-05 -0.000149084 1.75341e-07
-1.80341e-08 1.75341e-07 -0.00023404
0.000750748 0.00013948 1.00083e-05
0.00013948 -0.000178549 3.8118e-06
1.00083e-05 3.8118e-06 -0.000325898
0.00595887 0.000191548 1.09017e-05
0.000191548 0.00325496 3.37868e-06
1.09017e-05 3.37868e-06 0.00325129
0.000488203 0.000121062 1.85134e-05
0.000121062 -0.00013741 1.04994e-05
1.85134e-05 1.04994e-05 -0.000229958
0.00594786 0.000108297 0.00023712
0.000108297 0.00324156 2.10214e-05
0.00023712 2.10214e-05 0.00324445
0.00174713 3.27633e-05 2.1876e-06
3.27633e-05 0.000196669 -1.04253e-08
2.1876e-06 -1.04253e-08 7.99181e-05
0.0018139 4.1761e-05 -1.79522e-06
4.1761e-05 9.07437e-05 9.82164e-08
-1.79522e-06 9.82164e-08 -2.90283e-06
0.00184311 6.16622e-05 2.9552e-07
6.16622e-05 8.1654e-05 6.16328e-08
2.9552e-07 6.16328e-08 1.46977e-05
0.000838242 -7.24822e-06 -1.36886e-05
-7.24822e-06 -0.00013086 -1.52932e-07
-1.36886e-05 -1.52932e-07 -0.000254261
0.00176854 3.90534e-06 3.30425e-06
3.90534e-06 0.000211817 -2.07217e-07
3.30425e-06 -2.07217e-07 9.59663e-05
0.00169008 4.49823e-06 -1.22967e-06
4.49823e-06 1.66367e-05 6.57356e-07
-1.22967e-06 6.57356e-07 -7.24271e-05
0.00176448 -2.46406e-05 5.31315e-06
-2.46406e-05 0.000201157 1.10177e-07
5.31315e-06 1.10177e-07 8.31112e-05
0.000833954 -1.17328e-05 -1.3955e-06
-1.17328e-05 -0.000141927 9.5289e-08
-1.3955e-06 9.5289e-08 -0.000266833
0.000560403 -3.03199e-05 -1.92188e-05
-3.03199e-05 -0.000128536 8.91996e-07
-1.92188e-05 8.91996e-07 -0.00020168
0.000983708 -3.21825e-05 1.05087e-05
-3.21825e-05 -5.25604e-05 -1.20102e-06
1.05087e-05 -1.20102e-06 -0.000180434
0.000538984 4.18957e-06 3.29297e-07
4.18957e-06 -0.000141186 3.53679e-08
3.29297e-07 3.53679e-08 -0.000215855
0.00571048 -9.67763e-05 -0.00025948
-9.67763e-05 0.00309412 7.83153e-06
-0.00025948 7.83153e-06 0.00310457
0.000545707 -3.75618e-05 1.87783e-05
-3.75618e-05 -0.000133759 -2.65375e-06
1.87783e-05 -2.65375e-06 -0.000211003
0.00573811 -1.53987e-05 -3.04761e-06
-1.53987e-05 0.00310273 1.90073e-06
-3.04761e-06 1.90073e-06 0.00311661
0.0057683 -7.69773e-05 0.00025439
-7.69773e-05 0.00312093 -9.64139e-06
0.00025439 -9.64139e-06 0.00313382
0.0015268 5.58301e-05 -3.29551e-07
5.58301e-05 6.0005e-05 1.12863e-07
-3.29551e-07 1.12863e-07 -6.6299e-05
0.00177422 8.22175e-05 -1.99665e-06
8.22175e-05 7.13887e-05 -1.35033e-06
-1.99665e-06 -1.35033e-06 -2.64311e-05
0.00176356 0.000104952 -3.02109e-06
0.000104952 3.01397e-05 -1.69742e-06
-3.02109e-06 -1.69742e-06 -4.09844e-05
0.00105444 5.40641e-05 -1.22948e-05
5.40641e-05 -1.06195e-05 -1.85342e-06
-1.22948e-05 -1.85342e-06 -0.0001375
0.00154866 9.32197e-05 2.00281e-07
9.32197e-05 6.9729e-05 -1.02905e-08
2.00281e-07 -1.02905e-08 -6.27552e-05
0.00183714 0.000112797 -4.98687e-07
0.000112797 0.000112265 -1.77154e-06
-4.98687e-07 -1.77154e-06 5.10914e-06
0.000526476 4.26336e-05 -1.72798e-05
4.26336e-05 -0.000146716 -3.9201e-06
-1.72798e-05 -3.9201e-06 -0.000224664
0.00102129 9.14642e-05 2.79151e-07
9.14642e-05 -3.32923e-05 2.21489e-07
2.79151e-07 2.21489e-07 -0.000166636
0.00156508 0.000145097 2.09151e-06
0.000145097 8.29281e-05 7.28391e-08
2.09151e-06 7.28391e-08 -6.0526e-05
0.00583223 0.000190983 -0.000276139
0.000190983 0.00317439 -1.94295e-05
-0.000276139 -1.94295e-05 0.00317665
0.000527621 7.06148e-05 3.41295e-07
7.06148e-05 -0.000141786 1.59483e-07
3.41295e-07 1.59483e-07 -0.000223055
0.000973602 0.000122969 1.0038e-05
0.000122969 -5.76889e-05 3.16773e-06
1.0038e-05 3.16773e-06 -0.000198203
0.00592369 0.000222255 6.37783e-06
0.000222255 0.00323369 2.94013e-06
6.37783e-06 2.94013e-06 0.00323111
0.000530411 9.54315e-05 1.78593e-05
9.54315e-05 -0.000129697 8.0446e-06
1.78593e-05 8.0446e-06 -0.000215179
0.00594495 0.000216195 0.000255069
0.000216195 0.00324843 2.65385e-05
0.000255069 2.65385e-05 0.00324417
0.00100188 1.61755e-05 -1.2878e-05
1.61755e-05 -2.83041e-05 -7.44199e-07
-1.2878e-05 -7.44199e-07 -0.000151645
0.0016617 2.85047e-05 3.78941e-06
2.85047e-05 0.000145404 8.97533e-08
3.78941e-06 8.97533e-08 2.88657e-05
0.00176894 3.71937e-05 -4.48107e-06
3.71937e-05 6.72542e-05 1.74057e-07
-4.48107e-06 1.74057e-07 -2.80189e-05
0.000593054 3.06739e-05 -1.97893e-05
3.06739e-05 -0.000116909 -5.46063e-07
-1.97893e-05 -5.46063e-07 -0.000183008
0.000816392 -1.56265e-06 -1.61774e-06
-1.56265e-06 -0.000144878 6.06785e-08
-1.61774e-06 6.06785e-08 -0.000268411
0.0017666 1.06249e-05 5.49648e-06
1.06249e-05 0.000210425 1.74259e-07
5.49648e-06 1.74259e-07 9.44786e-05
0.000824069 -1.16075e-05 1.04223e-05
-1.16075e-05 -0.000148862 -4.26841e-07
1.04223e-05 -4.26841e-07 -0.000273928
0.000556456 -4.89265e-06 2.94992e-07
-4.89265e-06 -0.000130682 3.54742e-07
2.94992e-07 3.54742e-07 -0.000204087
0.00566736 3.37529e-05 -0.000263974
3.37529e-05 0.00306338 -1.37578e-07
-0.000263974 -1.37578e-07 0.0030783
0.00051681 1.57319e-05 1.83201e-05
1.57319e-05 -0.000155634 -1.23887e-06
1.83201e-05 -1.23887e-06 -0.00022918
0.0056849 -9.53994e-05 -7.7856e-06
-9.53994e-05 0.00307978 1.63564e-06
-7.7856e-06 1.63564e-06 0.00308981
0.00568969 3.84234e-06 0.000244192
3.84234e-06 0.00307412 -4.45925e-06
0.000244192 -4.45925e-06 0.00308776
0.00102647 2.94085e-05 -1.26822e-05
2.94085e-05 -1.96209e-05 -1.41549e-06
-1.26822e-05 -1.41549e-06 -0.000143633
0.00153966 5.46382e-05 -1.89549e-07
5.46382e-05 6.80925e-05 -8.20009e-08
-1.89549e-07 -8.20009e-08 -5.53782e-05
0.00183076 8.45844e-05 -4.54947e-06
8.45844e-05 0.000101948 -2.16219e-06
-4.54947e-06 -2.16219e-06 8.98278e-06
0.00263616 5.38981e-05 -0.000125593
5.38981e-05 0.00112178 -4.1789e-06
-0.000125593 -4.1789e-06 0.00107269
0.00101554 5.59087e-05 2.91746e-07
5.59087e-05 -3.43912e-05 1.14261e-07
2.91746e-07 1.14261e-07 -0.000161766
0.00153646 9.25519e-05 1.81862e-06
9.25519e-05 6.3647e-05 -1.32694e-07
1.81862e-06 -1.32694e-07 -6.921e-05
0.00574331 0.000146281 -0.000277385
0.000146281 0.00311763 -1.42604e-05
-0.000277385 -1.42604e-05 0.00312512
0.000561408 6.05159e-05 8.4651e-07
6.05159e-05 -0.000123726 3.59138e-07
8.4651e-07 3.59138e-07 -0.000203383
0.000991894 9.28302e-05 1.24718e-05
9.28302e-05 -5.08063e-05 2.78604e-06
1.24718e-05 2.78604e-06 -0.00018479
0.00588482 0.000203415 1.82898e-06
0.000203415 0.00320757 1.65536e-06
1.82898e-06 1.65536e-06 0.00320882
0.000567979 7.73793e-05 1.81472e-05
7.73793e-05 -0.000116501 6.30445e-06
1.81472e-05 6.30445e-06 -0.000199095
0.00591773 0.000251328 0.000267085
0.000251328 0.00323991 2.78637e-05
0.000267085 2.78637e-05 0.00323207
0.000643321 1.00201e-05 -1.63126e-05
1.00201e-05 -7.62596e-05 -1.84498e-06
-1.63126e-05 -1.84498e-06 -0.00015084
0.000902069 1.47792e-05 6.11778e-07
1.47792e-05 -9.01073e-05 2.47863e-07
6.11778e-07 2.47863e-07 -0.000213574
0.00157642 2.3494e-05 4.549e-06
2.3494e-05 9.4032e-05 1.01411e-07
4.549e-06 1.01411e-07 -2.22469e-05
0.00554437 -9.53049e-05 -0.00024826
-9.53049e-05 0.00300601 1.74432e-06
-0.00024826 1.74432e-06 0.00301094
0.000552052 8.20557e-06 -5.40146e-07
8.20557e-06 -0.000136894 8.75096e-08
-5.40146e-07 8.75096e-08 -0.000205597
0.000809042 3.31923e-06 1.03451e-05
3.31923e-06 -0.000150426 1.24568e-07
1.03451e-05 1.24568e-07 -0.000274045
0.000516587 2.07133e-05 1.8542e-05
2.07133e-05 -0.000155328 1.70091e-07
1.8542e-05 1.70091e-07 -0.000228016
0.00562224 -1.99918e-06 2.37327e-06
-1.99918e-06 0.003041 -1.10026e-06
2.37327e-06 -1.10026e-06 0.00305233
0.00569006 -1.26824e-05 0.000252969
-1.26824e-05 0.00307281 -2.57589e-06
0.000252969 -2.57589e-06 0.00308792
0.00271354 1.00411e-05 -0.00012185
1.00411e-05 0.00116523 -2.54371e-06
-0.00012185 -2.54371e-06 0.00111784
0.00101609 3.24729e-05 5.6947e-08
3.24729e-05 -2.75622e-05 8.84382e-08
5.6947e-08 8.84382e-08 -0.000151932
0.00154539 5.35949e-05 1.62151e-06
5.35949e-05 7.21628e-05 -2.60218e-07
1.62151e-06 -2.60218e-07 -4.84643e-05
0.00531885 -5.03962e-05 -9.39046e-05
-5.03962e-05 0.00287351 5.2141e-07
-9.39046e-05 5.2141e-07 0.00286023
0.000577755 5.2986e-05 8.7342e-08
5.2986e-05 -0.000115119 2.14424e-07
8.7342e-08 2.14424e-07 -0.000191365
0.000993922 5.83229e-05 1.21662e-05
5.83229e-05 -4.84322e-05 2.11038e-06
1.21662e-05 2.11038e-06 -0.000176241
0.00579951 0.000118359 -1.06968e-05
0.000118359 0.00314665 -1.38392e-06
-1.06968e-05 -1.38392e-06 0.0031557
0.000592936 8.31652e-05 1.95681e-05
8.31652e-05 -0.00010422 5.27792e-06
1.95681e-05 5.27792e-06 -0.000184624
0.00590981 0.000227623 0.000277601
0.000227623 0.00322981 2.50823e-05
0.000277601 2.50823e-05 0.00322764
0.00169213 -5.13785e-05 -0.000205793
-5.13785e-05 0.000657435 8.59426e-07
-0.000205793 8.59426e-07 0.000651108
0.00164295 2.73724e-05 -5.12389e-05
2.73724e-05 0.000518556 1.98314e-07
-5.12389e-05 1.98314e-07 0.000462254
0.000799245 1.58946e-05 1.2478e-05
1.58946e-05 -0.000153346 9.61641e-07
1.2478e-05 9.61641e-07 -0.000277006
0.00561264 -4.20664e-05 7.53067e-06
-4.20664e-05 0.00304117 1.7024e-06
7.53067e-06 1.7024e-06 0.00305065
0.000568601 -1.25541e-05 1.91125e-05
-1.25541e-05 -0.000121285 8.17697e-07
1.91125e-05 8.17697e-07 -0.000193484
0.00566393 -6.84726e-05 0.000267296
-6.84726e-05 0.00306759 -2.76167e-06
0.000267296 -2.76167e-06 0.0030793
0.00127634 1.51255e-05 -4.54139e-05
1.51255e-05 0.000431764 -7.67778e-07
-4.54139e-05 -7.67778e-07 0.000397001
0.00163201 1.42192e-05 -5.16706e-05
1.42192e-05 0.000515561 -8.20853e-07
-5.16706e-05 -8.20853e-07 0.000455926
0.000995283 3.41632e-05 1.24125e-05
3.41632e-05 -4.15227e-05 1.63939e-06
1.24125e-05 1.63939e-06 -0.000166279
0.00351461 5.55739e-05 9.84114e-05
5.55739e-05 0.00177007 2.48036e-06
9.84114e-05 2.48036e-06 0.00175983
0.000585199 6.3472e-05 1.98296e-05
6.3472e-05 -0.000110595 4.07996e-06
1.98296e-05 4.07996e-06 -0.000186851
0.00585885 0.000107123 0.000265343
0.000107123 0.00317612 1.5107e-05
0.000265343 1.5107e-05 0.00318835
0.00556609 -2.0954e-05 -8.9051e-06
-2.0954e-05 0.00301589 -2.32313e-06
-8.9051e-06 -2.32313e-06 0.0030244
0.000568719 4.58279e-05 2.05754e-05
4.58279e-05 -0.000130534 2.13411e-06
2.05754e-05 2.13411e-06 -0.000196316
0.00552894 4.67277e-05 0.000254693
4.67277e-05 0.00298752 1.60361e-07
0.000254693 1.60361e-07 0.00300006
0.00344611 2.79014e-05 0.00011176
2.79014e-05 0.00173276 3.74149e-06
0.00011176 3.74149e-06 0.00172326
0.000598753 5.97904e-06 1.90299e-05
5.97904e-06 -0.000103961 2.71393e-06
1.90299e-05 2.71393e-06 -0.000176709
0.00572081 -1.781e-05 0.000255574
-1.781e-05 0.00309542 6.60582e-06
0.000255574 6.60582e-06 0.00310774
0.0056046 -0.000124452 0.000251254
-0.000124452 0.00304417 -3.3743e-06
0.000251254 -3.3743e-06 0.00304797
0.00559216 -4.42682e-06 0.000251109
-4.42682e-06 0.0030166 3.58423e-06
0.000251109 3.58423e-06 0.0030321
